** ======================================================================
** LevelSetWear, input file of an example
**
** Written by Inigo Llavori
**
** I. Llavori, Wear simulation on a fixed mesh with level sets
** and immersed frictional contact,
** submitted for publication. Mondragon Unibertsitatea.
** https://github.com/illavori/LevelSetWear       BSD 3-Clause
** ======================================================================
*HEADING
Fretting test of McColl et al., 18000 cycles, mesh-motion model
** Job name: frettingWear Model name: Model-1
** Generated by: Abaqus/CAE 2020
*Preprint, echo=NO, model=NO, history=NO, contact=NO
**
** PARTS
**
*Part, name=CYLINDER
*Node
      1,        -3.25,           6.
      2,         -0.5,   0.22159192
      3,          0.5,   0.22159192
      4,         3.25,           6.
      5,          0.5, 0.0208696276
      6,           6.,           6.
      7,         -0.5, 0.0208696276
      8,          -6.,           6.
      9,  -2.90562677,    5.2763896
     10,  -2.60055804,   4.63536692
     11,  -2.33030772,   4.06750631
     12,  -2.09090185,   3.56445765
     13,   -1.8788203,   3.11882329
     14,  -1.69094419,   2.72405076
     15,   -1.5245111,   2.37433481
     16,  -1.37707341,   2.06453323
     17,  -1.24646342,   1.79009008
     18,  -1.13076019,   1.54697013
     19,  -1.02826262,   1.33159816
     20, -0.937463462,   1.14080739
     21, -0.857027471,  0.971792102
     22, -0.785771906,  0.822067082
     23, -0.722648978,  0.689430654
     24, -0.666730464,  0.571932495
     25, -0.617194116,  0.467844754
     26, -0.573311448,  0.375636876
     27, -0.534437299,  0.293952972
     28,  -0.49002412,  0.220737383
     29, -0.480046749,  0.219900072
     30, -0.470067978,  0.219080001
     31, -0.460087776,  0.218277141
     32, -0.450106233,  0.217491508
     33,  -0.44012332,  0.216723114
     34, -0.430139124,  0.215971962
     35, -0.420153618,  0.215238035
     36, -0.410166889,  0.214521363
     37, -0.400178909,  0.213821918
     38, -0.390189767,  0.213139713
     39, -0.380199432,  0.212474763
     40, -0.370207995,  0.211827055
     41, -0.360215425,  0.211196601
     42, -0.350221783,  0.210583389
     43, -0.340227127,  0.209987432
     44, -0.330231428,   0.20940873
     45, -0.320234746,  0.208847284
     46, -0.310237139,  0.208303109
     47,  -0.30023858,  0.207776174
     48, -0.290239125,   0.20726651
     49, -0.280238807,  0.206774116
     50, -0.270237684,  0.206298977
     51, -0.260235727,  0.205841094
     52, -0.250232995,  0.205400497
     53, -0.240229517,  0.204977155
     54,  -0.23022534,  0.204571083
     55, -0.220220461,  0.204182282
     56, -0.210214928,  0.203810766
     57, -0.200208768,  0.203456506
     58, -0.190202013,  0.203119531
     59, -0.180194691,  0.202799827
     60, -0.170186833,  0.202497393
     61, -0.160178468,  0.202212244
     62, -0.150169626,  0.201944366
     63, -0.140160337,  0.201693773
     64, -0.130150631,  0.201460466
     65, -0.120140538,  0.201244429
     66, -0.110130087,  0.201045662
     67,   -0.1001193,  0.200864196
     68, -0.0901082233,       0.2007
     69, -0.0800968781,  0.200553089
     70, -0.0700852871,  0.200423464
     71, -0.0600734912,  0.200311109
     72, -0.0500615165,  0.200216055
     73, -0.0400493927,  0.200138271
     74, -0.0300371479,  0.200077772
     75, -0.0200248156,  0.200034574
     76, -0.0100124227,  0.200008646
     77,           0.,  0.200000003
     78, 0.0100124227,  0.200008646
     79, 0.0200248156,  0.200034574
     80, 0.0300371479,  0.200077772
     81, 0.0400493927,  0.200138271
     82, 0.0500615165,  0.200216055
     83, 0.0600734912,  0.200311109
     84, 0.0700852871,  0.200423464
     85, 0.0800968781,  0.200553089
     86, 0.0901082233,       0.2007
     87,    0.1001193,  0.200864196
     88,  0.110130087,  0.201045662
     89,  0.120140538,  0.201244429
     90,  0.130150631,  0.201460466
     91,  0.140160337,  0.201693773
     92,  0.150169626,  0.201944366
     93,  0.160178468,  0.202212244
     94,  0.170186833,  0.202497393
     95,  0.180194691,  0.202799827
     96,  0.190202013,  0.203119531
     97,  0.200208768,  0.203456506
     98,  0.210214928,  0.203810766
     99,  0.220220461,  0.204182282
    100,   0.23022534,  0.204571083
    101,  0.240229517,  0.204977155
    102,  0.250232995,  0.205400497
    103,  0.260235727,  0.205841094
    104,  0.270237684,  0.206298977
    105,  0.280238807,  0.206774116
    106,  0.290239125,   0.20726651
    107,   0.30023858,  0.207776174
    108,  0.310237139,  0.208303109
    109,  0.320234746,  0.208847284
    110,  0.330231428,   0.20940873
    111,  0.340227127,  0.209987432
    112,  0.350221783,  0.210583389
    113,  0.360215425,  0.211196601
    114,  0.370207995,  0.211827055
    115,  0.380199432,  0.212474763
    116,  0.390189767,  0.213139713
    117,  0.400178909,  0.213821918
    118,  0.410166889,  0.214521363
    119,  0.420153618,  0.215238035
    120,  0.430139124,  0.215971962
    121,   0.44012332,  0.216723114
    122,  0.450106233,  0.217491508
    123,  0.460087776,  0.218277141
    124,  0.470067978,  0.219080001
    125,  0.480046749,  0.219900072
    126,   0.49002412,  0.220737383
    127,  0.534437299,  0.293952972
    128,  0.573311448,  0.375636876
    129,  0.617194116,  0.467844754
    130,  0.666730464,  0.571932495
    131,  0.722648978,  0.689430654
    132,  0.785771906,  0.822067082
    133,  0.857027471,  0.971792102
    134,  0.937463462,   1.14080739
    135,   1.02826262,   1.33159816
    136,   1.13076019,   1.54697013
    137,   1.24646342,   1.79009008
    138,   1.37707341,   2.06453323
    139,    1.5245111,   2.37433481
    140,   1.69094419,   2.72405076
    141,    1.8788203,   3.11882329
    142,   2.09090185,   3.56445765
    143,   2.33030772,   4.06750631
    144,   2.60055804,   4.63536692
    145,   2.90562677,    5.2763896
    146,   3.18499994,           6.
    147,   3.11999989,           6.
    148,   3.05500007,           6.
    149,   2.99000001,           6.
    150,   2.92499995,           6.
    151,    2.8599999,           6.
    152,   2.79500008,           6.
    153,   2.73000002,           6.
    154,   2.66499996,           6.
    155,    2.5999999,           6.
    156,   2.53500009,           6.
    157,   2.47000003,           6.
    158,   2.40499997,           6.
    159,   2.33999991,           6.
    160,    2.2750001,           6.
    161,   2.21000004,           6.
    162,   2.14499998,           6.
    163,   2.07999992,           6.
    164,    2.0150001,           6.
    165,   1.95000005,           6.
    166,   1.88499999,           6.
    167,   1.82000005,           6.
    168,        1.755,           6.
    169,   1.69000006,           6.
    170,        1.625,           6.
    171,   1.55999994,           6.
    172,        1.495,           6.
    173,   1.42999995,           6.
    174,   1.36500001,           6.
    175,   1.29999995,           6.
    176,   1.23500001,           6.
    177,   1.16999996,           6.
    178,   1.10500002,           6.
    179,   1.03999996,           6.
    180,  0.975000024,           6.
    181,  0.910000026,           6.
    182,  0.845000029,           6.
    183,  0.779999971,           6.
    184,  0.714999974,           6.
    185,  0.649999976,           6.
    186,  0.584999979,           6.
    187,  0.519999981,           6.
    188,  0.455000013,           6.
    189,  0.389999986,           6.
    190,  0.324999988,           6.
    191,   0.25999999,           6.
    192,  0.194999993,           6.
    193,  0.129999995,           6.
    194, 0.0649999976,           6.
    195,           0.,           6.
    196, -0.0649999976,           6.
    197, -0.129999995,           6.
    198, -0.194999993,           6.
    199,  -0.25999999,           6.
    200, -0.324999988,           6.
    201, -0.389999986,           6.
    202, -0.455000013,           6.
    203, -0.519999981,           6.
    204, -0.584999979,           6.
    205, -0.649999976,           6.
    206, -0.714999974,           6.
    207, -0.779999971,           6.
    208, -0.845000029,           6.
    209, -0.910000026,           6.
    210, -0.975000024,           6.
    211,  -1.03999996,           6.
    212,  -1.10500002,           6.
    213,  -1.16999996,           6.
    214,  -1.23500001,           6.
    215,  -1.29999995,           6.
    216,  -1.36500001,           6.
    217,  -1.42999995,           6.
    218,       -1.495,           6.
    219,  -1.55999994,           6.
    220,       -1.625,           6.
    221,  -1.69000006,           6.
    222,       -1.755,           6.
    223,  -1.82000005,           6.
    224,  -1.88499999,           6.
    225,  -1.95000005,           6.
    226,   -2.0150001,           6.
    227,  -2.07999992,           6.
    228,  -2.14499998,           6.
    229,  -2.21000004,           6.
    230,   -2.2750001,           6.
    231,  -2.33999991,           6.
    232,  -2.40499997,           6.
    233,  -2.47000003,           6.
    234,  -2.53500009,           6.
    235,   -2.5999999,           6.
    236,  -2.66499996,           6.
    237,  -2.73000002,           6.
    238,  -2.79500008,           6.
    239,   -2.8599999,           6.
    240,  -2.92499995,           6.
    241,  -2.99000001,           6.
    242,  -3.05500007,           6.
    243,  -3.11999989,           6.
    244,  -3.18499994,           6.
    245,          0.5,  0.211555794
    246,          0.5,  0.201519683
    247,          0.5,  0.191483572
    248,          0.5,  0.181447461
    249,          0.5,   0.17141135
    250,          0.5,  0.161375225
    251,          0.5,  0.151339114
    252,          0.5,  0.141303003
    253,          0.5,  0.131266892
    254,          0.5,  0.121230774
    255,          0.5,  0.111194655
    256,          0.5,  0.101158544
    257,          0.5, 0.0911224261
    258,          0.5, 0.0810863152
    259,          0.5, 0.0710501969
    260,          0.5,  0.061014086
    261,          0.5, 0.0509779714
    262,          0.5, 0.0409418568
    263,          0.5, 0.0309057422
    264,  0.611272812, 0.0312190913
    265,  0.736625016,  0.045389723
    266,  0.877733231, 0.0645485073
    267,   1.03642333, 0.0901923329
    268,   1.21465898,  0.124235928
    269,    1.4145149,  0.169121206
    270,   1.63812709,  0.227951869
    271,   1.88760889,  0.304656923
    272,   2.16491723,   0.40418607
    273,   2.47164702,  0.532737315
    274,   2.80872273,  0.698012054
    275,   3.17594838,  0.909484088
    276,   3.57135963,   1.17865264
    277,   3.99031782,   1.51922286
    278,   4.42426395,   1.94711375
    279,   4.85906363,   2.48012757
    280,   5.27288437,   3.13701391
    281,   5.63364458,   3.93552732
    282,    5.8962245,   4.88890314
    283,   5.86250019,           6.
    284,    5.7249999,           6.
    285,    5.5875001,           6.
    286,   5.44999981,           6.
    287,       5.3125,           6.
    288,   5.17500019,           6.
    289,    5.0374999,           6.
    290,    4.9000001,           6.
    291,   4.76249981,           6.
    292,        4.625,           6.
    293,   4.48750019,           6.
    294,    4.3499999,           6.
    295,    4.2125001,           6.
    296,   4.07499981,           6.
    297,       3.9375,           6.
    298,   3.79999995,           6.
    299,    3.6624999,           6.
    300,    3.5250001,           6.
    301,   3.38750005,           6.
    302,         -0.5, 0.0309057422
    303,         -0.5, 0.0409418568
    304,         -0.5, 0.0509779714
    305,         -0.5,  0.061014086
    306,         -0.5, 0.0710501969
    307,         -0.5, 0.0810863152
    308,         -0.5, 0.0911224261
    309,         -0.5,  0.101158544
    310,         -0.5,  0.111194655
    311,         -0.5,  0.121230774
    312,         -0.5,  0.131266892
    313,         -0.5,  0.141303003
    314,         -0.5,  0.151339114
    315,         -0.5,  0.161375225
    316,         -0.5,   0.17141135
    317,         -0.5,  0.181447461
    318,         -0.5,  0.191483572
    319,         -0.5,  0.201519683
    320,         -0.5,  0.211555794
    321,  -3.38750005,           6.
    322,   -3.5250001,           6.
    323,   -3.6624999,           6.
    324,  -3.79999995,           6.
    325,      -3.9375,           6.
    326,  -4.07499981,           6.
    327,   -4.2125001,           6.
    328,   -4.3499999,           6.
    329,  -4.48750019,           6.
    330,       -4.625,           6.
    331,  -4.76249981,           6.
    332,   -4.9000001,           6.
    333,   -5.0374999,           6.
    334,  -5.17500019,           6.
    335,      -5.3125,           6.
    336,  -5.44999981,           6.
    337,   -5.5875001,           6.
    338,   -5.7249999,           6.
    339,  -5.86250019,           6.
    340,   -5.8962245,   4.88890314
    341,  -5.63364458,   3.93552732
    342,  -5.27288437,   3.13701391
    343,  -4.85906363,   2.48012757
    344,  -4.42426395,   1.94711375
    345,  -3.99031782,   1.51922286
    346,  -3.57135963,   1.17865264
    347,  -3.17594838,  0.909484088
    348,  -2.80872273,  0.698012054
    349,  -2.47164702,  0.532737315
    350,  -2.16491723,   0.40418607
    351,  -1.88760889,  0.304656923
    352,  -1.63812709,  0.227951869
    353,   -1.4145149,  0.169121206
    354,  -1.21465898,  0.124235928
    355,  -1.03642333, 0.0901923329
    356, -0.877733231, 0.0645485073
    357, -0.736625016,  0.045389723
    358, -0.611272812, 0.0312190913
    359,  -0.49002251, 0.0200436525
    360, -0.480043679, 0.0192343239
    361, -0.470063508, 0.0184416492
    362, -0.460082024, 0.0176656283
    363,  -0.45009923, 0.0169062614
    364, -0.440115213, 0.0161635559
    365, -0.430129975, 0.0154375089
    366, -0.420143515, 0.0147281252
    367, -0.410155922, 0.0140354056
    368, -0.400167167,  0.013359352
    369,  -0.39017728, 0.0126999663
    370, -0.380186319, 0.0120572513
    371, -0.370194316, 0.0114312079
    372, -0.360201269, 0.0108218379
    373,  -0.35020721, 0.0102291442
    374, -0.340212196, 0.00965312589
    375, -0.330216199, 0.00909378659
    376, -0.320219308, 0.00855112821
    377, -0.310221553, 0.00802515075
    378, -0.300222903, 0.00751585606
    379,  -0.29022342, 0.00702324603
    380, -0.280223131, 0.00654732203
    381, -0.270222038, 0.00608808501
    382,  -0.26022023, 0.00564553635
    383, -0.250217676, 0.00521967746
    384, -0.240214437, 0.00481050974
    385, -0.230210513, 0.00441803364
    386, -0.220205963, 0.00404225057
    387, -0.210200801, 0.00368316169
    388, -0.200195044, 0.00334076793
    389, -0.190188736, 0.00301507046
    390, -0.180181891, 0.00270606973
    391, -0.170174554, 0.00241376716
    392,  -0.16016674, 0.00213816296
    393,  -0.15015848, 0.00187925831
    394, -0.140149802, 0.00163705379
    395, -0.130140722, 0.0014115501
    396, -0.120131299, 0.00120274792
    397, -0.110121533, 0.00101064774
    398, -0.100111455, 0.000835250132
    399, -0.090101108, 0.000676555617
    400, -0.0800905079, 0.000534564548
    401, -0.0700796768, 0.000409277418
    402, -0.0600686595, 0.000300694519
    403, -0.0500574708, 0.000208816171
    404, -0.0400461443, 0.000133642621
    405, -0.030034706, 7.51741027e-05
    406, -0.0200231839, 3.34107499e-05
    407, -0.0100116059, 8.35269293e-06
    408,           0.,           0.
    409, 0.0100116059, 8.35269293e-06
    410, 0.0200231839, 3.34107499e-05
    411,  0.030034706, 7.51741027e-05
    412, 0.0400461443, 0.000133642621
    413, 0.0500574708, 0.000208816171
    414, 0.0600686595, 0.000300694519
    415, 0.0700796768, 0.000409277418
    416, 0.0800905079, 0.000534564548
    417,  0.090101108, 0.000676555617
    418,  0.100111455, 0.000835250132
    419,  0.110121533, 0.00101064774
    420,  0.120131299, 0.00120274792
    421,  0.130140722, 0.0014115501
    422,  0.140149802, 0.00163705379
    423,   0.15015848, 0.00187925831
    424,   0.16016674, 0.00213816296
    425,  0.170174554, 0.00241376716
    426,  0.180181891, 0.00270606973
    427,  0.190188736, 0.00301507046
    428,  0.200195044, 0.00334076793
    429,  0.210200801, 0.00368316169
    430,  0.220205963, 0.00404225057
    431,  0.230210513, 0.00441803364
    432,  0.240214437, 0.00481050974
    433,  0.250217676, 0.00521967746
    434,   0.26022023, 0.00564553635
    435,  0.270222038, 0.00608808501
    436,  0.280223131, 0.00654732203
    437,   0.29022342, 0.00702324603
    438,  0.300222903, 0.00751585606
    439,  0.310221553, 0.00802515075
    440,  0.320219308, 0.00855112821
    441,  0.330216199, 0.00909378659
    442,  0.340212196, 0.00965312589
    443,   0.35020721, 0.0102291442
    444,  0.360201269, 0.0108218379
    445,  0.370194316, 0.0114312079
    446,  0.380186319, 0.0120572513
    447,   0.39017728, 0.0126999663
    448,  0.400167167,  0.013359352
    449,  0.410155922, 0.0140354056
    450,  0.420143515, 0.0147281252
    451,  0.430129975, 0.0154375089
    452,  0.440115213, 0.0161635559
    453,   0.45009923, 0.0169062614
    454,  0.460082024, 0.0176656283
    455,  0.470063508, 0.0184416492
    456,  0.480043679, 0.0192343239
    457,   0.49002251, 0.0200436525
    458,  -2.84751725,   5.27628231
    459,  -2.54855251,   4.63516521
    460,  -2.28370953,   4.06722069
    461,  -2.04909396,    3.5640974
    462,   -1.8412559,   3.11839724
    463,  -1.65713906,   2.72356629
    464,  -1.49403596,   2.37379861
    465,  -1.34954846,   2.06395125
    466,  -1.22155166,   1.78946757
    467,   -1.1081636,   1.54631162
    468,  -1.00771689,   1.33090782
    469, -0.918734491,    1.1400888
    470, -0.839907885,  0.971048534
    471, -0.770078063,  0.821301341
    472, -0.708218157,  0.688645363
    473, -0.653418481,  0.571129739
    474,   -0.6048733,  0.467026621
    475, -0.561868727,  0.374805123
    476, -0.523772359,  0.293109149
    477,  -2.78940749,   5.27617741
    478,  -2.49654675,   4.63496733
    479,  -2.23711109,   4.06694078
    480,  -2.00728559,   3.56374454
    481,  -1.80369079,   3.11797976
    482,  -1.62333298,    2.7230916
    483,  -1.46355999,   2.37327337
    484,  -1.32202232,   2.06338096
    485,  -1.19663894,   1.78885746
    486,  -1.08556581,   1.54566634
    487, -0.987169921,   1.33023131
    488, -0.900004268,   1.13938463
    489, -0.822787046,  0.970319927
    490, -0.754382908,  0.820551038
    491, -0.693785965,  0.687875807
    492, -0.640105128,  0.570343196
    493, -0.592551112,  0.466224998
    494, -0.550424516,  0.373990119
    495, -0.513105989,  0.292282313
    496,  -2.73129773,   5.27607489
    497,   -2.4445405,   4.63477373
    498,  -2.19051194,   4.06666613
    499,  -1.96547651,   3.56339884
    500,  -1.76612496,   3.11757088
    501,  -1.58952618,   2.72262669
    502,  -1.43308306,   2.37275887
    503,  -1.29449534,   2.06282234
    504,  -1.17172503,   1.78825998
    505,  -1.06296694,   1.54503429
    506, -0.966621816,   1.32956874
    507, -0.881272793,     1.138695
    508, -0.805664957,   0.96960628
    509, -0.738686502,  0.819816172
    510, -0.679352522,  0.687122107
    511, -0.626790464,  0.569572866
    512, -0.580227494,  0.465439856
    513, -0.538978934,  0.373191893
    514, -0.502438188,  0.291472495
    515,  -2.67318773,   5.27597427
    516,  -2.39253402,   4.63458395
    517,  -2.14391255,   4.06639767
    518,  -1.92366683,   3.56306052
    519,  -1.72855842,   3.11717057
    520,  -1.55571842,   2.72217155
    521,   -1.4026053,   2.37225509
    522,  -1.26696742,   2.06227565
    523,  -1.14681029,   1.78767514
    524,  -1.04036701,   1.54441559
    525, -0.946072578,   1.32892013
    526, -0.862540185,   1.13801992
    527, -0.788541675,  0.968907654
    528, -0.722988844,  0.819096804
    529, -0.664917707,  0.686384261
    530, -0.613474488,  0.568818688
    531, -0.567902625,  0.464671224
    532, -0.527531981,  0.372410446
    533, -0.491769016,  0.290679693
    534,   -2.6150775,   5.27587605
    535,   -2.3405273,   4.63439846
    536,  -2.09731245,   4.06613493
    537,  -1.88185656,   3.56272936
    538,  -1.69099128,   3.11677885
    539,  -1.52191007,   2.72172618
    540,  -1.37212658,   2.37176204
    541,  -1.23943841,    2.0617404
    542,  -1.12189448,    1.7871027
    543,  -1.01776612,   1.54381025
    544, -0.925522208,   1.32828546
    545, -0.843806446,   1.13735926
    546, -0.771417141,  0.968224049
    547, -0.707289934,  0.818392813
    548, -0.650481701,   0.68566227
    549, -0.600157201,  0.568080664
    550, -0.555576384,  0.463919073
    551, -0.516083717,  0.371645778
    552, -0.481098473,  0.289903909
    553,  -2.55696702,   5.27577972
    554,   -2.2885201,   4.63421726
    555,  -2.05071211,   4.06587791
    556,  -1.84004569,   3.56240535
    557,  -1.65342331,   3.11639571
    558,  -1.48810089,   2.72129059
    559,  -1.34164715,   2.37127995
    560,  -1.21190858,   2.06121707
    561,  -1.09697759,   1.78654289
    562, -0.995164037,   1.54321802
    563, -0.904970765,   1.32766461
    564, -0.825071573,   1.13671303
    565, -0.754291475,  0.967555404
    566, -0.691589773,   0.81770426
    567, -0.636044443,  0.684956074
    568, -0.586838663,  0.567358911
    569, -0.543248892,  0.463183433
    570, -0.504634142,  0.370897859
    571, -0.470426619,  0.289145142
    572,  -2.49885654,   5.27568579
    573,  -2.23651266,   4.63403988
    574,  -2.00411105,    4.0656271
    575,  -1.79823434,   3.56208873
    576,  -1.61585486,   3.11602116
    577,  -1.45429087,   2.72086453
    578,  -1.31116676,    2.3708086
    579,  -1.18437791,   2.06070566
    580,  -1.07205987,    1.7859956
    581, -0.972561002,   1.54263914
    582, -0.884418309,   1.32705784
    583, -0.806335568,   1.13608146
    584, -0.737164676,  0.966901779
    585, -0.675888479,  0.817031145
    586, -0.621605992,  0.684265733
    587, -0.573518872,  0.566653252
    588, -0.530920088,  0.462464303
    589, -0.493183285,  0.370166719
    590, -0.459753484,  0.288403392
    591,  -2.44074583,   5.27559376
    592,  -2.18450499,   4.63386631
    593,  -1.95750988,   4.06538153
    594,   -1.7564224,    3.5617795
    595,  -1.57828569,   3.11565518
    596,  -1.42048025,   2.72044849
    597,  -1.28068566,   2.37034822
    598,  -1.15684628,    2.0602057
    599,  -1.04714119,   1.78546095
    600, -0.949957013,   1.54207361
    601, -0.863864779,   1.32646489
    602, -0.787598491,   1.13546419
    603, -0.720036745,  0.966263115
    604, -0.660186052,  0.816373467
    605,  -0.60716635,  0.683591247
    606,  -0.56019789,  0.565963864
    607, -0.518590093,  0.461761653
    608, -0.481731176,  0.369452387
    609, -0.449079037,  0.287678659
    610,  -2.38263488,   5.27550411
    611,  -2.13249707,   4.63369703
    612,   -1.9109081,   4.06514168
    613,  -1.71460998,   3.56147742
    614,  -1.54071581,   3.11529779
    615,  -1.38666892,   2.72004223
    616,  -1.25020385,   2.36989832
    617,  -1.12931395,   2.05971766
    618,  -1.02222157,   1.78493881
    619, -0.927352011,   1.54152131
    620, -0.843310237,   1.32588589
    621,   -0.7688604,   1.13486159
    622, -0.702907741,  0.965639472
    623, -0.644482493,  0.815731287
    624, -0.592725515,  0.682932556
    625, -0.546875715,   0.56529063
    626, -0.506258905,  0.461075515
    627, -0.470277846,  0.368754804
    628, -0.438403398,  0.286970943
    629,  -2.32452393,   5.27541637
    630,  -2.08048868,   4.63353205
    631,  -1.86430597,   4.06490803
    632,  -1.67279696,    3.5611825
    633,  -1.50314546,   3.11494923
    634,  -1.35285687,   2.71964574
    635,  -1.21972108,   2.36945963
    636,  -1.10178065,   2.05924129
    637, -0.997301042,   1.78442919
    638, -0.904746056,   1.54098225
    639, -0.822754681,   1.32532072
    640, -0.750121236,   1.13427341
    641, -0.685777664,  0.965030849
    642, -0.628777862,  0.815104544
    643, -0.578283608,  0.682289779
    644, -0.533552408,  0.564633548
    645, -0.493926555,  0.460405856
    646, -0.458823323,     0.368074
    647, -0.427726537,  0.286280274
    648,  -2.26641273,   5.27533102
    649,  -2.02848005,   4.63337088
    650,  -1.81770349,   4.06467962
    651,  -1.63098347,   3.56089497
    652,   -1.4655745,     3.114609
    653,  -1.31904411,   2.71925902
    654,  -1.18923771,   2.36903143
    655,  -1.07424653,   2.05877662
    656, -0.972379684,   1.78393221
    657, -0.882139206,   1.54045653
    658, -0.802198172,   1.32476962
    659, -0.731381059,   1.13369966
    660, -0.668646574,  0.964437246
    661, -0.613072157,  0.814493239
    662, -0.563840568,  0.681662798
    663, -0.520228028,  0.563992739
    664, -0.481593072,  0.459752738
    665, -0.447367638,  0.367409974
    666, -0.417048484,  0.285606623
    667,  -2.20830131,   5.27524757
    668,  -1.97647119,     4.633214
    669,  -1.77110052,   4.06445742
    670,   -1.5891695,   3.56061482
    671,  -1.42800283,   3.11427736
    672,  -1.28523064,   2.71888208
    673,  -1.15875351,    2.3686142
    674,  -1.04671168,   2.05832386
    675, -0.947457492,   1.78344774
    676, -0.859531462,   1.53994417
    677, -0.781640768,   1.32423246
    678, -0.712639928,   1.13314056
    679, -0.651514411,  0.963858604
    680, -0.597365379,  0.813897371
    681, -0.549396515,  0.681051672
    682, -0.506902456,  0.563368082
    683, -0.469258457,  0.459116131
    684, -0.435910851,  0.366762757
    685, -0.406369299,  0.284949988
    686,  -2.15018988,   5.27516651
    687,  -1.92446208,   4.63306093
    688,   -1.7244972,   4.06424093
    689,  -1.54735506,   3.56034184
    690,  -1.39043069,   3.11395454
    691,  -1.25141668,   2.71851468
    692,  -1.12826872,   2.36820793
    693,  -1.01917601,   2.05788255
    694, -0.922534406,   1.78297579
    695, -0.836922824,   1.53944504
    696, -0.761082411,   1.32370913
    697, -0.693897843,    1.1325959
    698, -0.634381294,  0.963294983
    699, -0.581657588,  0.813316941
    700, -0.534951389,    0.6804564
    701, -0.493575901,  0.562759638
    702,  -0.45692274,  0.458496034
    703, -0.424452931,  0.366132319
    704, -0.395688981,    0.2843104
    705,  -2.09207821,   5.27508783
    706,  -1.87245262,   4.63291216
    707,  -1.67789364,   4.06402969
    708,  -1.50554013,     3.560076
    709,  -1.35285807,   3.11364007
    710,  -1.21760201,   2.71815729
    711,  -1.09778309,    2.3678124
    712, -0.991639614,   2.05745316
    713, -0.897610605,   1.78251648
    714, -0.814313352,   1.53895915
    715,  -0.74052316,   1.32319975
    716, -0.675154865,   1.13206565
    717, -0.617247224,  0.962746382
    718, -0.565948844,  0.812752008
    719,  -0.52050525,  0.679876983
    720, -0.480248272,  0.562167406
    721, -0.444585979,  0.457892418
    722, -0.412993938,  0.365518659
    723,  -0.38500759,   0.28368783
    724,  -2.03396654,   5.27501106
    725,  -1.82044303,    4.6327672
    726,   -1.6312896,   4.06382465
    727,  -1.46372485,   3.55981755
    728,  -1.31528485,   3.11333442
    729,  -1.18378675,   2.71780968
    730,  -1.06729686,   2.36742759
    731, -0.964102507,   2.05703568
    732, -0.872685969,   1.78206968
    733, -0.791703105,    1.5384866
    734, -0.719963074,   1.32270432
    735, -0.656410933,   1.13155007
    736, -0.600112259,  0.962212801
    737, -0.550239086,  0.812202513
    738, -0.506058097,  0.679313421
    739, -0.466919661,  0.561591387
    740, -0.432248205,  0.457305342
    741, -0.401533902,  0.364921808
    742, -0.374325126,  0.283082306
    743,  -1.97585464,    5.2749362
    744,  -1.76843309,   4.63262653
    745,  -1.58468521,   4.06362534
    746,  -1.42190909,    3.5595665
    747,  -1.27771103,   3.11303711
    748,  -1.14997089,   2.71747184
    749,  -1.03681004,   2.36705351
    750, -0.936564624,   2.05662966
    751, -0.847760558,   1.78163552
    752, -0.769091964,   1.53802729
    753, -0.699402094,   1.32222283
    754, -0.637666166,   1.13104892
    755, -0.582976341,  0.961694181
    756, -0.534528434,  0.811668515
    757,  -0.49161002,  0.678765714
    758, -0.453590065,   0.56103158
    759, -0.419909418,  0.456734806
    760, -0.390072852,  0.364341736
    761, -0.363641649,    0.2824938
    762,  -1.91774261,   5.27486372
    763,  -1.71642292,   4.63248968
    764,  -1.53808045,   4.06343174
    765,  -1.38009286,    3.5593226
    766,  -1.24013674,   3.11274862
    767,  -1.11615443,   2.71714377
    768,   -1.0063225,    2.3666904
    769, -0.909026086,   2.05623555
    770, -0.822834432,   1.78121388
    771, -0.746480107,   1.53758132
    772, -0.678840339,   1.32175529
    773, -0.618920505,   1.13056231
    774, -0.565839529,  0.961190641
    775, -0.518816829,  0.811149955
    776,  -0.47716102,  0.678233862
    777, -0.440259486,  0.560487986
    778, -0.407569677,  0.456180751
    779,  -0.37861082,  0.363778472
    780, -0.352957159,   0.28192234
    781,  -1.85963058,   5.27479362
    782,  -1.66441262,   4.63235712
    783,  -1.49147546,   4.06324434
    784,  -1.33827615,   3.55908585
    785,  -1.20256209,   3.11246872
    786,  -1.08233738,   2.71682549
    787,  -0.97583437,   2.36633825
    788, -0.881486893,   2.05585313
    789, -0.797907591,   1.78080487
    790, -0.723867476,   1.53714871
    791,  -0.65827775,    1.3213017
    792,  -0.60017401,   1.13009012
    793, -0.548701882,  0.960702062
    794, -0.503104389,  0.810646832
    795, -0.462711096,  0.677717924
    796, -0.426928014,  0.559960544
    797, -0.395228982,  0.455643237
    798, -0.367147833,  0.363231987
    799, -0.342271715,  0.281367928
    800,  -1.80151832,   5.27472544
    801,  -1.61240196,   4.63222885
    802,  -1.44487011,   4.06306219
    803,   -1.2964592,   3.55885649
    804,  -1.16498685,    3.1121974
    805,  -1.04851985,   2.71651697
    806,  -0.94534564,   2.36599684
    807, -0.853947043,   2.05548263
    808, -0.772980034,   1.78040838
    809,  -0.70125407,   1.53672934
    810, -0.637714446,   1.32086205
    811,  -0.58142674,   1.12963247
    812, -0.531563401,  0.960228562
    813, -0.487391084,  0.810159206
    814, -0.448260278,  0.677217782
    815, -0.413595617,  0.559449375
    816, -0.382887363,  0.455122232
    817, -0.355683923,   0.36270231
    818, -0.331585288,  0.280830562
    819,  -1.74340594,   5.27465916
    820,  -1.56039119,    4.6321044
    821,  -1.39826441,   4.06288576
    822,  -1.25464177,   3.55863428
    823,  -1.12741113,   3.11193466
    824,  -1.01470184,   2.71621823
    825, -0.914856315,   2.36566615
    826, -0.826406538,   2.05512381
    827, -0.748051822,   1.78002453
    828, -0.678640008,   1.53632331
    829, -0.617150366,   1.32043636
    830, -0.562678695,   1.12918937
    831, -0.514424086,  0.959770024
    832, -0.471676946,  0.809687018
    833, -0.433808655,  0.676733494
    834, -0.400262386,  0.558954418
    835, -0.370544851,  0.454617769
    836, -0.344219089,  0.362189442
    837, -0.320897996,  0.280310243
    838,  -1.68529344,   5.27459574
    839,  -1.50838017,   4.63198376
    840,  -1.35165846,   4.06271553
    841,  -1.21282387,   3.55841947
    842,  -1.08983505,   3.11168051
    843, -0.980883241,   2.71592927
    844, -0.884366453,   2.36534643
    845, -0.798865497,   2.05477667
    846, -0.723122954,   1.77965319
    847, -0.656025231,   1.53593051
    848, -0.596585572,   1.32002461
    849, -0.543929935,   1.12876081
    850, -0.497284025,  0.959326565
    851, -0.455962002,  0.809230328
    852, -0.419356167,  0.676265121
    853,  -0.38692829,  0.558475614
    854, -0.358201504,  0.454129845
    855,  -0.33275342,  0.361693352
    856, -0.310209781,  0.279806972
    857,  -1.62718093,   5.27453375
    858,  -1.45636892,   4.63186741
    859,  -1.30505216,   4.06255102
    860,  -1.17100573,   3.55821204
    861,  -1.05225849,   3.11143494
    862, -0.947064161,   2.71565008
    863, -0.853876054,   2.36503744
    864,   -0.7713238,   2.05444121
    865, -0.698193491,   1.77929449
    866, -0.633409798,   1.53555107
    867, -0.576020062,   1.31962681
    868, -0.525180399,   1.12834668
    869, -0.480143219,  0.958898067
    870, -0.440246284,  0.808789134
    871, -0.404902905,  0.675812602
    872,  -0.37359339,  0.558013082
    873, -0.345857322,  0.453658402
    874, -0.321286887,  0.361214072
    875, -0.299520731,  0.279320717
    876,  -1.56906819,   5.27447462
    877,  -1.40435743,   4.63175535
    878,  -1.25844562,   4.06239176
    879,  -1.12918723,   3.55801177
    880,  -1.01468146,   3.11119819
    881, -0.913244665,   2.71538067
    882, -0.823385119,   2.36473918
    883, -0.743781567,   2.05411768
    884, -0.673263371,   1.77894831
    885,  -0.61079371,   1.53518486
    886, -0.555453837,   1.31924295
    887, -0.506430149,   1.12794721
    888, -0.463001668,   0.95848459
    889, -0.424529821,  0.808363318
    890, -0.390448868,  0.675375879
    891, -0.360257715,  0.557566762
    892, -0.333512366,  0.453203529
    893, -0.309819549,  0.360751599
    894, -0.288830847,  0.278851539
    895,  -1.51095545,   5.27441692
    896,  -1.35234582,   4.63164711
    897,  -1.21183884,   4.06223869
    898,  -1.08736837,   3.55781865
    899, -0.977104068,   3.11096978
    900, -0.879424632,   2.71512127
    901, -0.792893648,   2.36445189
    902, -0.716238737,   2.05380583
    903, -0.648332715,   1.77861464
    904, -0.588176966,     1.534832
    905, -0.534887016,   1.31887305
    906, -0.487679243,   1.12756217
    907, -0.445859402,  0.958086193
    908, -0.408812612,   0.80795306
    909, -0.375994116,   0.67495513
    910, -0.346921265,  0.557136655
    911, -0.321166605,  0.452765167
    912, -0.298351407,  0.360305935
    913, -0.278140187,  0.278399378
    914,  -1.45284259,   5.27436209
    915,  -1.30033398,   4.63154316
    916,  -1.16523182,   4.06209135
    917,  -1.04554915,   3.55763316
    918,  -0.93952632,    3.1107502
    919, -0.845604241,   2.71487141
    920,  -0.76240176,   2.36417556
    921, -0.688695431,   2.05350566
    922, -0.623401463,   1.77829373
    923, -0.565559685,   1.53449249
    924, -0.514319599,   1.31851709
    925, -0.468927681,   1.12719166
    926, -0.428716481,  0.957702756
    927, -0.393094748,  0.807558239
    928, -0.361538619,  0.674550176
    929,   -0.3335841,   0.55672276
    930, -0.308820099,  0.452343345
    931,  -0.28688252,   0.35987708
    932, -0.267448753,  0.277964294
    933,  -1.39472961,   5.27430868
    934,  -1.24832201,   4.63144302
    935,  -1.11862445,   4.06194973
    936,   -1.0037297,   3.55745459
    937, -0.901948214,   3.11053896
    938, -0.811783373,   2.71463132
    939, -0.731909335,   2.36390996
    940, -0.661151588,   2.05321741
    941, -0.598469615,   1.77798522
    942, -0.542941809,   1.53416622
    943, -0.493751526,   1.31817508
    944, -0.450175464,   1.12683558
    945, -0.411572903,  0.957334399
    946, -0.377376199,  0.807178915
    947, -0.347082436,  0.674161077
    948,  -0.32024622,  0.556325078
    949, -0.296472907,  0.451938033
    950, -0.275412917,  0.359465033
    951, -0.256756574,  0.277546257
    952,  -1.33661652,   5.27425814
    953,  -1.19630992,   4.63134718
    954,  -1.07201695,   4.06181383
    955,  -0.96190989,    3.5572834
    956,  -0.86436969,   3.11033654
    957, -0.777962089,   2.71440125
    958, -0.701416492,   2.36365509
    959, -0.633607268,   2.05294085
    960,  -0.57353735,   1.77768946
    961, -0.520323336,   1.53385329
    962, -0.473182887,   1.31784701
    963, -0.431422681,   1.12649417
    964,  -0.39442873,  0.956981063
    965, -0.361656994,  0.806815028
    966, -0.332625628,  0.673787892
    967, -0.306907684,  0.555943608
    968,    -0.284125,  0.451549262
    969, -0.263942599,  0.359069794
    970, -0.246063679,  0.277145296
    971,  -1.27850342,    5.2742095
    972,   -1.1442976,   4.63125563
    973,   -1.0254091,   4.06168413
    974, -0.920089781,   3.55711961
    975, -0.826790869,   3.11014271
    976, -0.744140446,   2.71418071
    977, -0.670923173,   2.36341119
    978, -0.606062472,   2.05267596
    979, -0.548604488,    1.7774061
    980, -0.497704387,   1.53355372
    981, -0.452613682,    1.3175329
    982, -0.412669331,   1.12616718
    983, -0.377283931,  0.956642747
    984, -0.345937192,  0.806466639
    985, -0.318168163,  0.673430622
    986, -0.293568492,  0.555578411
    987, -0.271776468,  0.451177031
    988, -0.252471626,  0.358691365
    989, -0.235370114,  0.276761353
    990,   -1.2203902,   5.27416277
    991,  -1.09228516,   4.63116789
    992, -0.978801131,   4.06155968
    993, -0.878269374,   3.55696297
    994,  -0.78921169,   3.10995746
    995, -0.710318446,   2.71397018
    996, -0.640429497,   2.36317801
    997, -0.578517258,     2.052423
    998,  -0.52367121,   1.77713549
    999, -0.475084931,   1.53326738
   1000,  -0.43204397,   1.31723273
   1001, -0.393915385,   1.12585473
   1002, -0.360138565,  0.956319451
   1003, -0.330216795,  0.806133687
   1004, -0.303710103,  0.673089147
   1005, -0.280228674,  0.555229366
   1006, -0.259427279,   0.45082134
   1007, -0.241000012,  0.358329743
   1008, -0.224675909,  0.276394486
   1009,  -1.16227686,   5.27411842
   1010,  -1.04027247,   4.63108397
   1011, -0.932192922,   4.06144142
   1012, -0.836448789,   3.55681372
   1013, -0.751632214,   3.10978079
   1014, -0.676496029,    2.7137692
   1015, -0.609935403,   2.36295581
   1016, -0.550971568,   2.05218172
   1017, -0.498737454,    1.7768774
   1018, -0.452464968,   1.53299439
   1019, -0.411473721,   1.31694651
   1020, -0.375160962,   1.12555695
   1021, -0.342992663,  0.956011176
   1022, -0.314495832,  0.805816233
   1023, -0.289251447,  0.672763586
   1024, -0.266888291,  0.554896593
   1025,  -0.24707751,   0.45048219
   1026, -0.229527801,   0.35798493
   1027, -0.213981092,  0.276044667
   1028,  -1.10416353,   5.27407646
   1029, -0.988259733,   4.63100433
   1030, -0.885584474,   4.06132841
   1031, -0.794627905,   3.55667162
   1032, -0.714052439,    3.1096127
   1033, -0.642673314,   2.71357822
   1034, -0.579440951,   2.36274433
   1035, -0.523425519,   2.05195236
   1036, -0.473803252,   1.77663183
   1037, -0.429844558,   1.53273463
   1038, -0.390903026,   1.31667423
   1039, -0.356406003,   1.12527347
   1040, -0.325846225,  0.955717921
   1041, -0.298774362,  0.805514276
   1042, -0.274792284,   0.67245388
   1043, -0.253547341,  0.554580092
   1044, -0.234727159,   0.45015958
   1045, -0.218054995,  0.357656926
   1046, -0.203285664,  0.275711894
   1047,  -1.04605007,   5.27403641
   1048, -0.936246872,   4.63092899
   1049, -0.838975906,    4.0612216
   1050, -0.752806783,   3.55653691
   1051, -0.676472366,   3.10945344
   1052,   -0.6088503,   2.71339703
   1053, -0.548946142,   2.36254382
   1054, -0.495879054,   2.05173445
   1055, -0.448868662,    1.7763989
   1056, -0.407223731,   1.53248835
   1057, -0.370331854,   1.31641603
   1058, -0.337650567,   1.12500465
   1059,  -0.30869931,  0.955439746
   1060, -0.283052355,  0.805227816
   1061, -0.260332555,  0.672160029
   1062, -0.240205854,  0.554279745
   1063, -0.222376272,   0.44985351
   1064, -0.206581637,   0.35734576
   1065,   -0.1925897,  0.275396198
   1066, -0.987936497,   5.27399826
   1067, -0.884233832,   4.63085747
   1068, -0.792367101,   4.06112051
   1069, -0.710985422,   3.55640936
   1070, -0.638892055,   3.10930252
   1071, -0.575026989,    2.7132256
   1072, -0.518450975,   2.36235404
   1073, -0.468332231,   2.05152845
   1074, -0.423933685,    1.7761786
   1075, -0.384602457,   1.53225529
   1076, -0.349760264,   1.31617165
   1077, -0.318894684,   1.12475038
   1078, -0.291551918,  0.955176592
   1079, -0.267329872,  0.804956794
   1080, -0.245872363,  0.671882093
   1081, -0.226863861,  0.553995669
   1082, -0.210024863,   0.44956395
   1083, -0.195107758,  0.357051373
   1084, -0.181893185,  0.275097549
   1085, -0.929822922,    5.2739625
   1086, -0.832220733,   4.63079023
   1087, -0.745758176,   4.06102514
   1088, -0.669163823,    3.5562892
   1089, -0.601311505,   3.10916042
   1090,  -0.54120332,   2.71306396
   1091,  -0.48795554,   2.36217499
   1092,  -0.44078505,   2.05133438
   1093,  -0.39899832,   1.77597082
   1094, -0.361980826,   1.53203547
   1095, -0.329188257,   1.31594121
   1096, -0.300138384,   1.12451053
   1097, -0.274404109,  0.954928458
   1098, -0.251606941,  0.804701269
   1099, -0.231411695,  0.671620071
   1100, -0.213521391,  0.553727806
   1101, -0.197672978,  0.449290961
   1102, -0.183633387,  0.356773823
   1103, -0.171196178,  0.274815977
   1104, -0.871709287,   5.27392912
   1105, -0.780207455,   4.63072681
   1106, -0.699149013,    4.0609355
   1107, -0.627342105,   3.55617642
   1108, -0.563730657,   3.10902691
   1109, -0.507379413,   2.71291208
   1110, -0.457459748,    2.3620069
   1111, -0.413237572,   2.05115199
   1112, -0.374062598,   1.77577567
   1113, -0.339358807,   1.53182912
   1114, -0.308615834,   1.31572485
   1115, -0.281381696,   1.12428534
   1116, -0.257255852,  0.954695344
   1117, -0.235883579,  0.804461241
   1118, -0.216950595,  0.671373844
   1119, -0.200178489,  0.553476155
   1120, -0.185320631,  0.449034482
   1121, -0.172158554,  0.356513083
   1122, -0.160498708,  0.274551451
   1123, -0.813595593,   5.27389765
   1124, -0.728194118,   4.63066769
   1125,  -0.65253979,   4.06085157
   1126, -0.585520148,    3.5560708
   1127, -0.526149631,   3.10890198
   1128, -0.473555297,   2.71276999
   1129, -0.426963717,   2.36184978
   1130, -0.385689765,   2.05098128
   1131, -0.349126577,   1.77559316
   1132,  -0.31673643,     1.531636
   1133, -0.288043082,   1.31552243
   1134, -0.262624621,   1.12407458
   1135, -0.240107223,   0.95447731
   1136, -0.220159814,   0.80423671
   1137, -0.202489078,  0.671143532
   1138,  -0.18683514,  0.553240776
   1139, -0.172967851,  0.448794574
   1140, -0.160683274,  0.356269181
   1141, -0.149800777,  0.274304003
   1142, -0.755481839,   5.27386856
   1143, -0.676180661,   4.63061285
   1144, -0.605930388,   4.06077385
   1145, -0.543698013,   3.55597234
   1146, -0.488568395,   3.10878563
   1147, -0.439730912,   2.71263766
   1148, -0.396467388,    2.3617034
   1149,  -0.35814169,   2.05082226
   1150, -0.324190229,   1.77542317
   1151, -0.294113755,   1.53145611
   1152, -0.267470002,   1.31533384
   1153, -0.243867174,   1.12387836
   1154, -0.222958222,  0.954274297
   1155, -0.204435676,  0.804027617
   1156, -0.188027173,  0.670929134
   1157, -0.173491418,   0.55302161
   1158, -0.160614684,  0.448571205
   1159, -0.149207607,  0.356042087
   1160, -0.139102444,  0.274073601
   1161, -0.697368026,   5.27384138
   1162, -0.624167085,   4.63056183
   1163, -0.559320867,   4.06070137
   1164, -0.501875699,   3.55588126
   1165, -0.450986952,   3.10867786
   1166,  -0.40590629,   2.71251512
   1167,  -0.36597085,   2.36156774
   1168, -0.330593348,   2.05067515
   1169, -0.299253613,   1.77526569
   1170, -0.271490753,    1.5312897
   1171,  -0.24689658,   1.31515932
   1172, -0.225109413,   1.12369668
   1173, -0.205808893,  0.954086304
   1174, -0.188711196,  0.803834021
   1175, -0.173564911,  0.670730591
   1176, -0.160147324,  0.552818656
   1177,  -0.14826113,  0.448364377
   1178, -0.137731552,  0.355831802
   1179, -0.128403738,  0.273860276
   1180, -0.639254212,   5.27381659
   1181, -0.572153509,   4.63051462
   1182, -0.512711227,   4.06063509
   1183, -0.460053265,   3.55579758
   1184, -0.413405329,   3.10857868
   1185, -0.372081488,   2.71240258
   1186, -0.335474044,   2.36144304
   1187, -0.303044766,   2.05053973
   1188, -0.274316728,   1.77512097
   1189, -0.248867497,   1.53113651
   1190, -0.226322889,   1.31499875
   1191, -0.206351355,   1.12352955
   1192, -0.188659236,  0.953913331
   1193, -0.172986388,  0.803655922
   1194, -0.159102321,  0.670547903
   1195, -0.146802902,  0.552631915
   1196, -0.135907248,  0.448174089
   1197,  -0.12625514,  0.355638355
   1198, -0.117704667,  0.273663998
   1199,  -0.58114028,    5.2737937
   1200, -0.520139754,   4.63047171
   1201, -0.466101438,   4.06057453
   1202, -0.418230683,   3.55572104
   1203, -0.375823557,   3.10848832
   1204, -0.338256478,   2.71229959
   1205, -0.304977059,   2.36132932
   1206, -0.275495946,   2.05041623
   1207,  -0.24937959,   1.77498877
   1208, -0.226243988,   1.53099668
   1209, -0.205748916,   1.31485212
   1210, -0.187593013,   1.12337697
   1211, -0.171509311,  0.953755438
   1212, -0.157261282,  0.803493321
   1213, -0.144639432,  0.670381129
   1214, -0.133458167,  0.552461445
   1215, -0.123553038,  0.448000342
   1216, -0.114778414,  0.355461717
   1217, -0.107005276,  0.273484796
   1218, -0.523026347,   5.27377319
   1219, -0.468125999,   4.63043308
   1220, -0.419491589,   4.06051922
   1221, -0.376407951,    3.5556519
   1222, -0.338241607,   3.10840631
   1223, -0.304431319,    2.7122066
   1224, -0.274479896,   2.36122632
   1225, -0.247946933,   2.05030441
   1226, -0.224442258,   1.77486908
   1227,  -0.20362024,   1.53087008
   1228, -0.185174718,   1.31471956
   1229, -0.168834433,   1.12323892
   1230, -0.154359117,  0.953612566
   1231, -0.141535923,  0.803346217
   1232, -0.130176276,  0.670230269
   1233, -0.120113142,  0.552307248
   1234, -0.111198545,  0.447843164
   1235, -0.103301406,  0.355301887
   1236, -0.0963055864,  0.273322672
   1237, -0.464912415,   5.27375507
   1238, -0.416112155,   4.63039827
   1239, -0.372881621,    4.0604701
   1240,  -0.33458513,   3.55558991
   1241, -0.300659567,   3.10833311
   1242, -0.270606011,   2.71212316
   1243, -0.243982553,   2.36113405
   1244, -0.220397726,   2.05020428
   1245, -0.199504718,   1.77476203
   1246, -0.180996299,   1.53075695
   1247, -0.164600298,   1.31460083
   1248, -0.150075614,    1.1231153
   1249,   -0.1372087,  0.953484714
   1250,  -0.12581031,   0.80321455
   1251, -0.115712866,  0.670095205
   1252,  -0.10676787,  0.552169204
   1253, -0.098843798,  0.447702497
   1254, -0.0918241292,  0.355158895
   1255, -0.0856056362,  0.273177594
   1256, -0.406798422,   5.27373886
   1257, -0.364098251,   4.63036776
   1258, -0.326271594,   4.06042719
   1259,  -0.29276222,   3.55553532
   1260, -0.263077378,    3.1082685
   1261, -0.236780539,   2.71204972
   1262, -0.213485062,   2.36105275
   1263, -0.192848369,   2.05011606
   1264, -0.174567014,   1.77466762
   1265, -0.158372164,   1.53065705
   1266, -0.144025683,   1.31449604
   1267, -0.131316602,   1.12300634
   1268,  -0.12005806,  0.953371882
   1269, -0.110084496,  0.803098381
   1270,  -0.10124924,  0.669976115
   1271, -0.0934223831,  0.552047431
   1272, -0.0864888281,    0.4475784
   1273, -0.0803466216,  0.355032742
   1274, -0.0749054477,  0.273049593
   1275,  -0.34868443,   5.27372456
   1276, -0.312084317,   4.63034105
   1277, -0.279661506,   4.06038952
   1278,  -0.25093922,   3.55548787
   1279, -0.225495085,   3.10821247
   1280, -0.202954978,   2.71198606
   1281, -0.182987437,   2.36098218
   1282, -0.165298864,   2.05003953
   1283, -0.149629146,   1.77458572
   1284, -0.135747865,   1.53057039
   1285, -0.123450898,   1.31440532
   1286, -0.112557419,   1.12291181
   1287, -0.102907248,  0.953274131
   1288, -0.0943584815,  0.802997708
   1289, -0.0867854208,   0.66987282
   1290, -0.080076687,  0.551941931
   1291, -0.0741336495,  0.447470844
   1292, -0.0688689128,  0.354923368
   1293, -0.0642050505,  0.272938669
   1294, -0.290570378,   5.27371264
   1295, -0.260070324,   4.63031864
   1296, -0.233051345,   4.06035757
   1297, -0.209116116,   3.55544782
   1298, -0.187912703,   3.10816503
   1299, -0.169129297,   2.71193218
   1300, -0.152489707,   2.36092257
   1301,  -0.13774924,   2.04997492
   1302, -0.124691159,   1.77451646
   1303, -0.113123432,   1.53049719
   1304, -0.102875963,   1.31432855
   1305, -0.0937980786,   1.12283194
   1306, -0.0857562795,    0.9531914
   1307, -0.0786323175,  0.802912533
   1308, -0.0723214298,    0.6697855
   1309, -0.0667308345,  0.551852643
   1310, -0.0617783032,  0.447379827
   1311, -0.0573910251,  0.354830861
   1312, -0.0535044782,  0.272844791
   1313, -0.232456326,    5.2737031
   1314, -0.208056301,   4.63030052
   1315, -0.186441138,   4.06033134
   1316, -0.167292967,   3.55541515
   1317, -0.150330245,    3.1081264
   1318, -0.135303542,   2.71188807
   1319,  -0.12199188,    2.3608737
   1320, -0.110199519,   2.04992175
   1321, -0.099753052,   1.77445984
   1322, -0.0904988796,   1.53043723
   1323, -0.0823009163,   1.31426573
   1324, -0.0750386119,   1.12276649
   1325, -0.0686051771,  0.953123748
   1326, -0.0629060119,  0.802842855
   1327, -0.0578573123,  0.669713974
   1328, -0.053384833,  0.551779568
   1329, -0.0494228154,  0.447305381
   1330, -0.0459129922,  0.354755133
   1331, -0.0428037606,  0.272767991
   1332,  -0.17434226,   5.27369547
   1333, -0.156042248,   4.63028622
   1334, -0.139830887,   4.06031132
   1335, -0.125469774,   3.55538964
   1336, -0.112747744,   3.10809612
   1337, -0.101477712,   2.71185374
   1338, -0.0914939716,   2.36083579
   1339, -0.0826497078,   2.04988074
   1340, -0.074814871,   1.77441573
   1341, -0.0678742453,   1.53039062
   1342, -0.0617257729,   1.31421685
   1343, -0.0562790483,   1.12271559
   1344, -0.0514539741,  0.953071117
   1345, -0.0471796021,  0.802788615
   1346, -0.0433930792,  0.669658422
   1347, -0.0400387235,  0.551722765
   1348, -0.0370672122,  0.447247446
   1349, -0.0344348475,  0.354696274
   1350, -0.0321029238,  0.272708237
   1351, -0.116228178,   5.27368975
   1352,  -0.10402818,    4.6302762
   1353, -0.0932206064,   4.06029701
   1354, -0.0836465359,   3.55537128
   1355, -0.0751651824,   3.10807467
   1356, -0.0676518381,   2.71182919
   1357, -0.0609960146,   2.36080861
   1358, -0.0550998412,   2.04985118
   1359, -0.0498766154,   1.77438426
   1360, -0.0452495329,   1.53035736
   1361, -0.041150555,   1.31418192
   1362, -0.0375194065,   1.12267935
   1363, -0.0343026929,  0.953033507
   1364, -0.031453114,  0.802749932
   1365, -0.028928766,  0.669618666
   1366, -0.0266925283,  0.551682174
   1367, -0.0247115213,   0.44720608
   1368, -0.0229566135,  0.354654193
   1369, -0.0214019977,   0.27266559
   1370, -0.0581140928,   5.27368689
   1371, -0.0520140938,      4.63027
   1372, -0.0466103069,   4.06028843
   1373, -0.0418232754,   3.55536056
   1374, -0.0375825986,   3.10806179
   1375, -0.0338259265,   2.71181464
   1376, -0.0304980166,    2.3607924
   1377, -0.0275499299,   2.04983354
   1378, -0.0249383189,   1.77436543
   1379, -0.0226247776,   1.53033733
   1380, -0.0205752905,   1.31416094
   1381, -0.0187597163,   1.12265754
   1382, -0.0171513595,  0.953010917
   1383,  -0.01572657,  0.802726686
   1384, -0.0144643961,  0.669594884
   1385, -0.0133462781,  0.551657796
   1386, -0.0123557746,  0.447181255
   1387, -0.0114783207,   0.35462898
   1388, -0.0107010137,   0.27263996
   1389,           0.,   5.27368546
   1390,           0.,   4.63026762
   1391,           0.,   4.06028557
   1392,           0.,   3.55535674
   1393,           0.,    3.1080575
   1394,           0.,   2.71180964
   1395,           0.,   2.36078691
   1396,           0.,   2.04982758
   1397,           0.,   1.77435911
   1398,           0.,   1.53033066
   1399,           0.,   1.31415403
   1400,           0.,   1.12265027
   1401,           0.,  0.953003407
   1402,           0.,  0.802718937
   1403,           0.,  0.669586897
   1404,           0.,   0.55164969
   1405,           0.,  0.447172999
   1406,           0.,  0.354620546
   1407,           0.,  0.272631437
   1408, 0.0581140928,   5.27368689
   1409, 0.0520140938,      4.63027
   1410, 0.0466103069,   4.06028843
   1411, 0.0418232754,   3.55536056
   1412, 0.0375825986,   3.10806179
   1413, 0.0338259265,   2.71181464
   1414, 0.0304980166,    2.3607924
   1415, 0.0275499299,   2.04983354
   1416, 0.0249383189,   1.77436543
   1417, 0.0226247776,   1.53033733
   1418, 0.0205752905,   1.31416094
   1419, 0.0187597163,   1.12265754
   1420, 0.0171513595,  0.953010917
   1421,   0.01572657,  0.802726686
   1422, 0.0144643961,  0.669594884
   1423, 0.0133462781,  0.551657796
   1424, 0.0123557746,  0.447181255
   1425, 0.0114783207,   0.35462898
   1426, 0.0107010137,   0.27263996
   1427,  0.116228178,   5.27368975
   1428,   0.10402818,    4.6302762
   1429, 0.0932206064,   4.06029701
   1430, 0.0836465359,   3.55537128
   1431, 0.0751651824,   3.10807467
   1432, 0.0676518381,   2.71182919
   1433, 0.0609960146,   2.36080861
   1434, 0.0550998412,   2.04985118
   1435, 0.0498766154,   1.77438426
   1436, 0.0452495329,   1.53035736
   1437,  0.041150555,   1.31418192
   1438, 0.0375194065,   1.12267935
   1439, 0.0343026929,  0.953033507
   1440,  0.031453114,  0.802749932
   1441,  0.028928766,  0.669618666
   1442, 0.0266925283,  0.551682174
   1443, 0.0247115213,   0.44720608
   1444, 0.0229566135,  0.354654193
   1445, 0.0214019977,   0.27266559
   1446,   0.17434226,   5.27369547
   1447,  0.156042248,   4.63028622
   1448,  0.139830887,   4.06031132
   1449,  0.125469774,   3.55538964
   1450,  0.112747744,   3.10809612
   1451,  0.101477712,   2.71185374
   1452, 0.0914939716,   2.36083579
   1453, 0.0826497078,   2.04988074
   1454,  0.074814871,   1.77441573
   1455, 0.0678742453,   1.53039062
   1456, 0.0617257729,   1.31421685
   1457, 0.0562790483,   1.12271559
   1458, 0.0514539741,  0.953071117
   1459, 0.0471796021,  0.802788615
   1460, 0.0433930792,  0.669658422
   1461, 0.0400387235,  0.551722765
   1462, 0.0370672122,  0.447247446
   1463, 0.0344348475,  0.354696274
   1464, 0.0321029238,  0.272708237
   1465,  0.232456326,    5.2737031
   1466,  0.208056301,   4.63030052
   1467,  0.186441138,   4.06033134
   1468,  0.167292967,   3.55541515
   1469,  0.150330245,    3.1081264
   1470,  0.135303542,   2.71188807
   1471,   0.12199188,    2.3608737
   1472,  0.110199519,   2.04992175
   1473,  0.099753052,   1.77445984
   1474, 0.0904988796,   1.53043723
   1475, 0.0823009163,   1.31426573
   1476, 0.0750386119,   1.12276649
   1477, 0.0686051771,  0.953123748
   1478, 0.0629060119,  0.802842855
   1479, 0.0578573123,  0.669713974
   1480,  0.053384833,  0.551779568
   1481, 0.0494228154,  0.447305381
   1482, 0.0459129922,  0.354755133
   1483, 0.0428037606,  0.272767991
   1484,  0.290570378,   5.27371264
   1485,  0.260070324,   4.63031864
   1486,  0.233051345,   4.06035757
   1487,  0.209116116,   3.55544782
   1488,  0.187912703,   3.10816503
   1489,  0.169129297,   2.71193218
   1490,  0.152489707,   2.36092257
   1491,   0.13774924,   2.04997492
   1492,  0.124691159,   1.77451646
   1493,  0.113123432,   1.53049719
   1494,  0.102875963,   1.31432855
   1495, 0.0937980786,   1.12283194
   1496, 0.0857562795,    0.9531914
   1497, 0.0786323175,  0.802912533
   1498, 0.0723214298,    0.6697855
   1499, 0.0667308345,  0.551852643
   1500, 0.0617783032,  0.447379827
   1501, 0.0573910251,  0.354830861
   1502, 0.0535044782,  0.272844791
   1503,   0.34868443,   5.27372456
   1504,  0.312084317,   4.63034105
   1505,  0.279661506,   4.06038952
   1506,   0.25093922,   3.55548787
   1507,  0.225495085,   3.10821247
   1508,  0.202954978,   2.71198606
   1509,  0.182987437,   2.36098218
   1510,  0.165298864,   2.05003953
   1511,  0.149629146,   1.77458572
   1512,  0.135747865,   1.53057039
   1513,  0.123450898,   1.31440532
   1514,  0.112557419,   1.12291181
   1515,  0.102907248,  0.953274131
   1516, 0.0943584815,  0.802997708
   1517, 0.0867854208,   0.66987282
   1518,  0.080076687,  0.551941931
   1519, 0.0741336495,  0.447470844
   1520, 0.0688689128,  0.354923368
   1521, 0.0642050505,  0.272938669
   1522,  0.406798422,   5.27373886
   1523,  0.364098251,   4.63036776
   1524,  0.326271594,   4.06042719
   1525,   0.29276222,   3.55553532
   1526,  0.263077378,    3.1082685
   1527,  0.236780539,   2.71204972
   1528,  0.213485062,   2.36105275
   1529,  0.192848369,   2.05011606
   1530,  0.174567014,   1.77466762
   1531,  0.158372164,   1.53065705
   1532,  0.144025683,   1.31449604
   1533,  0.131316602,   1.12300634
   1534,   0.12005806,  0.953371882
   1535,  0.110084496,  0.803098381
   1536,   0.10124924,  0.669976115
   1537, 0.0934223831,  0.552047431
   1538, 0.0864888281,    0.4475784
   1539, 0.0803466216,  0.355032742
   1540, 0.0749054477,  0.273049593
   1541,  0.464912415,   5.27375507
   1542,  0.416112155,   4.63039827
   1543,  0.372881621,    4.0604701
   1544,   0.33458513,   3.55558991
   1545,  0.300659567,   3.10833311
   1546,  0.270606011,   2.71212316
   1547,  0.243982553,   2.36113405
   1548,  0.220397726,   2.05020428
   1549,  0.199504718,   1.77476203
   1550,  0.180996299,   1.53075695
   1551,  0.164600298,   1.31460083
   1552,  0.150075614,    1.1231153
   1553,    0.1372087,  0.953484714
   1554,   0.12581031,   0.80321455
   1555,  0.115712866,  0.670095205
   1556,   0.10676787,  0.552169204
   1557,  0.098843798,  0.447702497
   1558, 0.0918241292,  0.355158895
   1559, 0.0856056362,  0.273177594
   1560,  0.523026347,   5.27377319
   1561,  0.468125999,   4.63043308
   1562,  0.419491589,   4.06051922
   1563,  0.376407951,    3.5556519
   1564,  0.338241607,   3.10840631
   1565,  0.304431319,    2.7122066
   1566,  0.274479896,   2.36122632
   1567,  0.247946933,   2.05030441
   1568,  0.224442258,   1.77486908
   1569,   0.20362024,   1.53087008
   1570,  0.185174718,   1.31471956
   1571,  0.168834433,   1.12323892
   1572,  0.154359117,  0.953612566
   1573,  0.141535923,  0.803346217
   1574,  0.130176276,  0.670230269
   1575,  0.120113142,  0.552307248
   1576,  0.111198545,  0.447843164
   1577,  0.103301406,  0.355301887
   1578, 0.0963055864,  0.273322672
   1579,   0.58114028,    5.2737937
   1580,  0.520139754,   4.63047171
   1581,  0.466101438,   4.06057453
   1582,  0.418230683,   3.55572104
   1583,  0.375823557,   3.10848832
   1584,  0.338256478,   2.71229959
   1585,  0.304977059,   2.36132932
   1586,  0.275495946,   2.05041623
   1587,   0.24937959,   1.77498877
   1588,  0.226243988,   1.53099668
   1589,  0.205748916,   1.31485212
   1590,  0.187593013,   1.12337697
   1591,  0.171509311,  0.953755438
   1592,  0.157261282,  0.803493321
   1593,  0.144639432,  0.670381129
   1594,  0.133458167,  0.552461445
   1595,  0.123553038,  0.448000342
   1596,  0.114778414,  0.355461717
   1597,  0.107005276,  0.273484796
   1598,  0.639254212,   5.27381659
   1599,  0.572153509,   4.63051462
   1600,  0.512711227,   4.06063509
   1601,  0.460053265,   3.55579758
   1602,  0.413405329,   3.10857868
   1603,  0.372081488,   2.71240258
   1604,  0.335474044,   2.36144304
   1605,  0.303044766,   2.05053973
   1606,  0.274316728,   1.77512097
   1607,  0.248867497,   1.53113651
   1608,  0.226322889,   1.31499875
   1609,  0.206351355,   1.12352955
   1610,  0.188659236,  0.953913331
   1611,  0.172986388,  0.803655922
   1612,  0.159102321,  0.670547903
   1613,  0.146802902,  0.552631915
   1614,  0.135907248,  0.448174089
   1615,   0.12625514,  0.355638355
   1616,  0.117704667,  0.273663998
   1617,  0.697368026,   5.27384138
   1618,  0.624167085,   4.63056183
   1619,  0.559320867,   4.06070137
   1620,  0.501875699,   3.55588126
   1621,  0.450986952,   3.10867786
   1622,   0.40590629,   2.71251512
   1623,   0.36597085,   2.36156774
   1624,  0.330593348,   2.05067515
   1625,  0.299253613,   1.77526569
   1626,  0.271490753,    1.5312897
   1627,   0.24689658,   1.31515932
   1628,  0.225109413,   1.12369668
   1629,  0.205808893,  0.954086304
   1630,  0.188711196,  0.803834021
   1631,  0.173564911,  0.670730591
   1632,  0.160147324,  0.552818656
   1633,   0.14826113,  0.448364377
   1634,  0.137731552,  0.355831802
   1635,  0.128403738,  0.273860276
   1636,  0.755481839,   5.27386856
   1637,  0.676180661,   4.63061285
   1638,  0.605930388,   4.06077385
   1639,  0.543698013,   3.55597234
   1640,  0.488568395,   3.10878563
   1641,  0.439730912,   2.71263766
   1642,  0.396467388,    2.3617034
   1643,   0.35814169,   2.05082226
   1644,  0.324190229,   1.77542317
   1645,  0.294113755,   1.53145611
   1646,  0.267470002,   1.31533384
   1647,  0.243867174,   1.12387836
   1648,  0.222958222,  0.954274297
   1649,  0.204435676,  0.804027617
   1650,  0.188027173,  0.670929134
   1651,  0.173491418,   0.55302161
   1652,  0.160614684,  0.448571205
   1653,  0.149207607,  0.356042087
   1654,  0.139102444,  0.274073601
   1655,  0.813595593,   5.27389765
   1656,  0.728194118,   4.63066769
   1657,   0.65253979,   4.06085157
   1658,  0.585520148,    3.5560708
   1659,  0.526149631,   3.10890198
   1660,  0.473555297,   2.71276999
   1661,  0.426963717,   2.36184978
   1662,  0.385689765,   2.05098128
   1663,  0.349126577,   1.77559316
   1664,   0.31673643,     1.531636
   1665,  0.288043082,   1.31552243
   1666,  0.262624621,   1.12407458
   1667,  0.240107223,   0.95447731
   1668,  0.220159814,   0.80423671
   1669,  0.202489078,  0.671143532
   1670,   0.18683514,  0.553240776
   1671,  0.172967851,  0.448794574
   1672,  0.160683274,  0.356269181
   1673,  0.149800777,  0.274304003
   1674,  0.871709287,   5.27392912
   1675,  0.780207455,   4.63072681
   1676,  0.699149013,    4.0609355
   1677,  0.627342105,   3.55617642
   1678,  0.563730657,   3.10902691
   1679,  0.507379413,   2.71291208
   1680,  0.457459748,    2.3620069
   1681,  0.413237572,   2.05115199
   1682,  0.374062598,   1.77577567
   1683,  0.339358807,   1.53182912
   1684,  0.308615834,   1.31572485
   1685,  0.281381696,   1.12428534
   1686,  0.257255852,  0.954695344
   1687,  0.235883579,  0.804461241
   1688,  0.216950595,  0.671373844
   1689,  0.200178489,  0.553476155
   1690,  0.185320631,  0.449034482
   1691,  0.172158554,  0.356513083
   1692,  0.160498708,  0.274551451
   1693,  0.929822922,    5.2739625
   1694,  0.832220733,   4.63079023
   1695,  0.745758176,   4.06102514
   1696,  0.669163823,    3.5562892
   1697,  0.601311505,   3.10916042
   1698,   0.54120332,   2.71306396
   1699,   0.48795554,   2.36217499
   1700,   0.44078505,   2.05133438
   1701,   0.39899832,   1.77597082
   1702,  0.361980826,   1.53203547
   1703,  0.329188257,   1.31594121
   1704,  0.300138384,   1.12451053
   1705,  0.274404109,  0.954928458
   1706,  0.251606941,  0.804701269
   1707,  0.231411695,  0.671620071
   1708,  0.213521391,  0.553727806
   1709,  0.197672978,  0.449290961
   1710,  0.183633387,  0.356773823
   1711,  0.171196178,  0.274815977
   1712,  0.987936497,   5.27399826
   1713,  0.884233832,   4.63085747
   1714,  0.792367101,   4.06112051
   1715,  0.710985422,   3.55640936
   1716,  0.638892055,   3.10930252
   1717,  0.575026989,    2.7132256
   1718,  0.518450975,   2.36235404
   1719,  0.468332231,   2.05152845
   1720,  0.423933685,    1.7761786
   1721,  0.384602457,   1.53225529
   1722,  0.349760264,   1.31617165
   1723,  0.318894684,   1.12475038
   1724,  0.291551918,  0.955176592
   1725,  0.267329872,  0.804956794
   1726,  0.245872363,  0.671882093
   1727,  0.226863861,  0.553995669
   1728,  0.210024863,   0.44956395
   1729,  0.195107758,  0.357051373
   1730,  0.181893185,  0.275097549
   1731,   1.04605007,   5.27403641
   1732,  0.936246872,   4.63092899
   1733,  0.838975906,    4.0612216
   1734,  0.752806783,   3.55653691
   1735,  0.676472366,   3.10945344
   1736,    0.6088503,   2.71339703
   1737,  0.548946142,   2.36254382
   1738,  0.495879054,   2.05173445
   1739,  0.448868662,    1.7763989
   1740,  0.407223731,   1.53248835
   1741,  0.370331854,   1.31641603
   1742,  0.337650567,   1.12500465
   1743,   0.30869931,  0.955439746
   1744,  0.283052355,  0.805227816
   1745,  0.260332555,  0.672160029
   1746,  0.240205854,  0.554279745
   1747,  0.222376272,   0.44985351
   1748,  0.206581637,   0.35734576
   1749,    0.1925897,  0.275396198
   1750,   1.10416353,   5.27407646
   1751,  0.988259733,   4.63100433
   1752,  0.885584474,   4.06132841
   1753,  0.794627905,   3.55667162
   1754,  0.714052439,    3.1096127
   1755,  0.642673314,   2.71357822
   1756,  0.579440951,   2.36274433
   1757,  0.523425519,   2.05195236
   1758,  0.473803252,   1.77663183
   1759,  0.429844558,   1.53273463
   1760,  0.390903026,   1.31667423
   1761,  0.356406003,   1.12527347
   1762,  0.325846225,  0.955717921
   1763,  0.298774362,  0.805514276
   1764,  0.274792284,   0.67245388
   1765,  0.253547341,  0.554580092
   1766,  0.234727159,   0.45015958
   1767,  0.218054995,  0.357656926
   1768,  0.203285664,  0.275711894
   1769,   1.16227686,   5.27411842
   1770,   1.04027247,   4.63108397
   1771,  0.932192922,   4.06144142
   1772,  0.836448789,   3.55681372
   1773,  0.751632214,   3.10978079
   1774,  0.676496029,    2.7137692
   1775,  0.609935403,   2.36295581
   1776,  0.550971568,   2.05218172
   1777,  0.498737454,    1.7768774
   1778,  0.452464968,   1.53299439
   1779,  0.411473721,   1.31694651
   1780,  0.375160962,   1.12555695
   1781,  0.342992663,  0.956011176
   1782,  0.314495832,  0.805816233
   1783,  0.289251447,  0.672763586
   1784,  0.266888291,  0.554896593
   1785,   0.24707751,   0.45048219
   1786,  0.229527801,   0.35798493
   1787,  0.213981092,  0.276044667
   1788,    1.2203902,   5.27416277
   1789,   1.09228516,   4.63116789
   1790,  0.978801131,   4.06155968
   1791,  0.878269374,   3.55696297
   1792,   0.78921169,   3.10995746
   1793,  0.710318446,   2.71397018
   1794,  0.640429497,   2.36317801
   1795,  0.578517258,     2.052423
   1796,   0.52367121,   1.77713549
   1797,  0.475084931,   1.53326738
   1798,   0.43204397,   1.31723273
   1799,  0.393915385,   1.12585473
   1800,  0.360138565,  0.956319451
   1801,  0.330216795,  0.806133687
   1802,  0.303710103,  0.673089147
   1803,  0.280228674,  0.555229366
   1804,  0.259427279,   0.45082134
   1805,  0.241000012,  0.358329743
   1806,  0.224675909,  0.276394486
   1807,   1.27850342,    5.2742095
   1808,    1.1442976,   4.63125563
   1809,    1.0254091,   4.06168413
   1810,  0.920089781,   3.55711961
   1811,  0.826790869,   3.11014271
   1812,  0.744140446,   2.71418071
   1813,  0.670923173,   2.36341119
   1814,  0.606062472,   2.05267596
   1815,  0.548604488,    1.7774061
   1816,  0.497704387,   1.53355372
   1817,  0.452613682,    1.3175329
   1818,  0.412669331,   1.12616718
   1819,  0.377283931,  0.956642747
   1820,  0.345937192,  0.806466639
   1821,  0.318168163,  0.673430622
   1822,  0.293568492,  0.555578411
   1823,  0.271776468,  0.451177031
   1824,  0.252471626,  0.358691365
   1825,  0.235370114,  0.276761353
   1826,   1.33661652,   5.27425814
   1827,   1.19630992,   4.63134718
   1828,   1.07201695,   4.06181383
   1829,   0.96190989,    3.5572834
   1830,   0.86436969,   3.11033654
   1831,  0.777962089,   2.71440125
   1832,  0.701416492,   2.36365509
   1833,  0.633607268,   2.05294085
   1834,   0.57353735,   1.77768946
   1835,  0.520323336,   1.53385329
   1836,  0.473182887,   1.31784701
   1837,  0.431422681,   1.12649417
   1838,   0.39442873,  0.956981063
   1839,  0.361656994,  0.806815028
   1840,  0.332625628,  0.673787892
   1841,  0.306907684,  0.555943608
   1842,     0.284125,  0.451549262
   1843,  0.263942599,  0.359069794
   1844,  0.246063679,  0.277145296
   1845,   1.39472961,   5.27430868
   1846,   1.24832201,   4.63144302
   1847,   1.11862445,   4.06194973
   1848,    1.0037297,   3.55745459
   1849,  0.901948214,   3.11053896
   1850,  0.811783373,   2.71463132
   1851,  0.731909335,   2.36390996
   1852,  0.661151588,   2.05321741
   1853,  0.598469615,   1.77798522
   1854,  0.542941809,   1.53416622
   1855,  0.493751526,   1.31817508
   1856,  0.450175464,   1.12683558
   1857,  0.411572903,  0.957334399
   1858,  0.377376199,  0.807178915
   1859,  0.347082436,  0.674161077
   1860,   0.32024622,  0.556325078
   1861,  0.296472907,  0.451938033
   1862,  0.275412917,  0.359465033
   1863,  0.256756574,  0.277546257
   1864,   1.45284259,   5.27436209
   1865,   1.30033398,   4.63154316
   1866,   1.16523182,   4.06209135
   1867,   1.04554915,   3.55763316
   1868,   0.93952632,    3.1107502
   1869,  0.845604241,   2.71487141
   1870,   0.76240176,   2.36417556
   1871,  0.688695431,   2.05350566
   1872,  0.623401463,   1.77829373
   1873,  0.565559685,   1.53449249
   1874,  0.514319599,   1.31851709
   1875,  0.468927681,   1.12719166
   1876,  0.428716481,  0.957702756
   1877,  0.393094748,  0.807558239
   1878,  0.361538619,  0.674550176
   1879,    0.3335841,   0.55672276
   1880,  0.308820099,  0.452343345
   1881,   0.28688252,   0.35987708
   1882,  0.267448753,  0.277964294
   1883,   1.51095545,   5.27441692
   1884,   1.35234582,   4.63164711
   1885,   1.21183884,   4.06223869
   1886,   1.08736837,   3.55781865
   1887,  0.977104068,   3.11096978
   1888,  0.879424632,   2.71512127
   1889,  0.792893648,   2.36445189
   1890,  0.716238737,   2.05380583
   1891,  0.648332715,   1.77861464
   1892,  0.588176966,     1.534832
   1893,  0.534887016,   1.31887305
   1894,  0.487679243,   1.12756217
   1895,  0.445859402,  0.958086193
   1896,  0.408812612,   0.80795306
   1897,  0.375994116,   0.67495513
   1898,  0.346921265,  0.557136655
   1899,  0.321166605,  0.452765167
   1900,  0.298351407,  0.360305935
   1901,  0.278140187,  0.278399378
   1902,   1.56906819,   5.27447462
   1903,   1.40435743,   4.63175535
   1904,   1.25844562,   4.06239176
   1905,   1.12918723,   3.55801177
   1906,   1.01468146,   3.11119819
   1907,  0.913244665,   2.71538067
   1908,  0.823385119,   2.36473918
   1909,  0.743781567,   2.05411768
   1910,  0.673263371,   1.77894831
   1911,   0.61079371,   1.53518486
   1912,  0.555453837,   1.31924295
   1913,  0.506430149,   1.12794721
   1914,  0.463001668,   0.95848459
   1915,  0.424529821,  0.808363318
   1916,  0.390448868,  0.675375879
   1917,  0.360257715,  0.557566762
   1918,  0.333512366,  0.453203529
   1919,  0.309819549,  0.360751599
   1920,  0.288830847,  0.278851539
   1921,   1.62718093,   5.27453375
   1922,   1.45636892,   4.63186741
   1923,   1.30505216,   4.06255102
   1924,   1.17100573,   3.55821204
   1925,   1.05225849,   3.11143494
   1926,  0.947064161,   2.71565008
   1927,  0.853876054,   2.36503744
   1928,    0.7713238,   2.05444121
   1929,  0.698193491,   1.77929449
   1930,  0.633409798,   1.53555107
   1931,  0.576020062,   1.31962681
   1932,  0.525180399,   1.12834668
   1933,  0.480143219,  0.958898067
   1934,  0.440246284,  0.808789134
   1935,  0.404902905,  0.675812602
   1936,   0.37359339,  0.558013082
   1937,  0.345857322,  0.453658402
   1938,  0.321286887,  0.361214072
   1939,  0.299520731,  0.279320717
   1940,   1.68529344,   5.27459574
   1941,   1.50838017,   4.63198376
   1942,   1.35165846,   4.06271553
   1943,   1.21282387,   3.55841947
   1944,   1.08983505,   3.11168051
   1945,  0.980883241,   2.71592927
   1946,  0.884366453,   2.36534643
   1947,  0.798865497,   2.05477667
   1948,  0.723122954,   1.77965319
   1949,  0.656025231,   1.53593051
   1950,  0.596585572,   1.32002461
   1951,  0.543929935,   1.12876081
   1952,  0.497284025,  0.959326565
   1953,  0.455962002,  0.809230328
   1954,  0.419356167,  0.676265121
   1955,   0.38692829,  0.558475614
   1956,  0.358201504,  0.454129845
   1957,   0.33275342,  0.361693352
   1958,  0.310209781,  0.279806972
   1959,   1.74340594,   5.27465916
   1960,   1.56039119,    4.6321044
   1961,   1.39826441,   4.06288576
   1962,   1.25464177,   3.55863428
   1963,   1.12741113,   3.11193466
   1964,   1.01470184,   2.71621823
   1965,  0.914856315,   2.36566615
   1966,  0.826406538,   2.05512381
   1967,  0.748051822,   1.78002453
   1968,  0.678640008,   1.53632331
   1969,  0.617150366,   1.32043636
   1970,  0.562678695,   1.12918937
   1971,  0.514424086,  0.959770024
   1972,  0.471676946,  0.809687018
   1973,  0.433808655,  0.676733494
   1974,  0.400262386,  0.558954418
   1975,  0.370544851,  0.454617769
   1976,  0.344219089,  0.362189442
   1977,  0.320897996,  0.280310243
   1978,   1.80151832,   5.27472544
   1979,   1.61240196,   4.63222885
   1980,   1.44487011,   4.06306219
   1981,    1.2964592,   3.55885649
   1982,   1.16498685,    3.1121974
   1983,   1.04851985,   2.71651697
   1984,   0.94534564,   2.36599684
   1985,  0.853947043,   2.05548263
   1986,  0.772980034,   1.78040838
   1987,   0.70125407,   1.53672934
   1988,  0.637714446,   1.32086205
   1989,   0.58142674,   1.12963247
   1990,  0.531563401,  0.960228562
   1991,  0.487391084,  0.810159206
   1992,  0.448260278,  0.677217782
   1993,  0.413595617,  0.559449375
   1994,  0.382887363,  0.455122232
   1995,  0.355683923,   0.36270231
   1996,  0.331585288,  0.280830562
   1997,   1.85963058,   5.27479362
   1998,   1.66441262,   4.63235712
   1999,   1.49147546,   4.06324434
   2000,   1.33827615,   3.55908585
   2001,   1.20256209,   3.11246872
   2002,   1.08233738,   2.71682549
   2003,   0.97583437,   2.36633825
   2004,  0.881486893,   2.05585313
   2005,  0.797907591,   1.78080487
   2006,  0.723867476,   1.53714871
   2007,   0.65827775,    1.3213017
   2008,   0.60017401,   1.13009012
   2009,  0.548701882,  0.960702062
   2010,  0.503104389,  0.810646832
   2011,  0.462711096,  0.677717924
   2012,  0.426928014,  0.559960544
   2013,  0.395228982,  0.455643237
   2014,  0.367147833,  0.363231987
   2015,  0.342271715,  0.281367928
   2016,   1.91774261,   5.27486372
   2017,   1.71642292,   4.63248968
   2018,   1.53808045,   4.06343174
   2019,   1.38009286,    3.5593226
   2020,   1.24013674,   3.11274862
   2021,   1.11615443,   2.71714377
   2022,    1.0063225,    2.3666904
   2023,  0.909026086,   2.05623555
   2024,  0.822834432,   1.78121388
   2025,  0.746480107,   1.53758132
   2026,  0.678840339,   1.32175529
   2027,  0.618920505,   1.13056231
   2028,  0.565839529,  0.961190641
   2029,  0.518816829,  0.811149955
   2030,   0.47716102,  0.678233862
   2031,  0.440259486,  0.560487986
   2032,  0.407569677,  0.456180751
   2033,   0.37861082,  0.363778472
   2034,  0.352957159,   0.28192234
   2035,   1.97585464,    5.2749362
   2036,   1.76843309,   4.63262653
   2037,   1.58468521,   4.06362534
   2038,   1.42190909,    3.5595665
   2039,   1.27771103,   3.11303711
   2040,   1.14997089,   2.71747184
   2041,   1.03681004,   2.36705351
   2042,  0.936564624,   2.05662966
   2043,  0.847760558,   1.78163552
   2044,  0.769091964,   1.53802729
   2045,  0.699402094,   1.32222283
   2046,  0.637666166,   1.13104892
   2047,  0.582976341,  0.961694181
   2048,  0.534528434,  0.811668515
   2049,   0.49161002,  0.678765714
   2050,  0.453590065,   0.56103158
   2051,  0.419909418,  0.456734806
   2052,  0.390072852,  0.364341736
   2053,  0.363641649,    0.2824938
   2054,   2.03396654,   5.27501106
   2055,   1.82044303,    4.6327672
   2056,    1.6312896,   4.06382465
   2057,   1.46372485,   3.55981755
   2058,   1.31528485,   3.11333442
   2059,   1.18378675,   2.71780968
   2060,   1.06729686,   2.36742759
   2061,  0.964102507,   2.05703568
   2062,  0.872685969,   1.78206968
   2063,  0.791703105,    1.5384866
   2064,  0.719963074,   1.32270432
   2065,  0.656410933,   1.13155007
   2066,  0.600112259,  0.962212801
   2067,  0.550239086,  0.812202513
   2068,  0.506058097,  0.679313421
   2069,  0.466919661,  0.561591387
   2070,  0.432248205,  0.457305342
   2071,  0.401533902,  0.364921808
   2072,  0.374325126,  0.283082306
   2073,   2.09207821,   5.27508783
   2074,   1.87245262,   4.63291216
   2075,   1.67789364,   4.06402969
   2076,   1.50554013,     3.560076
   2077,   1.35285807,   3.11364007
   2078,   1.21760201,   2.71815729
   2079,   1.09778309,    2.3678124
   2080,  0.991639614,   2.05745316
   2081,  0.897610605,   1.78251648
   2082,  0.814313352,   1.53895915
   2083,   0.74052316,   1.32319975
   2084,  0.675154865,   1.13206565
   2085,  0.617247224,  0.962746382
   2086,  0.565948844,  0.812752008
   2087,   0.52050525,  0.679876983
   2088,  0.480248272,  0.562167406
   2089,  0.444585979,  0.457892418
   2090,  0.412993938,  0.365518659
   2091,   0.38500759,   0.28368783
   2092,   2.15018988,   5.27516651
   2093,   1.92446208,   4.63306093
   2094,    1.7244972,   4.06424093
   2095,   1.54735506,   3.56034184
   2096,   1.39043069,   3.11395454
   2097,   1.25141668,   2.71851468
   2098,   1.12826872,   2.36820793
   2099,   1.01917601,   2.05788255
   2100,  0.922534406,   1.78297579
   2101,  0.836922824,   1.53944504
   2102,  0.761082411,   1.32370913
   2103,  0.693897843,    1.1325959
   2104,  0.634381294,  0.963294983
   2105,  0.581657588,  0.813316941
   2106,  0.534951389,    0.6804564
   2107,  0.493575901,  0.562759638
   2108,   0.45692274,  0.458496034
   2109,  0.424452931,  0.366132319
   2110,  0.395688981,    0.2843104
   2111,   2.20830131,   5.27524757
   2112,   1.97647119,     4.633214
   2113,   1.77110052,   4.06445742
   2114,    1.5891695,   3.56061482
   2115,   1.42800283,   3.11427736
   2116,   1.28523064,   2.71888208
   2117,   1.15875351,    2.3686142
   2118,   1.04671168,   2.05832386
   2119,  0.947457492,   1.78344774
   2120,  0.859531462,   1.53994417
   2121,  0.781640768,   1.32423246
   2122,  0.712639928,   1.13314056
   2123,  0.651514411,  0.963858604
   2124,  0.597365379,  0.813897371
   2125,  0.549396515,  0.681051672
   2126,  0.506902456,  0.563368082
   2127,  0.469258457,  0.459116131
   2128,  0.435910851,  0.366762757
   2129,  0.406369299,  0.284949988
   2130,   2.26641273,   5.27533102
   2131,   2.02848005,   4.63337088
   2132,   1.81770349,   4.06467962
   2133,   1.63098347,   3.56089497
   2134,    1.4655745,     3.114609
   2135,   1.31904411,   2.71925902
   2136,   1.18923771,   2.36903143
   2137,   1.07424653,   2.05877662
   2138,  0.972379684,   1.78393221
   2139,  0.882139206,   1.54045653
   2140,  0.802198172,   1.32476962
   2141,  0.731381059,   1.13369966
   2142,  0.668646574,  0.964437246
   2143,  0.613072157,  0.814493239
   2144,  0.563840568,  0.681662798
   2145,  0.520228028,  0.563992739
   2146,  0.481593072,  0.459752738
   2147,  0.447367638,  0.367409974
   2148,  0.417048484,  0.285606623
   2149,   2.32452393,   5.27541637
   2150,   2.08048868,   4.63353205
   2151,   1.86430597,   4.06490803
   2152,   1.67279696,    3.5611825
   2153,   1.50314546,   3.11494923
   2154,   1.35285687,   2.71964574
   2155,   1.21972108,   2.36945963
   2156,   1.10178065,   2.05924129
   2157,  0.997301042,   1.78442919
   2158,  0.904746056,   1.54098225
   2159,  0.822754681,   1.32532072
   2160,  0.750121236,   1.13427341
   2161,  0.685777664,  0.965030849
   2162,  0.628777862,  0.815104544
   2163,  0.578283608,  0.682289779
   2164,  0.533552408,  0.564633548
   2165,  0.493926555,  0.460405856
   2166,  0.458823323,     0.368074
   2167,  0.427726537,  0.286280274
   2168,   2.38263488,   5.27550411
   2169,   2.13249707,   4.63369703
   2170,    1.9109081,   4.06514168
   2171,   1.71460998,   3.56147742
   2172,   1.54071581,   3.11529779
   2173,   1.38666892,   2.72004223
   2174,   1.25020385,   2.36989832
   2175,   1.12931395,   2.05971766
   2176,   1.02222157,   1.78493881
   2177,  0.927352011,   1.54152131
   2178,  0.843310237,   1.32588589
   2179,    0.7688604,   1.13486159
   2180,  0.702907741,  0.965639472
   2181,  0.644482493,  0.815731287
   2182,  0.592725515,  0.682932556
   2183,  0.546875715,   0.56529063
   2184,  0.506258905,  0.461075515
   2185,  0.470277846,  0.368754804
   2186,  0.438403398,  0.286970943
   2187,   2.44074583,   5.27559376
   2188,   2.18450499,   4.63386631
   2189,   1.95750988,   4.06538153
   2190,    1.7564224,    3.5617795
   2191,   1.57828569,   3.11565518
   2192,   1.42048025,   2.72044849
   2193,   1.28068566,   2.37034822
   2194,   1.15684628,    2.0602057
   2195,   1.04714119,   1.78546095
   2196,  0.949957013,   1.54207361
   2197,  0.863864779,   1.32646489
   2198,  0.787598491,   1.13546419
   2199,  0.720036745,  0.966263115
   2200,  0.660186052,  0.816373467
   2201,   0.60716635,  0.683591247
   2202,   0.56019789,  0.565963864
   2203,  0.518590093,  0.461761653
   2204,  0.481731176,  0.369452387
   2205,  0.449079037,  0.287678659
   2206,   2.49885654,   5.27568579
   2207,   2.23651266,   4.63403988
   2208,   2.00411105,    4.0656271
   2209,   1.79823434,   3.56208873
   2210,   1.61585486,   3.11602116
   2211,   1.45429087,   2.72086453
   2212,   1.31116676,    2.3708086
   2213,   1.18437791,   2.06070566
   2214,   1.07205987,    1.7859956
   2215,  0.972561002,   1.54263914
   2216,  0.884418309,   1.32705784
   2217,  0.806335568,   1.13608146
   2218,  0.737164676,  0.966901779
   2219,  0.675888479,  0.817031145
   2220,  0.621605992,  0.684265733
   2221,  0.573518872,  0.566653252
   2222,  0.530920088,  0.462464303
   2223,  0.493183285,  0.370166719
   2224,  0.459753484,  0.288403392
   2225,   2.55696702,   5.27577972
   2226,    2.2885201,   4.63421726
   2227,   2.05071211,   4.06587791
   2228,   1.84004569,   3.56240535
   2229,   1.65342331,   3.11639571
   2230,   1.48810089,   2.72129059
   2231,   1.34164715,   2.37127995
   2232,   1.21190858,   2.06121707
   2233,   1.09697759,   1.78654289
   2234,  0.995164037,   1.54321802
   2235,  0.904970765,   1.32766461
   2236,  0.825071573,   1.13671303
   2237,  0.754291475,  0.967555404
   2238,  0.691589773,   0.81770426
   2239,  0.636044443,  0.684956074
   2240,  0.586838663,  0.567358911
   2241,  0.543248892,  0.463183433
   2242,  0.504634142,  0.370897859
   2243,  0.470426619,  0.289145142
   2244,    2.6150775,   5.27587605
   2245,    2.3405273,   4.63439846
   2246,   2.09731245,   4.06613493
   2247,   1.88185656,   3.56272936
   2248,   1.69099128,   3.11677885
   2249,   1.52191007,   2.72172618
   2250,   1.37212658,   2.37176204
   2251,   1.23943841,    2.0617404
   2252,   1.12189448,    1.7871027
   2253,   1.01776612,   1.54381025
   2254,  0.925522208,   1.32828546
   2255,  0.843806446,   1.13735926
   2256,  0.771417141,  0.968224049
   2257,  0.707289934,  0.818392813
   2258,  0.650481701,   0.68566227
   2259,  0.600157201,  0.568080664
   2260,  0.555576384,  0.463919073
   2261,  0.516083717,  0.371645778
   2262,  0.481098473,  0.289903909
   2263,   2.67318773,   5.27597427
   2264,   2.39253402,   4.63458395
   2265,   2.14391255,   4.06639767
   2266,   1.92366683,   3.56306052
   2267,   1.72855842,   3.11717057
   2268,   1.55571842,   2.72217155
   2269,    1.4026053,   2.37225509
   2270,   1.26696742,   2.06227565
   2271,   1.14681029,   1.78767514
   2272,   1.04036701,   1.54441559
   2273,  0.946072578,   1.32892013
   2274,  0.862540185,   1.13801992
   2275,  0.788541675,  0.968907654
   2276,  0.722988844,  0.819096804
   2277,  0.664917707,  0.686384261
   2278,  0.613474488,  0.568818688
   2279,  0.567902625,  0.464671224
   2280,  0.527531981,  0.372410446
   2281,  0.491769016,  0.290679693
   2282,   2.73129773,   5.27607489
   2283,    2.4445405,   4.63477373
   2284,   2.19051194,   4.06666613
   2285,   1.96547651,   3.56339884
   2286,   1.76612496,   3.11757088
   2287,   1.58952618,   2.72262669
   2288,   1.43308306,   2.37275887
   2289,   1.29449534,   2.06282234
   2290,   1.17172503,   1.78825998
   2291,   1.06296694,   1.54503429
   2292,  0.966621816,   1.32956874
   2293,  0.881272793,     1.138695
   2294,  0.805664957,   0.96960628
   2295,  0.738686502,  0.819816172
   2296,  0.679352522,  0.687122107
   2297,  0.626790464,  0.569572866
   2298,  0.580227494,  0.465439856
   2299,  0.538978934,  0.373191893
   2300,  0.502438188,  0.291472495
   2301,   2.78940749,   5.27617741
   2302,   2.49654675,   4.63496733
   2303,   2.23711109,   4.06694078
   2304,   2.00728559,   3.56374454
   2305,   1.80369079,   3.11797976
   2306,   1.62333298,    2.7230916
   2307,   1.46355999,   2.37327337
   2308,   1.32202232,   2.06338096
   2309,   1.19663894,   1.78885746
   2310,   1.08556581,   1.54566634
   2311,  0.987169921,   1.33023131
   2312,  0.900004268,   1.13938463
   2313,  0.822787046,  0.970319927
   2314,  0.754382908,  0.820551038
   2315,  0.693785965,  0.687875807
   2316,  0.640105128,  0.570343196
   2317,  0.592551112,  0.466224998
   2318,  0.550424516,  0.373990119
   2319,  0.513105989,  0.292282313
   2320,   2.84751725,   5.27628231
   2321,   2.54855251,   4.63516521
   2322,   2.28370953,   4.06722069
   2323,   2.04909396,    3.5640974
   2324,    1.8412559,   3.11839724
   2325,   1.65713906,   2.72356629
   2326,   1.49403596,   2.37379861
   2327,   1.34954846,   2.06395125
   2328,   1.22155166,   1.78946757
   2329,    1.1081636,   1.54631162
   2330,   1.00771689,   1.33090782
   2331,  0.918734491,    1.1400888
   2332,  0.839907885,  0.971048534
   2333,  0.770078063,  0.821301341
   2334,  0.708218157,  0.688645363
   2335,  0.653418481,  0.571129739
   2336,    0.6048733,  0.467026621
   2337,  0.561868727,  0.374805123
   2338,  0.523772359,  0.293109149
   2339,   3.05515671,   5.25701523
   2340,   2.75221229,   4.60037518
   2341,   2.47743654,   4.02098179
   2342,   2.22931004,   3.51024103
   2343,   2.00609255,   3.06023788
   2344,   1.80591297,    2.6638093
   2345,   1.62685347,   2.31455064
   2346,   1.46701717,   2.00678062
   2347,   1.32457638,   1.73548615
   2348,   1.19780457,    1.4962585
   2349,   1.08509541,   1.28522754
   2350,  0.984970748,   1.09899986
   2351,  0.896082461,  0.934600115
   2352,  0.817209065,   0.78941977
   2353,  0.747249484,  0.661170959
   2354,  0.685215116,  0.547845483
   2355,  0.630221069,  0.447679937
   2356,  0.581477165,  0.359124511
   2357,  0.538279116,  0.280816287
   2358,   3.20468664,   5.23764086
   2359,   2.90386677,   4.56538296
   2360,   2.62456536,   3.97445726
   2361,   2.36771798,   3.45602465
   2362,   2.13336468,   3.00165248
   2363,   1.92088163,   2.60356808
   2364,   1.72919595,    2.2547667
   2365,   1.55696094,   1.94902825
   2366,   1.40268934,   1.68088233
   2367,   1.26484895,   1.44554687
   2368,   1.14192808,   1.23885703
   2369,   1.03247797,   1.05719233
   2370,  0.935137451,  0.897408068
   2371,  0.848646224,  0.756772518
   2372,   0.77184999,  0.632911205
   2373,  0.703699708,  0.523758471
   2374,  0.643248022,  0.427515119
   2375,  0.589642823,  0.342612147
   2376,  0.542120874,  0.267679572
   2377,   3.35421658,   5.21826649
   2378,   3.05552101,   4.53039122
   2379,   2.77169418,    3.9279325
   2380,   2.50612617,   3.40180802
   2381,   2.26063681,   2.94306684
   2382,   2.03585029,   2.54332662
   2383,   1.83153832,   2.19498253
   2384,   1.64690471,   1.89127576
   2385,    1.4808023,    1.6262784
   2386,   1.33189321,   1.39483523
   2387,   1.19876087,   1.19248641
   2388,   1.07998526,   1.01538479
   2389,  0.974192441,  0.860216081
   2390,  0.880083382,  0.724125206
   2391,  0.796450496,  0.604651451
   2392,   0.72218436,  0.499671459
   2393,  0.656274974,  0.407350302
   2394,   0.59780848,  0.326099783
   2395,  0.545962632,  0.254542887
   2396,   3.50374627,   5.19889212
   2397,   3.20717525,     4.495399
   2398,     2.918823,   3.88140798
   2399,   2.64453435,   3.34759164
   2400,   2.38790917,   2.88448143
   2401,   2.15081882,   2.48308516
   2402,   1.93388081,   2.13519835
   2403,   1.73684847,   1.83352327
   2404,   1.55891526,   1.57167447
   2405,   1.39893758,    1.3441236
   2406,   1.25559354,   1.14611578
   2407,   1.12749255,  0.973577261
   2408,   1.01324737,  0.823024035
   2409,  0.911520541,  0.691477895
   2410,  0.821051002,  0.576391757
   2411,  0.740669012,  0.475584447
   2412,  0.669301927,  0.387185484
   2413,  0.605974197,  0.309587449
   2414,  0.549804449,  0.241406187
   2415,   3.65327621,   5.17951775
   2416,   3.35882974,   4.46040726
   2417,   3.06595182,   3.83488321
   2418,    2.7829423,   3.29337502
   2419,    2.5151813,   2.82589602
   2420,    2.2657876,   2.42284369
   2421,   2.03622317,   2.07541418
   2422,   1.82679212,    1.7757709
   2423,   1.63702822,   1.51707053
   2424,   1.46598196,   1.29341197
   2425,   1.31242633,   1.09974515
   2426,   1.17499983,  0.931769729
   2427,   1.05230236,  0.785832047
   2428,  0.942957699,  0.658830643
   2429,  0.845651507,  0.548132002
   2430,  0.759153664,  0.451497436
   2431,   0.68232888,  0.367020696
   2432,  0.614139855,  0.293075085
   2433,  0.553646207,  0.228269503
   2434,   3.80280614,   5.16014385
   2435,   3.51048398,   4.42541504
   2436,   3.21308064,   3.78835869
   2437,   2.92135048,   3.23915863
   2438,   2.64245343,   2.76731038
   2439,   2.38075638,   2.36260247
   2440,   2.13856554,   2.01563025
   2441,   1.91673589,   1.71801841
   2442,   1.71514118,   1.46246672
   2443,   1.53302622,   1.24270022
   2444,     1.369259,   1.05337453
   2445,   1.22250712,  0.889962196
   2446,   1.09135735,  0.748640001
   2447,  0.974394798,  0.626183331
   2448,  0.870252013,  0.519872248
   2449,  0.777638316,  0.427410454
   2450,  0.695355833,  0.346855879
   2451,  0.622305512,  0.276562721
   2452,  0.557487965,  0.215132803
   2453,   3.95233607,   5.14076948
   2454,   3.66213846,    4.3904233
   2455,   3.36020947,   3.74183393
   2456,   3.05975842,   3.18494201
   2457,   2.76972556,   2.70872498
   2458,   2.49572492,   2.30236101
   2459,   2.24090815,   1.95584607
   2460,   2.00667953,   1.66026592
   2461,   1.79325414,   1.40786278
   2462,    1.6000706,   1.19198859
   2463,   1.42609179,    1.0070039
   2464,   1.27001441,  0.848154724
   2465,   1.13041234,  0.711448014
   2466,   1.00583196,  0.593536019
   2467,  0.894852459,  0.491612524
   2468,  0.796122968,  0.403323442
   2469,  0.708382785,  0.326691061
   2470,   0.63047123,  0.260050356
   2471,  0.561329722,  0.201996103
   2472,   4.10186577,   5.12139511
   2473,   3.81379271,   4.35543108
   2474,   3.50733852,    3.6953094
   2475,   3.19816661,   3.13072562
   2476,   2.89699793,   2.65013957
   2477,   2.61069369,   2.24211955
   2478,   2.34325051,    1.8960619
   2479,   2.09662342,   1.60251355
   2480,    1.8713671,   1.35325885
   2481,   1.66711497,   1.14127696
   2482,   1.48292446,  0.960633337
   2483,   1.31752157,  0.806347191
   2484,   1.16946733,  0.674256027
   2485,   1.03726912,  0.560888767
   2486,  0.919452965,   0.46335277
   2487,   0.81460762,   0.37923643
   2488,  0.721409738,  0.306526244
   2489,  0.638636887,  0.243538007
   2490,   0.56517154,  0.188859418
   2491,    4.2513957,   5.10202074
   2492,   3.96544695,   4.32043934
   2493,   3.65446734,   3.64878488
   2494,   3.33657455,     3.076509
   2495,   3.02427006,   2.59155416
   2496,   2.72566223,   2.18187809
   2497,   2.44559288,   1.83627784
   2498,   2.18656707,   1.54476106
   2499,   1.94948018,   1.29865503
   2500,   1.73415923,   1.09056532
   2501,   1.53975725,  0.914262712
   2502,   1.36502886,  0.764539659
   2503,   1.20852232,   0.63706398
   2504,   1.06870627,  0.528241456
   2505,  0.944053471,  0.435093045
   2506,  0.833092272,  0.355149418
   2507,  0.734436691,  0.286361426
   2508,  0.646802545,  0.227025643
   2509,  0.569013298,  0.175722718
   2510,   4.40092564,   5.08264637
   2511,   4.11710119,   4.28544712
   2512,   3.80159616,   3.60226011
   2513,   3.47498274,   3.02229261
   2514,   3.15154219,   2.53296852
   2515,   2.84063101,   2.12163687
   2516,   2.54793525,   1.77649367
   2517,   2.27651095,   1.48700857
   2518,   2.02759314,    1.2440511
   2519,   1.80120361,   1.03985369
   2520,   1.59658992,  0.867892146
   2521,   1.41253614,  0.722732127
   2522,   1.24757731,  0.599871993
   2523,   1.10014343,  0.495594144
   2524,  0.968653977,  0.406833291
   2525,  0.851576865,  0.331062406
   2526,  0.747463644,  0.266196638
   2527,  0.654968262,  0.210513294
   2528,  0.572855055,  0.162586033
   2529,   4.55045557,     5.063272
   2530,   4.26875591,    4.2504549
   2531,   3.94872499,   3.55573559
   2532,   3.61339092,   2.96807623
   2533,   3.27881432,   2.47438312
   2534,   2.95559978,   2.06139541
   2535,   2.65027785,   1.71670961
   2536,    2.3664546,    1.4292562
   2537,   2.10570598,   1.18944716
   2538,   1.86824799,   0.98914206
   2539,   1.65342259,  0.821521521
   2540,   1.46004343,  0.680924594
   2541,    1.2866323,  0.562679946
   2542,   1.13158059,  0.462946862
   2543,  0.993254483,  0.378573567
   2544,  0.870061517,  0.306975394
   2545,  0.760490596,  0.246031821
   2546,  0.663133919,   0.19400093
   2547,  0.576696873,  0.149449334
   2548,    4.6999855,   5.04389763
   2549,   4.42041016,   4.21546316
   2550,   4.09585381,   3.50921082
   2551,   3.75179887,   2.91385961
   2552,   3.40608668,   2.41579771
   2553,   3.07056832,   2.00115395
   2554,   2.75262022,   1.65692544
   2555,   2.45639825,   1.37150371
   2556,   2.18381906,   1.13484323
   2557,   1.93529224,  0.938430429
   2558,   1.71025538,  0.775150895
   2559,   1.50755072,  0.639117062
   2560,   1.32568729,  0.525487959
   2561,   1.16301775,   0.43029955
   2562,   1.01785505,  0.350313812
   2563,  0.888546169,  0.282888383
   2564,  0.773517549,  0.225867003
   2565,  0.671299577,   0.17748858
   2566,   0.58053863,  0.136312649
   2567,   4.84951544,   5.02452374
   2568,    4.5720644,   4.18047094
   2569,   4.24298239,    3.4626863
   2570,   3.89020705,   2.85964322
   2571,   3.53335881,   2.35721207
   2572,    3.1855371,    1.9409126
   2573,   2.85496259,   1.59714139
   2574,   2.54634213,   1.31375122
   2575,    2.2619319,   1.08023942
   2576,    2.0023365,  0.887718797
   2577,   1.76708806,  0.728780329
   2578,     1.555058,  0.597309589
   2579,   1.36474228,  0.488295943
   2580,   1.19445491,  0.397652268
   2581,   1.04245555,  0.322054088
   2582,  0.907030821,  0.258801401
   2583,  0.786544502,  0.205702186
   2584,  0.679465294,  0.160976216
   2585,  0.584380388,  0.123175949
   2586,   4.99904537,   5.00514936
   2587,   4.72371864,    4.1454792
   2588,   4.39011145,   3.41616178
   2589,     4.028615,    2.8054266
   2590,   3.66063094,   2.29862666
   2591,   3.30050564,   1.88067114
   2592,   2.95730495,   1.53735733
   2593,   2.63628578,   1.25599873
   2594,   2.34004498,   1.02563548
   2595,     2.069381,  0.837007165
   2596,   1.82392085,  0.682409704
   2597,   1.60256517,  0.555502057
   2598,   1.40379715,  0.451103926
   2599,   1.22589207,  0.365004987
   2600,   1.06705606,  0.293794364
   2601,  0.925515473,  0.234714374
   2602,  0.799571455,  0.185537383
   2603,  0.687630951,  0.144463867
   2604,  0.588222206,  0.110039257
   2605,   5.14857531,   4.98577499
   2606,   4.87537289,   4.11048698
   2607,   4.53724051,   3.36963701
   2608,   4.16702318,   2.75121021
   2609,   3.78790331,   2.24004126
   2610,   3.41547441,    1.8204298
   2611,   3.05964756,   1.47757316
   2612,   2.72622967,   1.19824636
   2613,   2.41815805,  0.971031547
   2614,   2.13642526,  0.786295533
   2615,   1.88075352,  0.636039078
   2616,   1.65007246,  0.513694525
   2617,   1.44285214,  0.413911939
   2618,   1.25732923,  0.332357675
   2619,   1.09165657,   0.26553461
   2620,  0.944000125,  0.210627377
   2621,  0.812598467,  0.165372565
   2622,  0.695796609,  0.127951503
   2623,  0.592063963, 0.0969025567
   2624,   5.29810524,   4.96640062
   2625,   5.02702713,   4.07549524
   2626,   4.68436909,   3.32311249
   2627,   4.30543137,   2.69699359
   2628,   3.91517544,   2.18145561
   2629,   3.53044295,   1.76018834
   2630,   3.16198993,    1.4177891
   2631,   2.81617332,   1.14049387
   2632,    2.4962709,  0.916427672
   2633,   2.20346951,  0.735583901
   2634,   1.93758631,  0.589668512
   2635,   1.69757974,  0.471886992
   2636,   1.48190713,  0.376719922
   2637,   1.28876638,  0.299710393
   2638,   1.11625695,   0.23727487
   2639,  0.962484777,  0.186540365
   2640,   0.82562542,  0.145207763
   2641,  0.703962326,  0.111439146
   2642,  0.595905721, 0.0837658644
   2643,    5.4476347,   4.94702625
   2644,   5.17868185,   4.04050303
   2645,   4.83149815,   3.27658772
   2646,   4.44383955,    2.6427772
   2647,   4.04244757,   2.12287021
   2648,   3.64541173,     1.699947
   2649,   3.26433229,   1.35800493
   2650,   2.90611696,   1.08274138
   2651,   2.57438397,  0.861823738
   2652,   2.27051401,   0.68487221
   2653,   1.99441898,  0.543297887
   2654,   1.74508703,   0.43007949
   2655,   1.52096212,  0.339527905
   2656,   1.32020354,  0.267063081
   2657,   1.14085746,  0.209015131
   2658,  0.980969429,  0.162453353
   2659,  0.838652372,  0.125042945
   2660,  0.712127984, 0.0949267894
   2661,  0.599747479,  0.070629172
   2662,   5.59716463,   4.92765188
   2663,   5.33033609,   4.00551128
   2664,   4.97862673,    3.2300632
   2665,   4.58224726,   2.58856058
   2666,    4.1697197,    2.0642848
   2667,   3.76038051,   1.63970554
   2668,   3.36667466,   1.29822087
   2669,   2.99606085,   1.02498901
   2670,   2.65249681,  0.807219863
   2671,   2.33755827,  0.634160578
   2672,   2.05125165,  0.496927291
   2673,   1.79259431,  0.388271958
   2674,   1.56001711,  0.302335888
   2675,    1.3516407,  0.234415799
   2676,   1.16545796,  0.180755407
   2677,  0.999454021,  0.138366342
   2678,  0.851679325,  0.104878135
   2679,  0.720293701, 0.0784144327
   2680,  0.603589296, 0.0574924797
   2681,   5.74669456,   4.90827751
   2682,   5.48199034,    3.9705193
   2683,   5.12575579,   3.18353868
   2684,   4.72065544,    2.5343442
   2685,   4.29699183,   2.00569916
   2686,   3.87534904,    1.5794642
   2687,   3.46901703,    1.2384367
   2688,    3.0860045,  0.967236519
   2689,   2.73060989,  0.752615929
   2690,   2.40460253,  0.583448946
   2691,   2.10808444,  0.450556666
   2692,    1.8401016,  0.346464425
   2693,    1.5990721,  0.265143871
   2694,   1.38307774,  0.201768503
   2695,   1.19005847,  0.152495667
   2696,   1.01793873,  0.114279337
   2697,  0.864706278, 0.0847133249
   2698,  0.728459358, 0.0619020797
   2699,  0.607431054, 0.0443557873
   2700, -0.607431054, 0.0443557873
   2701, -0.603589296, 0.0574924797
   2702, -0.599747479,  0.070629172
   2703, -0.595905721, 0.0837658644
   2704, -0.592063963, 0.0969025567
   2705, -0.588222206,  0.110039257
   2706, -0.584380388,  0.123175949
   2707,  -0.58053863,  0.136312649
   2708, -0.576696873,  0.149449334
   2709, -0.572855055,  0.162586033
   2710, -0.569013298,  0.175722718
   2711,  -0.56517154,  0.188859418
   2712, -0.561329722,  0.201996103
   2713, -0.557487965,  0.215132803
   2714, -0.553646207,  0.228269503
   2715, -0.549804449,  0.241406187
   2716, -0.545962632,  0.254542887
   2717, -0.542120874,  0.267679572
   2718, -0.538279116,  0.280816287
   2719, -0.728459358, 0.0619020797
   2720, -0.720293701, 0.0784144327
   2721, -0.712127984, 0.0949267894
   2722, -0.703962326,  0.111439146
   2723, -0.695796609,  0.127951503
   2724, -0.687630951,  0.144463867
   2725, -0.679465294,  0.160976216
   2726, -0.671299577,   0.17748858
   2727, -0.663133919,   0.19400093
   2728, -0.654968262,  0.210513294
   2729, -0.646802545,  0.227025643
   2730, -0.638636887,  0.243538007
   2731,  -0.63047123,  0.260050356
   2732, -0.622305512,  0.276562721
   2733, -0.614139855,  0.293075085
   2734, -0.605974197,  0.309587449
   2735,  -0.59780848,  0.326099783
   2736, -0.589642823,  0.342612147
   2737, -0.581477165,  0.359124511
   2738, -0.864706278, 0.0847133249
   2739, -0.851679325,  0.104878135
   2740, -0.838652372,  0.125042945
   2741,  -0.82562542,  0.145207763
   2742, -0.812598467,  0.165372565
   2743, -0.799571455,  0.185537383
   2744, -0.786544502,  0.205702186
   2745, -0.773517549,  0.225867003
   2746, -0.760490596,  0.246031821
   2747, -0.747463644,  0.266196638
   2748, -0.734436691,  0.286361426
   2749, -0.721409738,  0.306526244
   2750, -0.708382785,  0.326691061
   2751, -0.695355833,  0.346855879
   2752,  -0.68232888,  0.367020696
   2753, -0.669301927,  0.387185484
   2754, -0.656274974,  0.407350302
   2755, -0.643248022,  0.427515119
   2756, -0.630221069,  0.447679937
   2757,  -1.01793873,  0.114279337
   2758, -0.999454021,  0.138366342
   2759, -0.980969429,  0.162453353
   2760, -0.962484777,  0.186540365
   2761, -0.944000125,  0.210627377
   2762, -0.925515473,  0.234714374
   2763, -0.907030821,  0.258801401
   2764, -0.888546169,  0.282888383
   2765, -0.870061517,  0.306975394
   2766, -0.851576865,  0.331062406
   2767, -0.833092272,  0.355149418
   2768,  -0.81460762,   0.37923643
   2769, -0.796122968,  0.403323442
   2770, -0.777638316,  0.427410454
   2771, -0.759153664,  0.451497436
   2772, -0.740669012,  0.475584447
   2773,  -0.72218436,  0.499671459
   2774, -0.703699708,  0.523758471
   2775, -0.685215116,  0.547845483
   2776,  -1.19005847,  0.152495667
   2777,  -1.16545796,  0.180755407
   2778,  -1.14085746,  0.209015131
   2779,  -1.11625695,   0.23727487
   2780,  -1.09165657,   0.26553461
   2781,  -1.06705606,  0.293794364
   2782,  -1.04245555,  0.322054088
   2783,  -1.01785505,  0.350313812
   2784, -0.993254483,  0.378573567
   2785, -0.968653977,  0.406833291
   2786, -0.944053471,  0.435093045
   2787, -0.919452965,   0.46335277
   2788, -0.894852459,  0.491612524
   2789, -0.870252013,  0.519872248
   2790, -0.845651507,  0.548132002
   2791, -0.821051002,  0.576391757
   2792, -0.796450496,  0.604651451
   2793,  -0.77184999,  0.632911205
   2794, -0.747249484,  0.661170959
   2795,  -1.38307774,  0.201768503
   2796,   -1.3516407,  0.234415799
   2797,  -1.32020354,  0.267063081
   2798,  -1.28876638,  0.299710393
   2799,  -1.25732923,  0.332357675
   2800,  -1.22589207,  0.365004987
   2801,  -1.19445491,  0.397652268
   2802,  -1.16301775,   0.43029955
   2803,  -1.13158059,  0.462946862
   2804,  -1.10014343,  0.495594144
   2805,  -1.06870627,  0.528241456
   2806,  -1.03726912,  0.560888767
   2807,  -1.00583196,  0.593536019
   2808, -0.974394798,  0.626183331
   2809, -0.942957699,  0.658830643
   2810, -0.911520541,  0.691477895
   2811, -0.880083382,  0.724125206
   2812, -0.848646224,  0.756772518
   2813, -0.817209065,   0.78941977
   2814,   -1.5990721,  0.265143871
   2815,  -1.56001711,  0.302335888
   2816,  -1.52096212,  0.339527905
   2817,  -1.48190713,  0.376719922
   2818,  -1.44285214,  0.413911939
   2819,  -1.40379715,  0.451103926
   2820,  -1.36474228,  0.488295943
   2821,  -1.32568729,  0.525487959
   2822,   -1.2866323,  0.562679946
   2823,  -1.24757731,  0.599871993
   2824,  -1.20852232,   0.63706398
   2825,  -1.16946733,  0.674256027
   2826,  -1.13041234,  0.711448014
   2827,  -1.09135735,  0.748640001
   2828,  -1.05230236,  0.785832047
   2829,  -1.01324737,  0.823024035
   2830, -0.974192441,  0.860216081
   2831, -0.935137451,  0.897408068
   2832, -0.896082461,  0.934600115
   2833,   -1.8401016,  0.346464425
   2834,  -1.79259431,  0.388271958
   2835,  -1.74508703,   0.43007949
   2836,  -1.69757974,  0.471886992
   2837,  -1.65007246,  0.513694525
   2838,  -1.60256517,  0.555502057
   2839,    -1.555058,  0.597309589
   2840,  -1.50755072,  0.639117062
   2841,  -1.46004343,  0.680924594
   2842,  -1.41253614,  0.722732127
   2843,  -1.36502886,  0.764539659
   2844,  -1.31752157,  0.806347191
   2845,  -1.27001441,  0.848154724
   2846,  -1.22250712,  0.889962196
   2847,  -1.17499983,  0.931769729
   2848,  -1.12749255,  0.973577261
   2849,  -1.07998526,   1.01538479
   2850,  -1.03247797,   1.05719233
   2851, -0.984970748,   1.09899986
   2852,  -2.10808444,  0.450556666
   2853,  -2.05125165,  0.496927291
   2854,  -1.99441898,  0.543297887
   2855,  -1.93758631,  0.589668512
   2856,  -1.88075352,  0.636039078
   2857,  -1.82392085,  0.682409704
   2858,  -1.76708806,  0.728780329
   2859,  -1.71025538,  0.775150895
   2860,  -1.65342259,  0.821521521
   2861,  -1.59658992,  0.867892146
   2862,  -1.53975725,  0.914262712
   2863,  -1.48292446,  0.960633337
   2864,  -1.42609179,    1.0070039
   2865,    -1.369259,   1.05337453
   2866,  -1.31242633,   1.09974515
   2867,  -1.25559354,   1.14611578
   2868,  -1.19876087,   1.19248641
   2869,  -1.14192808,   1.23885703
   2870,  -1.08509541,   1.28522754
   2871,  -2.40460253,  0.583448946
   2872,  -2.33755827,  0.634160578
   2873,  -2.27051401,   0.68487221
   2874,  -2.20346951,  0.735583901
   2875,  -2.13642526,  0.786295533
   2876,    -2.069381,  0.837007165
   2877,   -2.0023365,  0.887718797
   2878,  -1.93529224,  0.938430429
   2879,  -1.86824799,   0.98914206
   2880,  -1.80120361,   1.03985369
   2881,  -1.73415923,   1.09056532
   2882,  -1.66711497,   1.14127696
   2883,   -1.6000706,   1.19198859
   2884,  -1.53302622,   1.24270022
   2885,  -1.46598196,   1.29341197
   2886,  -1.39893758,    1.3441236
   2887,  -1.33189321,   1.39483523
   2888,  -1.26484895,   1.44554687
   2889,  -1.19780457,    1.4962585
   2890,  -2.73060989,  0.752615929
   2891,  -2.65249681,  0.807219863
   2892,  -2.57438397,  0.861823738
   2893,   -2.4962709,  0.916427672
   2894,  -2.41815805,  0.971031547
   2895,  -2.34004498,   1.02563548
   2896,   -2.2619319,   1.08023942
   2897,  -2.18381906,   1.13484323
   2898,  -2.10570598,   1.18944716
   2899,  -2.02759314,    1.2440511
   2900,  -1.94948018,   1.29865503
   2901,   -1.8713671,   1.35325885
   2902,  -1.79325414,   1.40786278
   2903,  -1.71514118,   1.46246672
   2904,  -1.63702822,   1.51707053
   2905,  -1.55891526,   1.57167447
   2906,   -1.4808023,    1.6262784
   2907,  -1.40268934,   1.68088233
   2908,  -1.32457638,   1.73548615
   2909,   -3.0860045,  0.967236519
   2910,  -2.99606085,   1.02498901
   2911,  -2.90611696,   1.08274138
   2912,  -2.81617332,   1.14049387
   2913,  -2.72622967,   1.19824636
   2914,  -2.63628578,   1.25599873
   2915,  -2.54634213,   1.31375122
   2916,  -2.45639825,   1.37150371
   2917,   -2.3664546,    1.4292562
   2918,  -2.27651095,   1.48700857
   2919,  -2.18656707,   1.54476106
   2920,  -2.09662342,   1.60251355
   2921,  -2.00667953,   1.66026592
   2922,  -1.91673589,   1.71801841
   2923,  -1.82679212,    1.7757709
   2924,  -1.73684847,   1.83352327
   2925,  -1.64690471,   1.89127576
   2926,  -1.55696094,   1.94902825
   2927,  -1.46701717,   2.00678062
   2928,  -3.46901703,    1.2384367
   2929,  -3.36667466,   1.29822087
   2930,  -3.26433229,   1.35800493
   2931,  -3.16198993,    1.4177891
   2932,  -3.05964756,   1.47757316
   2933,  -2.95730495,   1.53735733
   2934,  -2.85496259,   1.59714139
   2935,  -2.75262022,   1.65692544
   2936,  -2.65027785,   1.71670961
   2937,  -2.54793525,   1.77649367
   2938,  -2.44559288,   1.83627784
   2939,  -2.34325051,    1.8960619
   2940,  -2.24090815,   1.95584607
   2941,  -2.13856554,   2.01563025
   2942,  -2.03622317,   2.07541418
   2943,  -1.93388081,   2.13519835
   2944,  -1.83153832,   2.19498253
   2945,  -1.72919595,    2.2547667
   2946,  -1.62685347,   2.31455064
   2947,  -3.87534904,    1.5794642
   2948,  -3.76038051,   1.63970554
   2949,  -3.64541173,     1.699947
   2950,  -3.53044295,   1.76018834
   2951,  -3.41547441,    1.8204298
   2952,  -3.30050564,   1.88067114
   2953,   -3.1855371,    1.9409126
   2954,  -3.07056832,   2.00115395
   2955,  -2.95559978,   2.06139541
   2956,  -2.84063101,   2.12163687
   2957,  -2.72566223,   2.18187809
   2958,  -2.61069369,   2.24211955
   2959,  -2.49572492,   2.30236101
   2960,  -2.38075638,   2.36260247
   2961,   -2.2657876,   2.42284369
   2962,  -2.15081882,   2.48308516
   2963,  -2.03585029,   2.54332662
   2964,  -1.92088163,   2.60356808
   2965,  -1.80591297,    2.6638093
   2966,  -4.29699183,   2.00569916
   2967,   -4.1697197,    2.0642848
   2968,  -4.04244757,   2.12287021
   2969,  -3.91517544,   2.18145561
   2970,  -3.78790331,   2.24004126
   2971,  -3.66063094,   2.29862666
   2972,  -3.53335881,   2.35721207
   2973,  -3.40608668,   2.41579771
   2974,  -3.27881432,   2.47438312
   2975,  -3.15154219,   2.53296852
   2976,  -3.02427006,   2.59155416
   2977,  -2.89699793,   2.65013957
   2978,  -2.76972556,   2.70872498
   2979,  -2.64245343,   2.76731038
   2980,   -2.5151813,   2.82589602
   2981,  -2.38790917,   2.88448143
   2982,  -2.26063681,   2.94306684
   2983,  -2.13336468,   3.00165248
   2984,  -2.00609255,   3.06023788
   2985,  -4.72065544,    2.5343442
   2986,  -4.58224726,   2.58856058
   2987,  -4.44383955,    2.6427772
   2988,  -4.30543137,   2.69699359
   2989,  -4.16702318,   2.75121021
   2990,    -4.028615,    2.8054266
   2991,  -3.89020705,   2.85964322
   2992,  -3.75179887,   2.91385961
   2993,  -3.61339092,   2.96807623
   2994,  -3.47498274,   3.02229261
   2995,  -3.33657455,     3.076509
   2996,  -3.19816661,   3.13072562
   2997,  -3.05975842,   3.18494201
   2998,  -2.92135048,   3.23915863
   2999,   -2.7829423,   3.29337502
   3000,  -2.64453435,   3.34759164
   3001,  -2.50612617,   3.40180802
   3002,  -2.36771798,   3.45602465
   3003,  -2.22931004,   3.51024103
   3004,  -5.12575579,   3.18353868
   3005,  -4.97862673,    3.2300632
   3006,  -4.83149815,   3.27658772
   3007,  -4.68436909,   3.32311249
   3008,  -4.53724051,   3.36963701
   3009,  -4.39011145,   3.41616178
   3010,  -4.24298239,    3.4626863
   3011,  -4.09585381,   3.50921082
   3012,  -3.94872499,   3.55573559
   3013,  -3.80159616,   3.60226011
   3014,  -3.65446734,   3.64878488
   3015,  -3.50733852,    3.6953094
   3016,  -3.36020947,   3.74183393
   3017,  -3.21308064,   3.78835869
   3018,  -3.06595182,   3.83488321
   3019,    -2.918823,   3.88140798
   3020,  -2.77169418,    3.9279325
   3021,  -2.62456536,   3.97445726
   3022,  -2.47743654,   4.02098179
   3023,  -5.48199034,    3.9705193
   3024,  -5.33033609,   4.00551128
   3025,  -5.17868185,   4.04050303
   3026,  -5.02702713,   4.07549524
   3027,  -4.87537289,   4.11048698
   3028,  -4.72371864,    4.1454792
   3029,   -4.5720644,   4.18047094
   3030,  -4.42041016,   4.21546316
   3031,  -4.26875591,    4.2504549
   3032,  -4.11710119,   4.28544712
   3033,  -3.96544695,   4.32043934
   3034,  -3.81379271,   4.35543108
   3035,  -3.66213846,    4.3904233
   3036,  -3.51048398,   4.42541504
   3037,  -3.35882974,   4.46040726
   3038,  -3.20717525,     4.495399
   3039,  -3.05552101,   4.53039122
   3040,  -2.90386677,   4.56538296
   3041,  -2.75221229,   4.60037518
   3042,  -5.74669456,   4.90827751
   3043,  -5.59716463,   4.92765188
   3044,   -5.4476347,   4.94702625
   3045,  -5.29810524,   4.96640062
   3046,  -5.14857531,   4.98577499
   3047,  -4.99904537,   5.00514936
   3048,  -4.84951544,   5.02452374
   3049,   -4.6999855,   5.04389763
   3050,  -4.55045557,     5.063272
   3051,  -4.40092564,   5.08264637
   3052,   -4.2513957,   5.10202074
   3053,  -4.10186577,   5.12139511
   3054,  -3.95233607,   5.14076948
   3055,  -3.80280614,   5.16014385
   3056,  -3.65327621,   5.17951775
   3057,  -3.50374627,   5.19889212
   3058,  -3.35421658,   5.21826649
   3059,  -3.20468664,   5.23764086
   3060,  -3.05515671,   5.25701523
   3061,  -0.49002403,  0.210702702
   3062, -0.490023941,  0.200668007
   3063, -0.490023881,  0.190633327
   3064, -0.490023792,  0.180598632
   3065, -0.490023702,  0.170563951
   3066, -0.490023643,  0.160529271
   3067, -0.490023553,  0.150494576
   3068, -0.490023464,  0.140459895
   3069, -0.490023404,    0.1304252
   3070, -0.490023315,  0.120390519
   3071, -0.490023226,  0.110355832
   3072, -0.490023166,  0.100321144
   3073, -0.490023077,  0.090286456
   3074, -0.490022987, 0.0802517682
   3075, -0.490022928, 0.0702170879
   3076, -0.490022838,    0.0601824
   3077, -0.490022749, 0.0501477122
   3078, -0.490022689, 0.0401130244
   3079,   -0.4900226, 0.0300783385
   3080,   -0.4800466,  0.209866792
   3081, -0.480046451,  0.199833497
   3082, -0.480046302,  0.189800218
   3083, -0.480046123,  0.179766923
   3084, -0.480045974,  0.169733644
   3085, -0.480045825,  0.159700349
   3086, -0.480045676,  0.149667069
   3087, -0.480045527,  0.139633775
   3088, -0.480045378,  0.129600495
   3089, -0.480045229,  0.119567201
   3090,  -0.48004505,  0.109533913
   3091, -0.480044901, 0.0995006263
   3092, -0.480044752, 0.0894673392
   3093, -0.480044603, 0.0794340521
   3094, -0.480044454,  0.069400765
   3095, -0.480044305, 0.0593674742
   3096, -0.480044127, 0.0493341871
   3097, -0.480043977,    0.0393009
   3098, -0.480043828, 0.0292676128
   3099, -0.470067739,  0.209048077
   3100, -0.470067531,  0.199016154
   3101, -0.470067292,  0.188984245
   3102, -0.470067084,  0.178952321
   3103, -0.470066845,  0.168920413
   3104, -0.470066637,  0.158888489
   3105, -0.470066398,   0.14885658
   3106,  -0.47006619,  0.138824657
   3107, -0.470065951,  0.128792733
   3108, -0.470065743,  0.118760824
   3109, -0.470065504,  0.108728908
   3110, -0.470065296, 0.0986969844
   3111, -0.470065057, 0.0886650681
   3112, -0.470064849, 0.0786331519
   3113,  -0.47006461, 0.0686012357
   3114, -0.470064402, 0.0585693195
   3115, -0.470064163, 0.0485373996
   3116, -0.470063955, 0.0385054834
   3117, -0.470063716, 0.0284735654
   3118, -0.460087478,  0.208246559
   3119,  -0.46008721,  0.198215991
   3120, -0.460086912,  0.188185409
   3121, -0.460086614,  0.178154841
   3122, -0.460086346,  0.168124259
   3123, -0.460086048,  0.158093691
   3124,  -0.46008575,  0.148063108
   3125, -0.460085481,  0.138032541
   3126, -0.460085183,  0.128001958
   3127, -0.460084885,  0.117971383
   3128, -0.460084617,  0.107940808
   3129, -0.460084319, 0.0979102328
   3130, -0.460084021, 0.0878796577
   3131, -0.460083753, 0.0778490826
   3132, -0.460083455, 0.0678185076
   3133, -0.460083157, 0.0577879287
   3134, -0.460082889, 0.0477573536
   3135, -0.460082591, 0.0377267785
   3136, -0.460082293, 0.0276962034
   3137, -0.450105876,  0.207462251
   3138, -0.450105518,  0.197432995
   3139,  -0.45010519,  0.187403724
   3140, -0.450104833,  0.177374467
   3141, -0.450104475,  0.167345196
   3142, -0.450104117,   0.15731594
   3143,  -0.45010379,  0.147286683
   3144, -0.450103432,  0.137257412
   3145, -0.450103074,  0.127228156
   3146, -0.450102746,  0.117198892
   3147, -0.450102389,  0.107169628
   3148, -0.450102031, 0.0971403643
   3149, -0.450101674, 0.0871111006
   3150, -0.450101346, 0.0770818368
   3151, -0.450100988,  0.067052573
   3152, -0.450100631, 0.0570233129
   3153, -0.450100303, 0.0469940491
   3154, -0.450099945,  0.036964789
   3155, -0.450099587, 0.0269355252
   3156, -0.440122932,  0.206695139
   3157, -0.440122515,  0.196667165
   3158, -0.440122098,   0.18663919
   3159,  -0.44012171,  0.176611215
   3160, -0.440121293,  0.166583225
   3161, -0.440120906,   0.15655525
   3162, -0.440120488,  0.146527275
   3163, -0.440120071,  0.136499301
   3164, -0.440119684,  0.126471311
   3165, -0.440119267,  0.116443336
   3166, -0.440118879,  0.106415361
   3167, -0.440118462, 0.0963873789
   3168, -0.440118045,  0.086359404
   3169, -0.440117657, 0.0763314217
   3170,  -0.44011724, 0.0663034469
   3171, -0.440116853, 0.0562754683
   3172, -0.440116435, 0.0462474898
   3173, -0.440116018, 0.0362195112
   3174, -0.440115631, 0.0261915345
   3175, -0.430138648,  0.205945238
   3176, -0.430138201,  0.195918515
   3177, -0.430137753,  0.185891792
   3178, -0.430137277,  0.175865069
   3179,  -0.43013683,  0.165838346
   3180, -0.430136383,  0.155811623
   3181, -0.430135906,    0.1457849
   3182, -0.430135459,  0.135758176
   3183, -0.430135012,  0.125731453
   3184, -0.430134535,  0.115704738
   3185, -0.430134088,  0.105678014
   3186, -0.430133641, 0.0956512913
   3187, -0.430133164, 0.0856245682
   3188, -0.430132717,  0.075597845
   3189,  -0.43013227, 0.0655711219
   3190, -0.430131793, 0.0555443987
   3191, -0.430131346, 0.0455176756
   3192, -0.430130899, 0.0354909562
   3193, -0.430130422, 0.0254642311
   3194, -0.420153111,  0.205212548
   3195, -0.420152605,  0.195187047
   3196, -0.420152098,  0.185161546
   3197, -0.420151591,   0.17513606
   3198, -0.420151114,  0.165110558
   3199, -0.420150608,  0.155085072
   3200, -0.420150101,  0.145059571
   3201, -0.420149595,  0.135034069
   3202, -0.420149088,  0.125008583
   3203, -0.420148581,  0.114983082
   3204, -0.420148075,  0.104957588
   3205, -0.420147568, 0.0949320942
   3206, -0.420147061,  0.084906593
   3207, -0.420146555, 0.0748810992
   3208, -0.420146048, 0.0648556054
   3209, -0.420145541, 0.0548301078
   3210, -0.420145035,  0.044804614
   3211, -0.420144528, 0.0347791165
   3212, -0.420144022, 0.0247536208
   3213, -0.410166323,  0.204497054
   3214, -0.410165787,   0.19447276
   3215,  -0.41016525,  0.184448466
   3216, -0.410164684,  0.174424171
   3217, -0.410164148,  0.164399862
   3218, -0.410163581,  0.154375568
   3219, -0.410163045,  0.144351274
   3220, -0.410162479,   0.13432698
   3221, -0.410161942,  0.124302678
   3222, -0.410161406,  0.114278384
   3223,  -0.41016084,  0.104254082
   3224, -0.410160303, 0.0942297876
   3225, -0.410159737, 0.0842054859
   3226,   -0.4101592, 0.0741811916
   3227, -0.410158664, 0.0641568899
   3228, -0.410158098, 0.0541325957
   3229, -0.410157561, 0.0441082977
   3230, -0.410156995, 0.0340839997
   3231, -0.410156459, 0.0240597036
   3232, -0.400178313,  0.203798786
   3233, -0.400177747,  0.193775654
   3234, -0.400177151,  0.183752537
   3235, -0.400176555,  0.173729405
   3236, -0.400175989,  0.163706273
   3237, -0.400175393,  0.153683141
   3238, -0.400174797,  0.143660024
   3239, -0.400174201,  0.133636892
   3240, -0.400173634,   0.12361376
   3241, -0.400173038,  0.113590635
   3242, -0.400172442,  0.103567503
   3243, -0.400171846, 0.0935443789
   3244,  -0.40017128, 0.0835212469
   3245, -0.400170684, 0.0734981224
   3246, -0.400170088, 0.0634749904
   3247, -0.400169492, 0.0534518659
   3248, -0.400168926, 0.0434287377
   3249, -0.400168329, 0.0334056094
   3250, -0.400167733, 0.0233824793
   3251, -0.390189141,  0.203117728
   3252, -0.390188515,  0.193095744
   3253, -0.390187889,  0.183073759
   3254, -0.390187263,   0.17305176
   3255, -0.390186638,  0.163029775
   3256, -0.390186012,   0.15300779
   3257, -0.390185386,  0.142985806
   3258,  -0.39018476,  0.132963821
   3259, -0.390184134,  0.122941829
   3260, -0.390183508,  0.112919845
   3261, -0.390182883,  0.102897853
   3262, -0.390182257, 0.0928758681
   3263, -0.390181661, 0.0828538761
   3264, -0.390181035, 0.0728318915
   3265, -0.390180409, 0.0628099069
   3266, -0.390179783, 0.0527879149
   3267, -0.390179157, 0.0427659303
   3268, -0.390178531,  0.032743942
   3269, -0.390177906, 0.0227219537
   3270, -0.380198777,  0.202453882
   3271, -0.380198121,  0.192433015
   3272, -0.380197465,  0.182412133
   3273,  -0.38019681,  0.172391266
   3274, -0.380196154,  0.162370384
   3275, -0.380195498,  0.152349502
   3276, -0.380194843,  0.142328635
   3277, -0.380194187,  0.132307753
   3278, -0.380193532,  0.122286879
   3279, -0.380192876,  0.112266004
   3280,  -0.38019222,   0.10224513
   3281, -0.380191565, 0.0922242552
   3282, -0.380190909, 0.0822033808
   3283, -0.380190253, 0.0721825063
   3284, -0.380189598, 0.0621616282
   3285, -0.380188942, 0.0521407537
   3286, -0.380188286, 0.0421198793
   3287, -0.380187631, 0.0320990011
   3288, -0.380186975, 0.0220781267
   3289,  -0.37020731,  0.201807261
   3290, -0.370206624,  0.191787466
   3291, -0.370205939,  0.181767672
   3292, -0.370205253,  0.171747878
   3293, -0.370204568,  0.161728099
   3294, -0.370203882,  0.151708305
   3295, -0.370203197,  0.141688511
   3296, -0.370202512,  0.131668717
   3297, -0.370201826,  0.121648923
   3298, -0.370201141,  0.111629128
   3299, -0.370200455,  0.101609342
   3300,  -0.37019977, 0.0915895477
   3301, -0.370199084, 0.0815697536
   3302, -0.370198399, 0.0715499595
   3303, -0.370197713, 0.0615301691
   3304, -0.370197028, 0.0515103787
   3305, -0.370196372, 0.0414905846
   3306, -0.370195687, 0.0314707942
   3307, -0.370195001, 0.0214510001
   3308,  -0.36021471,  0.201177865
   3309, -0.360213995,  0.191159114
   3310,  -0.36021331,  0.181140378
   3311, -0.360212594,  0.171121642
   3312, -0.360211879,  0.161102906
   3313, -0.360211164,   0.15108417
   3314, -0.360210478,  0.141065434
   3315, -0.360209763,  0.131046697
   3316, -0.360209048,  0.121027954
   3317, -0.360208333,  0.111009218
   3318, -0.360207647,  0.100990482
   3319, -0.360206932, 0.0909717381
   3320, -0.360206217,  0.080953002
   3321, -0.360205501, 0.0709342659
   3322, -0.360204816,  0.060915526
   3323, -0.360204101, 0.0508967899
   3324, -0.360203385, 0.0408780538
   3325,  -0.36020267, 0.0308593139
   3326, -0.360201955, 0.0208405759
   3327, -0.350221068,  0.200565681
   3328, -0.350220323,  0.190547958
   3329, -0.350219607,   0.18053025
   3330, -0.350218862,  0.170512542
   3331, -0.350218147,  0.160494834
   3332, -0.350217432,  0.150477111
   3333, -0.350216687,  0.140459403
   3334, -0.350215971,  0.130441695
   3335, -0.350215226,   0.12042398
   3336, -0.350214511,  0.110406265
   3337, -0.350213766,  0.100388557
   3338, -0.350213051, 0.0903708413
   3339, -0.350212306, 0.0803531259
   3340, -0.350211591,  0.070335418
   3341, -0.350210845, 0.0603177063
   3342,  -0.35021013, 0.0502999946
   3343, -0.350209385, 0.0402822793
   3344,  -0.35020867, 0.0302645676
   3345, -0.350207925, 0.0202468559
   3346, -0.340226382,  0.199970722
   3347, -0.340225637,  0.189953998
   3348, -0.340224892,  0.179937288
   3349, -0.340224117,  0.169920579
   3350, -0.340223372,  0.159903854
   3351, -0.340222627,  0.149887145
   3352, -0.340221882,   0.13987042
   3353, -0.340221137,  0.129853711
   3354, -0.340220392,  0.119836994
   3355, -0.340219647,  0.109820284
   3356, -0.340218902, 0.0998035669
   3357, -0.340218157, 0.0897868499
   3358, -0.340217412, 0.0797701329
   3359, -0.340216666, 0.0697534159
   3360, -0.340215921, 0.0597367026
   3361, -0.340215176, 0.0497199893
   3362, -0.340214431, 0.0397032723
   3363, -0.340213686, 0.0296865571
   3364, -0.340212941,  0.019669842
   3365, -0.330230683,  0.199392989
   3366, -0.330229908,  0.189377233
   3367, -0.330229133,  0.179361492
   3368, -0.330228388,  0.169345751
   3369, -0.330227613,  0.159329996
   3370, -0.330226868,  0.149314255
   3371, -0.330226094,  0.139298499
   3372, -0.330225348,  0.129282758
   3373, -0.330224574,  0.119267009
   3374, -0.330223829,  0.109251261
   3375, -0.330223054, 0.0992355123
   3376, -0.330222309, 0.0892197639
   3377, -0.330221534, 0.0792040154
   3378, -0.330220789, 0.0691882744
   3379, -0.330220014, 0.0591725223
   3380, -0.330219269, 0.0491567776
   3381, -0.330218494, 0.0391410291
   3382, -0.330217749, 0.0291252825
   3383, -0.330216974, 0.0191095341
   3384, -0.320233971,  0.198832482
   3385, -0.320233226,   0.18881768
   3386, -0.320232451,  0.178802863
   3387, -0.320231676,  0.168788061
   3388, -0.320230901,  0.158773243
   3389, -0.320230126,  0.148758441
   3390, -0.320229352,  0.138743639
   3391, -0.320228577,  0.128728822
   3392, -0.320227802,   0.11871402
   3393, -0.320227027,   0.10869921
   3394, -0.320226282, 0.0986844003
   3395, -0.320225507, 0.0886695907
   3396, -0.320224732, 0.0786547884
   3397, -0.320223957, 0.0686399788
   3398, -0.320223182, 0.0586251691
   3399, -0.320222408, 0.0486103594
   3400, -0.320221633, 0.0385955535
   3401, -0.320220858, 0.0285807438
   3402, -0.320220083,  0.018565936
   3403, -0.310236365,  0.198289201
   3404,  -0.31023556,  0.188275307
   3405, -0.310234785,  0.178261414
   3406,  -0.31023401,  0.168247521
   3407, -0.310233235,  0.158233613
   3408,  -0.31023246,   0.14821972
   3409, -0.310231686,  0.138205826
   3410, -0.310230881,  0.128191918
   3411, -0.310230106,  0.118178025
   3412, -0.310229331,  0.108164124
   3413, -0.310228556, 0.0981502309
   3414, -0.310227782, 0.0881363302
   3415, -0.310227007,  0.078122437
   3416, -0.310226202, 0.0681085363
   3417, -0.310225427, 0.0580946393
   3418, -0.310224652, 0.0480807424
   3419, -0.310223877, 0.0380668454
   3420, -0.310223103, 0.0280529466
   3421, -0.310222328, 0.0180390477
   3422, -0.300237805,   0.19776316
   3423,    -0.300237,  0.187750146
   3424, -0.300236225,  0.177737132
   3425,  -0.30023545,  0.167724118
   3426, -0.300234646,  0.157711104
   3427, -0.300233871,  0.147698075
   3428, -0.300233096,  0.137685061
   3429, -0.300232291,  0.127672046
   3430, -0.300231516,  0.117659032
   3431, -0.300230742,  0.107646018
   3432, -0.300229937, 0.0976330042
   3433, -0.300229162, 0.0876199827
   3434, -0.300228387, 0.0776069686
   3435, -0.300227612, 0.0675939545
   3436, -0.300226808, 0.0575809367
   3437, -0.300226033, 0.0475679189
   3438, -0.300225258, 0.0375549048
   3439, -0.300224453, 0.0275418889
   3440, -0.300223678, 0.0175288729
   3441, -0.290238351,  0.197254345
   3442, -0.290237546,   0.18724218
   3443, -0.290236771,   0.17723003
   3444, -0.290235996,  0.167217866
   3445, -0.290235192,  0.157205701
   3446, -0.290234417,  0.147193536
   3447, -0.290233642,  0.137181371
   3448, -0.290232837,  0.127169207
   3449, -0.290232062,  0.117157042
   3450, -0.290231258,  0.107144877
   3451, -0.290230483, 0.0971327201
   3452, -0.290229708, 0.0871205553
   3453, -0.290228903, 0.0771083906
   3454, -0.290228128, 0.0670962259
   3455, -0.290227354, 0.0570840612
   3456, -0.290226549, 0.0470719002
   3457, -0.290225774, 0.0370597355
   3458, -0.290224969, 0.0270475727
   3459, -0.290224195, 0.0170354098
   3460, -0.280238032,   0.19676277
   3461, -0.280237257,  0.186751425
   3462, -0.280236453,  0.176740095
   3463, -0.280235678,   0.16672875
   3464, -0.280234903,   0.15671742
   3465, -0.280234098,  0.146706074
   3466, -0.280233324,  0.136694729
   3467, -0.280232549,  0.126683399
   3468, -0.280231744,  0.116672054
   3469, -0.280230969,  0.106660716
   3470, -0.280230194, 0.0966493785
   3471,  -0.28022939, 0.0866380408
   3472, -0.280228615, 0.0766266957
   3473,  -0.28022784,  0.066615358
   3474, -0.280227035, 0.0566040203
   3475,  -0.28022626, 0.0465926789
   3476, -0.280225486, 0.0365813412
   3477, -0.280224681, 0.0265700016
   3478, -0.280223906, 0.0165586621
   3479,  -0.27023688,  0.196288422
   3480, -0.270236105,  0.186277881
   3481,  -0.27023533,  0.176267341
   3482, -0.270234555,    0.1662568
   3483,  -0.27023378,  0.156246245
   3484, -0.270232975,  0.146235704
   3485, -0.270232201,  0.136225164
   3486, -0.270231426,  0.126214623
   3487, -0.270230651,  0.116204076
   3488, -0.270229876,  0.106193528
   3489, -0.270229071, 0.0961829871
   3490, -0.270228297, 0.0861724392
   3491, -0.270227522, 0.0761618987
   3492, -0.270226747, 0.0661513507
   3493, -0.270225942, 0.0561408065
   3494, -0.270225167, 0.0461302623
   3495, -0.270224392, 0.0361197181
   3496, -0.270223618, 0.0261091739
   3497, -0.270222843, 0.0160986297
   3498, -0.260234952,  0.195831314
   3499, -0.260234177,  0.185821548
   3500, -0.260233402,  0.175811768
   3501, -0.260232627,  0.165801987
   3502, -0.260231853,  0.155792207
   3503, -0.260231078,  0.145782426
   3504, -0.260230303,  0.135772645
   3505, -0.260229528,   0.12576288
   3506, -0.260228753,  0.115753099
   3507, -0.260227978,  0.105743319
   3508, -0.260227203, 0.0957335383
   3509, -0.260226429, 0.0857237652
   3510, -0.260225654, 0.0757139847
   3511, -0.260224879, 0.0657042041
   3512, -0.260224104, 0.0556944273
   3513, -0.260223329, 0.0456846505
   3514, -0.260222554,   0.03567487
   3515, -0.260221779, 0.0256650932
   3516, -0.260221004, 0.0156553145
   3517,  -0.25023222,  0.195391446
   3518, -0.250231475,  0.185382411
   3519,   -0.2502307,  0.175373375
   3520, -0.250229925,  0.165364325
   3521,  -0.25022918,   0.15535529
   3522, -0.250228405,  0.145346254
   3523,  -0.25022763,  0.135337204
   3524, -0.250226855,  0.125328168
   3525,  -0.25022611,  0.115319125
   3526, -0.250225335,  0.105310082
   3527,  -0.25022456,  0.095301047
   3528, -0.250223815,  0.085292004
   3529, -0.250223041, 0.0752829611
   3530, -0.250222266, 0.0652739257
   3531, -0.250221521, 0.0552648827
   3532, -0.250220746, 0.0452558398
   3533, -0.250219971, 0.0352468006
   3534, -0.250219196, 0.0252377596
   3535, -0.250218451, 0.0152287185
   3536, -0.240228772,   0.19496882
   3537, -0.240228012,  0.184960485
   3538, -0.240227267,  0.174952164
   3539, -0.240226507,  0.164943829
   3540, -0.240225747,  0.154935494
   3541, -0.240225002,  0.144927159
   3542, -0.240224242,  0.134918824
   3543, -0.240223482,  0.124910496
   3544, -0.240222737,  0.114902161
   3545, -0.240221977,  0.104893833
   3546, -0.240221217, 0.0948854983
   3547, -0.240220472, 0.0848771706
   3548, -0.240219712, 0.0748688355
   3549, -0.240218952, 0.0648605004
   3550, -0.240218207,  0.054852169
   3551, -0.240217447, 0.0448438376
   3552, -0.240216702, 0.0348355062
   3553, -0.240215942, 0.0248271748
   3554, -0.240215182, 0.0148188416
   3555, -0.230224594,  0.194563434
   3556, -0.230223849,  0.184555784
   3557, -0.230223119,  0.174548134
   3558, -0.230222374,   0.16454047
   3559, -0.230221629,   0.15453282
   3560, -0.230220884,   0.14452517
   3561, -0.230220154,  0.134517521
   3562, -0.230219409,  0.124509864
   3563, -0.230218664,  0.114502214
   3564, -0.230217934,  0.104494557
   3565, -0.230217189, 0.0944869071
   3566, -0.230216444, 0.0844792575
   3567, -0.230215698, 0.0744716004
   3568, -0.230214968, 0.0644639507
   3569, -0.230214223, 0.0544562973
   3570, -0.230213478, 0.0444486439
   3571, -0.230212748, 0.0344409905
   3572, -0.230212003,  0.024433339
   3573, -0.230211258, 0.0144256866
   3574, -0.220219731,  0.194175288
   3575, -0.220219016,  0.184168279
   3576, -0.220218286,  0.174161285
   3577, -0.220217556,  0.164154276
   3578, -0.220216841,  0.154147282
   3579,  -0.22021611,  0.144140273
   3580,  -0.22021538,  0.134133279
   3581, -0.220214665,   0.12412627
   3582, -0.220213935,  0.114119269
   3583,  -0.22021322,  0.104112267
   3584, -0.220212489,  0.094105266
   3585, -0.220211759, 0.0840982646
   3586, -0.220211044, 0.0740912631
   3587, -0.220210314, 0.0640842617
   3588, -0.220209584, 0.0540772602
   3589, -0.220208868, 0.0440702587
   3590, -0.220208138, 0.0340632573
   3591, -0.220207408,  0.024056254
   3592, -0.220206693, 0.0140492525
   3593, -0.210214227,  0.193804383
   3594, -0.210213512,     0.183798
   3595, -0.210212812,  0.173791617
   3596, -0.210212097,  0.163785249
   3597, -0.210211396,  0.153778866
   3598, -0.210210696,  0.143772483
   3599, -0.210209981,    0.1337661
   3600,  -0.21020928,  0.123759724
   3601, -0.210208565,  0.113753341
   3602, -0.210207865,  0.103746966
   3603, -0.210207149, 0.0937405825
   3604, -0.210206449, 0.0837341994
   3605, -0.210205749, 0.0737278238
   3606, -0.210205033, 0.0637214407
   3607, -0.210204333, 0.0537150614
   3608, -0.210203618, 0.0437086821
   3609, -0.210202917, 0.0337023027
   3610, -0.210202217, 0.0236959215
   3611, -0.210201502, 0.0136895413
   3612, -0.200208083,  0.193450719
   3613, -0.200207397,  0.183444932
   3614, -0.200206712,  0.173439145
   3615, -0.200206026,  0.163433358
   3616, -0.200205341,  0.153427571
   3617, -0.200204656,  0.143421784
   3618,  -0.20020397,  0.133415997
   3619, -0.200203285,   0.12341021
   3620, -0.200202599,  0.113404423
   3621, -0.200201914,  0.103398636
   3622, -0.200201228,  0.093392849
   3623, -0.200200528,  0.083387062
   3624, -0.200199842, 0.0733812749
   3625, -0.200199157, 0.0633754879
   3626, -0.200198472, 0.0533697046
   3627, -0.200197786, 0.0433639176
   3628, -0.200197101, 0.0333581306
   3629, -0.200196415, 0.0233523417
   3630,  -0.20019573, 0.0133465547
   3631, -0.190201357,  0.193114311
   3632, -0.190200686,   0.18310909
   3633, -0.190200031,  0.173103854
   3634,  -0.19019936,  0.163098633
   3635,  -0.19019869,  0.153093413
   3636, -0.190198034,  0.143088192
   3637, -0.190197363,  0.133082971
   3638, -0.190196708,  0.123077743
   3639, -0.190196037,  0.113072522
   3640, -0.190195382,  0.103067301
   3641, -0.190194711, 0.0930620804
   3642, -0.190194041, 0.0830568522
   3643, -0.190193385, 0.0730516315
   3644, -0.190192714, 0.0630464107
   3645, -0.190192059, 0.0530411862
   3646, -0.190191388, 0.0430359617
   3647, -0.190190732, 0.0330307409
   3648, -0.190190062, 0.0230255164
   3649, -0.190189391, 0.0130202938
   3650,  -0.18019405,  0.192795143
   3651, -0.180193424,  0.182790443
   3652, -0.180192783,  0.172785759
   3653, -0.180192143,  0.162781075
   3654, -0.180191502,   0.15277639
   3655, -0.180190861,  0.142771691
   3656,  -0.18019022,  0.132767007
   3657,  -0.18018958,  0.122762322
   3658, -0.180188939,  0.112757638
   3659, -0.180188298,  0.102752946
   3660, -0.180187657,  0.092748262
   3661, -0.180187017, 0.0827435702
   3662, -0.180186376, 0.0727388859
   3663, -0.180185735, 0.0627341941
   3664, -0.180185094, 0.0527295098
   3665, -0.180184454, 0.0427248217
   3666, -0.180183813, 0.0327201337
   3667, -0.180183172, 0.0227154456
   3668, -0.180182531, 0.0127107576
   3669, -0.170186222,  0.192493215
   3670, -0.170185611,  0.182489038
   3671,    -0.170185,  0.172484845
   3672, -0.170184389,  0.162480667
   3673, -0.170183763,   0.15247649
   3674, -0.170183152,  0.142472312
   3675, -0.170182541,  0.132468119
   3676,  -0.17018193,  0.122463942
   3677, -0.170181304,  0.112459764
   3678, -0.170180693,  0.102455579
   3679, -0.170180082, 0.0924514011
   3680, -0.170179471, 0.0824472159
   3681,  -0.17017886, 0.0724430382
   3682, -0.170178235, 0.0624388568
   3683, -0.170177624, 0.0524346754
   3684, -0.170177013,  0.042430494
   3685, -0.170176402, 0.0324263126
   3686, -0.170175776, 0.0224221293
   3687, -0.170175165, 0.0124179488
   3688, -0.160177886,  0.192208543
   3689, -0.160177305,  0.182204843
   3690, -0.160176709,  0.172201127
   3691, -0.160176128,  0.162197426
   3692, -0.160175547,  0.152193725
   3693, -0.160174951,  0.142190024
   3694,  -0.16017437,  0.132186323
   3695, -0.160173774,  0.122182615
   3696, -0.160173193,  0.112178907
   3697, -0.160172611,  0.102175206
   3698, -0.160172015, 0.0921714976
   3699, -0.160171434, 0.0821677968
   3700, -0.160170838, 0.0721640885
   3701, -0.160170257, 0.0621603876
   3702, -0.160169676, 0.0521566831
   3703,  -0.16016908, 0.0421529785
   3704, -0.160168499, 0.0321492739
   3705, -0.160167918, 0.0221455712
   3706, -0.160167322, 0.0121418666
   3707, -0.150169075,  0.191941112
   3708, -0.150168523,  0.181937858
   3709, -0.150167957,  0.171934605
   3710, -0.150167406,  0.161931351
   3711, -0.150166839,  0.151928097
   3712, -0.150166288,  0.141924843
   3713, -0.150165722,  0.131921574
   3714,  -0.15016517,  0.121918328
   3715, -0.150164619,  0.111915067
   3716, -0.150164053,  0.101911813
   3717, -0.150163502, 0.0919085592
   3718, -0.150162935, 0.0819053054
   3719, -0.150162384, 0.0719020441
   3720, -0.150161818, 0.0618987903
   3721, -0.150161266, 0.0518955365
   3722, -0.150160715, 0.0418922789
   3723, -0.150160149, 0.0318890251
   3724, -0.150159597, 0.0218857694
   3725, -0.150159031, 0.0118825138
   3726, -0.140159816,  0.191690937
   3727, -0.140159294,    0.1816881
   3728, -0.140158758,  0.171685264
   3729, -0.140158236,  0.161682427
   3730,   -0.1401577,   0.15167959
   3731, -0.140157178,  0.141676754
   3732, -0.140156657,  0.131673917
   3733,  -0.14015612,  0.121671088
   3734, -0.140155599,  0.111668251
   3735, -0.140155077,  0.101665415
   3736, -0.140154541, 0.0916625783
   3737, -0.140154019, 0.0816597417
   3738, -0.140153483, 0.0716569051
   3739, -0.140152961, 0.0616540685
   3740, -0.140152439, 0.0516512357
   3741, -0.140151903, 0.0416483991
   3742, -0.140151381, 0.0316455625
   3743, -0.140150845, 0.0216427259
   3744, -0.140150324, 0.0116398903
   3745, -0.130150139,  0.191458017
   3746, -0.130149648,  0.181455567
   3747, -0.130149156,  0.171453118
   3748, -0.130148649,  0.161450684
   3749, -0.130148157,  0.151448235
   3750, -0.130147666,  0.141445786
   3751, -0.130147174,  0.131443337
   3752, -0.130146667,  0.121440895
   3753, -0.130146176,  0.111438453
   3754, -0.130145684,  0.101436004
   3755, -0.130145192, 0.0914335623
   3756, -0.130144686, 0.0814311132
   3757, -0.130144194, 0.0714286715
   3758, -0.130143702, 0.0614262223
   3759,  -0.13014321, 0.0514237769
   3760, -0.130142704, 0.0414213315
   3761, -0.130142212,  0.031418886
   3762,  -0.13014172, 0.0214164406
   3763, -0.130141228, 0.0114139952
   3764, -0.120140076,  0.191242337
   3765, -0.120139614,  0.181240261
   3766, -0.120139152,  0.171238169
   3767,  -0.12013869,  0.161236092
   3768, -0.120138228,  0.151234001
   3769, -0.120137766,  0.141231924
   3770, -0.120137304,  0.131229833
   3771, -0.120136842,  0.121227756
   3772,  -0.12013638,  0.111225672
   3773, -0.120135918,  0.101223588
   3774, -0.120135456, 0.0912215039
   3775, -0.120134994, 0.0812194198
   3776, -0.120134532, 0.0712173358
   3777, -0.120134071, 0.0612152517
   3778, -0.120133609, 0.0512131676
   3779, -0.120133147, 0.0412110835
   3780, -0.120132685, 0.0312089995
   3781, -0.120132223, 0.0212069154
   3782, -0.120131761, 0.0112048313
   3783, -0.110129654,  0.191043913
   3784,  -0.11012923,  0.181042165
   3785, -0.110128805,  0.171040416
   3786, -0.110128373,  0.161038667
   3787, -0.110127948,  0.151036918
   3788, -0.110127516,  0.141035154
   3789, -0.110127091,  0.131033406
   3790, -0.110126667,  0.121031657
   3791, -0.110126235,  0.111029908
   3792,  -0.11012581,  0.101028159
   3793, -0.110125378,  0.091026403
   3794, -0.110124953, 0.0810246542
   3795, -0.110124528, 0.0710229054
   3796, -0.110124096, 0.0610211529
   3797, -0.110123672, 0.0510194041
   3798, -0.110123239, 0.0410176516
   3799, -0.110122815, 0.0310159009
   3800, -0.110122383, 0.0210141502
   3801, -0.110121958, 0.0110123986
   3802, -0.100118913,  0.190862745
   3803, -0.100118518,  0.180861294
   3804,  -0.10011813,  0.170859843
   3805, -0.100117736,  0.160858408
   3806, -0.100117341,  0.150856957
   3807, -0.100116953,  0.140855506
   3808, -0.100116558,  0.130854055
   3809, -0.100116163,  0.120852612
   3810, -0.100115776,  0.110851169
   3811, -0.100115381,  0.100849718
   3812, -0.100114986, 0.0908482745
   3813, -0.100114599, 0.0808468238
   3814, -0.100114204, 0.0708453804
   3815, -0.100113809, 0.0608439334
   3816, -0.100113422, 0.0508424863
   3817, -0.100113027, 0.0408410393
   3818, -0.100112632, 0.0308395922
   3819, -0.100112244, 0.0208381452
   3820,  -0.10011185, 0.0108366972
   3821, -0.0901078656,  0.190698832
   3822, -0.0901075155,   0.18069765
   3823, -0.0901071578,  0.170696482
   3824, -0.0901068002,  0.160695314
   3825, -0.0901064426,  0.150694132
   3826, -0.0901060849,  0.140692964
   3827, -0.0901057348,  0.130691797
   3828, -0.0901053771,  0.120690621
   3829, -0.0901050195,  0.110689446
   3830, -0.0901046619,  0.100688279
   3831, -0.0901043117, 0.0906871036
   3832, -0.0901039541, 0.0806859359
   3833, -0.0901035964, 0.0706847608
   3834, -0.0901032388, 0.0606835894
   3835, -0.0901028886,  0.050682418
   3836, -0.090102531, 0.0406812429
   3837, -0.0901021734, 0.0306800716
   3838, -0.0901018158, 0.0206789002
   3839, -0.0901014656, 0.0106777279
   3840, -0.0800965577,   0.19055216
   3841, -0.0800962374,  0.180551231
   3842, -0.080095917,  0.170550302
   3843, -0.0800956041,  0.160549387
   3844, -0.0800952837,  0.150548458
   3845, -0.0800949633,  0.140547529
   3846, -0.0800946429,    0.1305466
   3847,  -0.08009433,  0.120545678
   3848, -0.0800940096,  0.110544749
   3849, -0.0800936893,  0.100543827
   3850, -0.0800933689, 0.0905428976
   3851, -0.080093056, 0.0805419758
   3852, -0.0800927356, 0.0705410466
   3853, -0.0800924152,  0.060540121
   3854, -0.0800920948, 0.0505391955
   3855, -0.0800917819,   0.04053827
   3856, -0.0800914615, 0.0305373427
   3857, -0.0800911412, 0.0205364171
   3858, -0.0800908208, 0.0105354907
   3859, -0.070085004,  0.190422744
   3860, -0.0700847283,  0.180422038
   3861, -0.0700844452,  0.170421332
   3862, -0.0700841695,  0.160420626
   3863, -0.0700838864,  0.150419921
   3864, -0.0700836033,    0.1404192
   3865, -0.0700833276,  0.130418494
   3866, -0.0700830445,  0.120417789
   3867, -0.0700827613,  0.110417075
   3868, -0.0700824857,   0.10041637
   3869, -0.0700822026, 0.0904156566
   3870, -0.0700819194, 0.0804149508
   3871, -0.0700816438, 0.0704142377
   3872, -0.0700813606,  0.060413532
   3873, -0.070081085, 0.0504128225
   3874, -0.0700808018, 0.0404121131
   3875, -0.0700805187, 0.0304114055
   3876, -0.0700802431,  0.020410696
   3877, -0.0700799599, 0.0104099866
   3878, -0.060073249,  0.190310597
   3879, -0.0600730069,  0.180310071
   3880, -0.0600727685,  0.170309544
   3881, -0.0600725263,  0.160309032
   3882, -0.0600722842,  0.150308505
   3883, -0.060072042,  0.140307993
   3884, -0.0600717999,  0.130307466
   3885, -0.0600715578,  0.120306946
   3886, -0.0600713156,  0.110306427
   3887, -0.0600710735,  0.100305907
   3888, -0.0600708351, 0.0903053805
   3889, -0.0600705929, 0.0803048611
   3890, -0.0600703508, 0.0703043416
   3891, -0.0600701086, 0.0603038222
   3892, -0.0600698665,  0.050303299
   3893, -0.0600696243, 0.0403027795
   3894, -0.0600693822, 0.0303022582
   3895, -0.0600691438, 0.0203017369
   3896, -0.0600689016, 0.0103012156
   3897, -0.0500613153,  0.190215692
   3898, -0.0500611104,  0.180215329
   3899, -0.0500609092,  0.170214966
   3900, -0.0500607081,  0.160214603
   3901, -0.0500605069,   0.15021424
   3902, -0.050060302,  0.140213877
   3903, -0.0500601009,  0.130213514
   3904, -0.0500598997,  0.120213158
   3905, -0.0500596948,  0.110212795
   3906, -0.0500594936,  0.100212432
   3907, -0.0500592925, 0.0902120695
   3908, -0.0500590876, 0.0802117139
   3909, -0.0500588864, 0.0702113509
   3910, -0.0500586852, 0.0602109879
   3911, -0.0500584841, 0.0502106249
   3912, -0.0500582792, 0.0402102619
   3913, -0.050058078, 0.0302099008
   3914, -0.0500578769, 0.0202095397
   3915, -0.050057672, 0.0102091776
   3916, -0.0400492288,  0.190138042
   3917, -0.0400490686,  0.180137813
   3918, -0.0400489047,  0.170137584
   3919, -0.0400487445,   0.16013734
   3920, -0.0400485806,  0.150137112
   3921, -0.0400484167,  0.140136883
   3922, -0.0400482565,  0.130136654
   3923, -0.0400480926,  0.120136417
   3924, -0.0400479324,  0.110136189
   3925, -0.0400477685,   0.10013596
   3926, -0.0400476046, 0.0901357234
   3927, -0.0400474444, 0.0801354945
   3928, -0.0400472805, 0.0701352656
   3929, -0.0400471203,  0.060135033
   3930, -0.0400469564, 0.0501348004
   3931, -0.0400467925, 0.0401345678
   3932, -0.0400466323,  0.030134337
   3933, -0.0400464684, 0.0201341063
   3934, -0.0400463082, 0.0101338746
   3935, -0.0300370269,  0.190077648
   3936, -0.0300369039,  0.180077523
   3937, -0.0300367828,  0.170077384
   3938, -0.0300366599,  0.160077259
   3939, -0.0300365388,  0.150077134
   3940, -0.0300364159,  0.140076995
   3941, -0.030036293,   0.13007687
   3942, -0.0300361719,  0.120076738
   3943, -0.030036049,  0.110076606
   3944, -0.0300359279,  0.100076474
   3945, -0.030035805, 0.0900763497
   3946, -0.030035682, 0.0800762177
   3947, -0.030035561, 0.0700760856
   3948, -0.030035438, 0.0600759573
   3949, -0.0300353169, 0.0500758253
   3950, -0.030035194, 0.0400756933
   3951, -0.0300350729,  0.030075565
   3952,  -0.03003495, 0.0200754348
   3953, -0.0300348271, 0.0100753047
   3954, -0.0200247336,  0.190034509
   3955, -0.0200246517,  0.180034459
   3956, -0.0200245716,  0.170034394
   3957, -0.0200244896,  0.160034344
   3958, -0.0200244077,  0.150034279
   3959, -0.0200243257,  0.140034229
   3960, -0.0200242437,  0.130034164
   3961, -0.0200241636,  0.120034106
   3962, -0.0200240817,  0.110034049
   3963, -0.0200239997,  0.100033991
   3964, -0.0200239178, 0.0900339335
   3965, -0.0200238358,  0.080033876
   3966, -0.0200237539, 0.0700338185
   3967, -0.0200236738, 0.0600337572
   3968, -0.0200235918, 0.0500336997
   3969, -0.0200235099, 0.0400336422
   3970, -0.0200234279, 0.0300335847
   3971, -0.0200233459, 0.0200335272
   3972, -0.0200232659, 0.0100334687
   3973, -0.0100123817,  0.190008625
   3974, -0.0100123407,   0.18000862
   3975, -0.0100122998,    0.1700086
   3976, -0.0100122597,  0.160008579
   3977, -0.0100122187,  0.150008574
   3978, -0.0100121778,  0.140008554
   3979, -0.0100121368,  0.130008534
   3980, -0.0100120958,  0.120008528
   3981, -0.0100120548,  0.110008515
   3982, -0.0100120138,  0.100008495
   3983, -0.0100119738, 0.0900084823
   3984, -0.0100119328, 0.0800084695
   3985, -0.0100118918, 0.0700084567
   3986, -0.0100118509, 0.0600084402
   3987, -0.0100118099, 0.0500084236
   3988, -0.0100117689, 0.0400084108
   3989, -0.0100117279, 0.0300083961
   3990, -0.0100116879, 0.0200083815
   3991, -0.0100116469, 0.0100083668
   3992,           0.,  0.189999998
   3993,           0.,  0.180000007
   3994,           0.,  0.170000002
   3995,           0.,  0.159999996
   3996,           0.,  0.150000006
   3997,           0.,  0.140000001
   3998,           0.,  0.129999995
   3999,           0.,  0.119999997
   4000,           0.,  0.109999999
   4001,           0.,  0.100000001
   4002,           0., 0.0900000036
   4003,           0., 0.0799999982
   4004,           0., 0.0700000003
   4005,           0., 0.0599999987
   4006,           0., 0.0500000007
   4007,           0., 0.0399999991
   4008,           0., 0.0299999993
   4009,           0., 0.0199999996
   4010,           0., 0.00999999978
   4011, 0.0100123817,  0.190008625
   4012, 0.0100123407,   0.18000862
   4013, 0.0100122998,    0.1700086
   4014, 0.0100122597,  0.160008579
   4015, 0.0100122187,  0.150008574
   4016, 0.0100121778,  0.140008554
   4017, 0.0100121368,  0.130008534
   4018, 0.0100120958,  0.120008528
   4019, 0.0100120548,  0.110008515
   4020, 0.0100120138,  0.100008495
   4021, 0.0100119738, 0.0900084823
   4022, 0.0100119328, 0.0800084695
   4023, 0.0100118918, 0.0700084567
   4024, 0.0100118509, 0.0600084402
   4025, 0.0100118099, 0.0500084236
   4026, 0.0100117689, 0.0400084108
   4027, 0.0100117279, 0.0300083961
   4028, 0.0100116879, 0.0200083815
   4029, 0.0100116469, 0.0100083668
   4030, 0.0200247336,  0.190034509
   4031, 0.0200246517,  0.180034459
   4032, 0.0200245716,  0.170034394
   4033, 0.0200244896,  0.160034344
   4034, 0.0200244077,  0.150034279
   4035, 0.0200243257,  0.140034229
   4036, 0.0200242437,  0.130034164
   4037, 0.0200241636,  0.120034106
   4038, 0.0200240817,  0.110034049
   4039, 0.0200239997,  0.100033991
   4040, 0.0200239178, 0.0900339335
   4041, 0.0200238358,  0.080033876
   4042, 0.0200237539, 0.0700338185
   4043, 0.0200236738, 0.0600337572
   4044, 0.0200235918, 0.0500336997
   4045, 0.0200235099, 0.0400336422
   4046, 0.0200234279, 0.0300335847
   4047, 0.0200233459, 0.0200335272
   4048, 0.0200232659, 0.0100334687
   4049, 0.0300370269,  0.190077648
   4050, 0.0300369039,  0.180077523
   4051, 0.0300367828,  0.170077384
   4052, 0.0300366599,  0.160077259
   4053, 0.0300365388,  0.150077134
   4054, 0.0300364159,  0.140076995
   4055,  0.030036293,   0.13007687
   4056, 0.0300361719,  0.120076738
   4057,  0.030036049,  0.110076606
   4058, 0.0300359279,  0.100076474
   4059,  0.030035805, 0.0900763497
   4060,  0.030035682, 0.0800762177
   4061,  0.030035561, 0.0700760856
   4062,  0.030035438, 0.0600759573
   4063, 0.0300353169, 0.0500758253
   4064,  0.030035194, 0.0400756933
   4065, 0.0300350729,  0.030075565
   4066,   0.03003495, 0.0200754348
   4067, 0.0300348271, 0.0100753047
   4068, 0.0400492288,  0.190138042
   4069, 0.0400490686,  0.180137813
   4070, 0.0400489047,  0.170137584
   4071, 0.0400487445,   0.16013734
   4072, 0.0400485806,  0.150137112
   4073, 0.0400484167,  0.140136883
   4074, 0.0400482565,  0.130136654
   4075, 0.0400480926,  0.120136417
   4076, 0.0400479324,  0.110136189
   4077, 0.0400477685,   0.10013596
   4078, 0.0400476046, 0.0901357234
   4079, 0.0400474444, 0.0801354945
   4080, 0.0400472805, 0.0701352656
   4081, 0.0400471203,  0.060135033
   4082, 0.0400469564, 0.0501348004
   4083, 0.0400467925, 0.0401345678
   4084, 0.0400466323,  0.030134337
   4085, 0.0400464684, 0.0201341063
   4086, 0.0400463082, 0.0101338746
   4087, 0.0500613153,  0.190215692
   4088, 0.0500611104,  0.180215329
   4089, 0.0500609092,  0.170214966
   4090, 0.0500607081,  0.160214603
   4091, 0.0500605069,   0.15021424
   4092,  0.050060302,  0.140213877
   4093, 0.0500601009,  0.130213514
   4094, 0.0500598997,  0.120213158
   4095, 0.0500596948,  0.110212795
   4096, 0.0500594936,  0.100212432
   4097, 0.0500592925, 0.0902120695
   4098, 0.0500590876, 0.0802117139
   4099, 0.0500588864, 0.0702113509
   4100, 0.0500586852, 0.0602109879
   4101, 0.0500584841, 0.0502106249
   4102, 0.0500582792, 0.0402102619
   4103,  0.050058078, 0.0302099008
   4104, 0.0500578769, 0.0202095397
   4105,  0.050057672, 0.0102091776
   4106,  0.060073249,  0.190310597
   4107, 0.0600730069,  0.180310071
   4108, 0.0600727685,  0.170309544
   4109, 0.0600725263,  0.160309032
   4110, 0.0600722842,  0.150308505
   4111,  0.060072042,  0.140307993
   4112, 0.0600717999,  0.130307466
   4113, 0.0600715578,  0.120306946
   4114, 0.0600713156,  0.110306427
   4115, 0.0600710735,  0.100305907
   4116, 0.0600708351, 0.0903053805
   4117, 0.0600705929, 0.0803048611
   4118, 0.0600703508, 0.0703043416
   4119, 0.0600701086, 0.0603038222
   4120, 0.0600698665,  0.050303299
   4121, 0.0600696243, 0.0403027795
   4122, 0.0600693822, 0.0303022582
   4123, 0.0600691438, 0.0203017369
   4124, 0.0600689016, 0.0103012156
   4125,  0.070085004,  0.190422744
   4126, 0.0700847283,  0.180422038
   4127, 0.0700844452,  0.170421332
   4128, 0.0700841695,  0.160420626
   4129, 0.0700838864,  0.150419921
   4130, 0.0700836033,    0.1404192
   4131, 0.0700833276,  0.130418494
   4132, 0.0700830445,  0.120417789
   4133, 0.0700827613,  0.110417075
   4134, 0.0700824857,   0.10041637
   4135, 0.0700822026, 0.0904156566
   4136, 0.0700819194, 0.0804149508
   4137, 0.0700816438, 0.0704142377
   4138, 0.0700813606,  0.060413532
   4139,  0.070081085, 0.0504128225
   4140, 0.0700808018, 0.0404121131
   4141, 0.0700805187, 0.0304114055
   4142, 0.0700802431,  0.020410696
   4143, 0.0700799599, 0.0104099866
   4144, 0.0800965577,   0.19055216
   4145, 0.0800962374,  0.180551231
   4146,  0.080095917,  0.170550302
   4147, 0.0800956041,  0.160549387
   4148, 0.0800952837,  0.150548458
   4149, 0.0800949633,  0.140547529
   4150, 0.0800946429,    0.1305466
   4151,   0.08009433,  0.120545678
   4152, 0.0800940096,  0.110544749
   4153, 0.0800936893,  0.100543827
   4154, 0.0800933689, 0.0905428976
   4155,  0.080093056, 0.0805419758
   4156, 0.0800927356, 0.0705410466
   4157, 0.0800924152,  0.060540121
   4158, 0.0800920948, 0.0505391955
   4159, 0.0800917819,   0.04053827
   4160, 0.0800914615, 0.0305373427
   4161, 0.0800911412, 0.0205364171
   4162, 0.0800908208, 0.0105354907
   4163, 0.0901078656,  0.190698832
   4164, 0.0901075155,   0.18069765
   4165, 0.0901071578,  0.170696482
   4166, 0.0901068002,  0.160695314
   4167, 0.0901064426,  0.150694132
   4168, 0.0901060849,  0.140692964
   4169, 0.0901057348,  0.130691797
   4170, 0.0901053771,  0.120690621
   4171, 0.0901050195,  0.110689446
   4172, 0.0901046619,  0.100688279
   4173, 0.0901043117, 0.0906871036
   4174, 0.0901039541, 0.0806859359
   4175, 0.0901035964, 0.0706847608
   4176, 0.0901032388, 0.0606835894
   4177, 0.0901028886,  0.050682418
   4178,  0.090102531, 0.0406812429
   4179, 0.0901021734, 0.0306800716
   4180, 0.0901018158, 0.0206789002
   4181, 0.0901014656, 0.0106777279
   4182,  0.100118913,  0.190862745
   4183,  0.100118518,  0.180861294
   4184,   0.10011813,  0.170859843
   4185,  0.100117736,  0.160858408
   4186,  0.100117341,  0.150856957
   4187,  0.100116953,  0.140855506
   4188,  0.100116558,  0.130854055
   4189,  0.100116163,  0.120852612
   4190,  0.100115776,  0.110851169
   4191,  0.100115381,  0.100849718
   4192,  0.100114986, 0.0908482745
   4193,  0.100114599, 0.0808468238
   4194,  0.100114204, 0.0708453804
   4195,  0.100113809, 0.0608439334
   4196,  0.100113422, 0.0508424863
   4197,  0.100113027, 0.0408410393
   4198,  0.100112632, 0.0308395922
   4199,  0.100112244, 0.0208381452
   4200,   0.10011185, 0.0108366972
   4201,  0.110129654,  0.191043913
   4202,   0.11012923,  0.181042165
   4203,  0.110128805,  0.171040416
   4204,  0.110128373,  0.161038667
   4205,  0.110127948,  0.151036918
   4206,  0.110127516,  0.141035154
   4207,  0.110127091,  0.131033406
   4208,  0.110126667,  0.121031657
   4209,  0.110126235,  0.111029908
   4210,   0.11012581,  0.101028159
   4211,  0.110125378,  0.091026403
   4212,  0.110124953, 0.0810246542
   4213,  0.110124528, 0.0710229054
   4214,  0.110124096, 0.0610211529
   4215,  0.110123672, 0.0510194041
   4216,  0.110123239, 0.0410176516
   4217,  0.110122815, 0.0310159009
   4218,  0.110122383, 0.0210141502
   4219,  0.110121958, 0.0110123986
   4220,  0.120140076,  0.191242337
   4221,  0.120139614,  0.181240261
   4222,  0.120139152,  0.171238169
   4223,   0.12013869,  0.161236092
   4224,  0.120138228,  0.151234001
   4225,  0.120137766,  0.141231924
   4226,  0.120137304,  0.131229833
   4227,  0.120136842,  0.121227756
   4228,   0.12013638,  0.111225672
   4229,  0.120135918,  0.101223588
   4230,  0.120135456, 0.0912215039
   4231,  0.120134994, 0.0812194198
   4232,  0.120134532, 0.0712173358
   4233,  0.120134071, 0.0612152517
   4234,  0.120133609, 0.0512131676
   4235,  0.120133147, 0.0412110835
   4236,  0.120132685, 0.0312089995
   4237,  0.120132223, 0.0212069154
   4238,  0.120131761, 0.0112048313
   4239,  0.130150139,  0.191458017
   4240,  0.130149648,  0.181455567
   4241,  0.130149156,  0.171453118
   4242,  0.130148649,  0.161450684
   4243,  0.130148157,  0.151448235
   4244,  0.130147666,  0.141445786
   4245,  0.130147174,  0.131443337
   4246,  0.130146667,  0.121440895
   4247,  0.130146176,  0.111438453
   4248,  0.130145684,  0.101436004
   4249,  0.130145192, 0.0914335623
   4250,  0.130144686, 0.0814311132
   4251,  0.130144194, 0.0714286715
   4252,  0.130143702, 0.0614262223
   4253,   0.13014321, 0.0514237769
   4254,  0.130142704, 0.0414213315
   4255,  0.130142212,  0.031418886
   4256,   0.13014172, 0.0214164406
   4257,  0.130141228, 0.0114139952
   4258,  0.140159816,  0.191690937
   4259,  0.140159294,    0.1816881
   4260,  0.140158758,  0.171685264
   4261,  0.140158236,  0.161682427
   4262,    0.1401577,   0.15167959
   4263,  0.140157178,  0.141676754
   4264,  0.140156657,  0.131673917
   4265,   0.14015612,  0.121671088
   4266,  0.140155599,  0.111668251
   4267,  0.140155077,  0.101665415
   4268,  0.140154541, 0.0916625783
   4269,  0.140154019, 0.0816597417
   4270,  0.140153483, 0.0716569051
   4271,  0.140152961, 0.0616540685
   4272,  0.140152439, 0.0516512357
   4273,  0.140151903, 0.0416483991
   4274,  0.140151381, 0.0316455625
   4275,  0.140150845, 0.0216427259
   4276,  0.140150324, 0.0116398903
   4277,  0.150169075,  0.191941112
   4278,  0.150168523,  0.181937858
   4279,  0.150167957,  0.171934605
   4280,  0.150167406,  0.161931351
   4281,  0.150166839,  0.151928097
   4282,  0.150166288,  0.141924843
   4283,  0.150165722,  0.131921574
   4284,   0.15016517,  0.121918328
   4285,  0.150164619,  0.111915067
   4286,  0.150164053,  0.101911813
   4287,  0.150163502, 0.0919085592
   4288,  0.150162935, 0.0819053054
   4289,  0.150162384, 0.0719020441
   4290,  0.150161818, 0.0618987903
   4291,  0.150161266, 0.0518955365
   4292,  0.150160715, 0.0418922789
   4293,  0.150160149, 0.0318890251
   4294,  0.150159597, 0.0218857694
   4295,  0.150159031, 0.0118825138
   4296,  0.160177886,  0.192208543
   4297,  0.160177305,  0.182204843
   4298,  0.160176709,  0.172201127
   4299,  0.160176128,  0.162197426
   4300,  0.160175547,  0.152193725
   4301,  0.160174951,  0.142190024
   4302,   0.16017437,  0.132186323
   4303,  0.160173774,  0.122182615
   4304,  0.160173193,  0.112178907
   4305,  0.160172611,  0.102175206
   4306,  0.160172015, 0.0921714976
   4307,  0.160171434, 0.0821677968
   4308,  0.160170838, 0.0721640885
   4309,  0.160170257, 0.0621603876
   4310,  0.160169676, 0.0521566831
   4311,   0.16016908, 0.0421529785
   4312,  0.160168499, 0.0321492739
   4313,  0.160167918, 0.0221455712
   4314,  0.160167322, 0.0121418666
   4315,  0.170186222,  0.192493215
   4316,  0.170185611,  0.182489038
   4317,     0.170185,  0.172484845
   4318,  0.170184389,  0.162480667
   4319,  0.170183763,   0.15247649
   4320,  0.170183152,  0.142472312
   4321,  0.170182541,  0.132468119
   4322,   0.17018193,  0.122463942
   4323,  0.170181304,  0.112459764
   4324,  0.170180693,  0.102455579
   4325,  0.170180082, 0.0924514011
   4326,  0.170179471, 0.0824472159
   4327,   0.17017886, 0.0724430382
   4328,  0.170178235, 0.0624388568
   4329,  0.170177624, 0.0524346754
   4330,  0.170177013,  0.042430494
   4331,  0.170176402, 0.0324263126
   4332,  0.170175776, 0.0224221293
   4333,  0.170175165, 0.0124179488
   4334,   0.18019405,  0.192795143
   4335,  0.180193424,  0.182790443
   4336,  0.180192783,  0.172785759
   4337,  0.180192143,  0.162781075
   4338,  0.180191502,   0.15277639
   4339,  0.180190861,  0.142771691
   4340,   0.18019022,  0.132767007
   4341,   0.18018958,  0.122762322
   4342,  0.180188939,  0.112757638
   4343,  0.180188298,  0.102752946
   4344,  0.180187657,  0.092748262
   4345,  0.180187017, 0.0827435702
   4346,  0.180186376, 0.0727388859
   4347,  0.180185735, 0.0627341941
   4348,  0.180185094, 0.0527295098
   4349,  0.180184454, 0.0427248217
   4350,  0.180183813, 0.0327201337
   4351,  0.180183172, 0.0227154456
   4352,  0.180182531, 0.0127107576
   4353,  0.190201357,  0.193114311
   4354,  0.190200686,   0.18310909
   4355,  0.190200031,  0.173103854
   4356,   0.19019936,  0.163098633
   4357,   0.19019869,  0.153093413
   4358,  0.190198034,  0.143088192
   4359,  0.190197363,  0.133082971
   4360,  0.190196708,  0.123077743
   4361,  0.190196037,  0.113072522
   4362,  0.190195382,  0.103067301
   4363,  0.190194711, 0.0930620804
   4364,  0.190194041, 0.0830568522
   4365,  0.190193385, 0.0730516315
   4366,  0.190192714, 0.0630464107
   4367,  0.190192059, 0.0530411862
   4368,  0.190191388, 0.0430359617
   4369,  0.190190732, 0.0330307409
   4370,  0.190190062, 0.0230255164
   4371,  0.190189391, 0.0130202938
   4372,  0.200208083,  0.193450719
   4373,  0.200207397,  0.183444932
   4374,  0.200206712,  0.173439145
   4375,  0.200206026,  0.163433358
   4376,  0.200205341,  0.153427571
   4377,  0.200204656,  0.143421784
   4378,   0.20020397,  0.133415997
   4379,  0.200203285,   0.12341021
   4380,  0.200202599,  0.113404423
   4381,  0.200201914,  0.103398636
   4382,  0.200201228,  0.093392849
   4383,  0.200200528,  0.083387062
   4384,  0.200199842, 0.0733812749
   4385,  0.200199157, 0.0633754879
   4386,  0.200198472, 0.0533697046
   4387,  0.200197786, 0.0433639176
   4388,  0.200197101, 0.0333581306
   4389,  0.200196415, 0.0233523417
   4390,   0.20019573, 0.0133465547
   4391,  0.210214227,  0.193804383
   4392,  0.210213512,     0.183798
   4393,  0.210212812,  0.173791617
   4394,  0.210212097,  0.163785249
   4395,  0.210211396,  0.153778866
   4396,  0.210210696,  0.143772483
   4397,  0.210209981,    0.1337661
   4398,   0.21020928,  0.123759724
   4399,  0.210208565,  0.113753341
   4400,  0.210207865,  0.103746966
   4401,  0.210207149, 0.0937405825
   4402,  0.210206449, 0.0837341994
   4403,  0.210205749, 0.0737278238
   4404,  0.210205033, 0.0637214407
   4405,  0.210204333, 0.0537150614
   4406,  0.210203618, 0.0437086821
   4407,  0.210202917, 0.0337023027
   4408,  0.210202217, 0.0236959215
   4409,  0.210201502, 0.0136895413
   4410,  0.220219731,  0.194175288
   4411,  0.220219016,  0.184168279
   4412,  0.220218286,  0.174161285
   4413,  0.220217556,  0.164154276
   4414,  0.220216841,  0.154147282
   4415,   0.22021611,  0.144140273
   4416,   0.22021538,  0.134133279
   4417,  0.220214665,   0.12412627
   4418,  0.220213935,  0.114119269
   4419,   0.22021322,  0.104112267
   4420,  0.220212489,  0.094105266
   4421,  0.220211759, 0.0840982646
   4422,  0.220211044, 0.0740912631
   4423,  0.220210314, 0.0640842617
   4424,  0.220209584, 0.0540772602
   4425,  0.220208868, 0.0440702587
   4426,  0.220208138, 0.0340632573
   4427,  0.220207408,  0.024056254
   4428,  0.220206693, 0.0140492525
   4429,  0.230224594,  0.194563434
   4430,  0.230223849,  0.184555784
   4431,  0.230223119,  0.174548134
   4432,  0.230222374,   0.16454047
   4433,  0.230221629,   0.15453282
   4434,  0.230220884,   0.14452517
   4435,  0.230220154,  0.134517521
   4436,  0.230219409,  0.124509864
   4437,  0.230218664,  0.114502214
   4438,  0.230217934,  0.104494557
   4439,  0.230217189, 0.0944869071
   4440,  0.230216444, 0.0844792575
   4441,  0.230215698, 0.0744716004
   4442,  0.230214968, 0.0644639507
   4443,  0.230214223, 0.0544562973
   4444,  0.230213478, 0.0444486439
   4445,  0.230212748, 0.0344409905
   4446,  0.230212003,  0.024433339
   4447,  0.230211258, 0.0144256866
   4448,  0.240228772,   0.19496882
   4449,  0.240228012,  0.184960485
   4450,  0.240227267,  0.174952164
   4451,  0.240226507,  0.164943829
   4452,  0.240225747,  0.154935494
   4453,  0.240225002,  0.144927159
   4454,  0.240224242,  0.134918824
   4455,  0.240223482,  0.124910496
   4456,  0.240222737,  0.114902161
   4457,  0.240221977,  0.104893833
   4458,  0.240221217, 0.0948854983
   4459,  0.240220472, 0.0848771706
   4460,  0.240219712, 0.0748688355
   4461,  0.240218952, 0.0648605004
   4462,  0.240218207,  0.054852169
   4463,  0.240217447, 0.0448438376
   4464,  0.240216702, 0.0348355062
   4465,  0.240215942, 0.0248271748
   4466,  0.240215182, 0.0148188416
   4467,   0.25023222,  0.195391446
   4468,  0.250231475,  0.185382411
   4469,    0.2502307,  0.175373375
   4470,  0.250229925,  0.165364325
   4471,   0.25022918,   0.15535529
   4472,  0.250228405,  0.145346254
   4473,   0.25022763,  0.135337204
   4474,  0.250226855,  0.125328168
   4475,   0.25022611,  0.115319125
   4476,  0.250225335,  0.105310082
   4477,   0.25022456,  0.095301047
   4478,  0.250223815,  0.085292004
   4479,  0.250223041, 0.0752829611
   4480,  0.250222266, 0.0652739257
   4481,  0.250221521, 0.0552648827
   4482,  0.250220746, 0.0452558398
   4483,  0.250219971, 0.0352468006
   4484,  0.250219196, 0.0252377596
   4485,  0.250218451, 0.0152287185
   4486,  0.260234952,  0.195831314
   4487,  0.260234177,  0.185821548
   4488,  0.260233402,  0.175811768
   4489,  0.260232627,  0.165801987
   4490,  0.260231853,  0.155792207
   4491,  0.260231078,  0.145782426
   4492,  0.260230303,  0.135772645
   4493,  0.260229528,   0.12576288
   4494,  0.260228753,  0.115753099
   4495,  0.260227978,  0.105743319
   4496,  0.260227203, 0.0957335383
   4497,  0.260226429, 0.0857237652
   4498,  0.260225654, 0.0757139847
   4499,  0.260224879, 0.0657042041
   4500,  0.260224104, 0.0556944273
   4501,  0.260223329, 0.0456846505
   4502,  0.260222554,   0.03567487
   4503,  0.260221779, 0.0256650932
   4504,  0.260221004, 0.0156553145
   4505,   0.27023688,  0.196288422
   4506,  0.270236105,  0.186277881
   4507,   0.27023533,  0.176267341
   4508,  0.270234555,    0.1662568
   4509,   0.27023378,  0.156246245
   4510,  0.270232975,  0.146235704
   4511,  0.270232201,  0.136225164
   4512,  0.270231426,  0.126214623
   4513,  0.270230651,  0.116204076
   4514,  0.270229876,  0.106193528
   4515,  0.270229071, 0.0961829871
   4516,  0.270228297, 0.0861724392
   4517,  0.270227522, 0.0761618987
   4518,  0.270226747, 0.0661513507
   4519,  0.270225942, 0.0561408065
   4520,  0.270225167, 0.0461302623
   4521,  0.270224392, 0.0361197181
   4522,  0.270223618, 0.0261091739
   4523,  0.270222843, 0.0160986297
   4524,  0.280238032,   0.19676277
   4525,  0.280237257,  0.186751425
   4526,  0.280236453,  0.176740095
   4527,  0.280235678,   0.16672875
   4528,  0.280234903,   0.15671742
   4529,  0.280234098,  0.146706074
   4530,  0.280233324,  0.136694729
   4531,  0.280232549,  0.126683399
   4532,  0.280231744,  0.116672054
   4533,  0.280230969,  0.106660716
   4534,  0.280230194, 0.0966493785
   4535,   0.28022939, 0.0866380408
   4536,  0.280228615, 0.0766266957
   4537,   0.28022784,  0.066615358
   4538,  0.280227035, 0.0566040203
   4539,   0.28022626, 0.0465926789
   4540,  0.280225486, 0.0365813412
   4541,  0.280224681, 0.0265700016
   4542,  0.280223906, 0.0165586621
   4543,  0.290238351,  0.197254345
   4544,  0.290237546,   0.18724218
   4545,  0.290236771,   0.17723003
   4546,  0.290235996,  0.167217866
   4547,  0.290235192,  0.157205701
   4548,  0.290234417,  0.147193536
   4549,  0.290233642,  0.137181371
   4550,  0.290232837,  0.127169207
   4551,  0.290232062,  0.117157042
   4552,  0.290231258,  0.107144877
   4553,  0.290230483, 0.0971327201
   4554,  0.290229708, 0.0871205553
   4555,  0.290228903, 0.0771083906
   4556,  0.290228128, 0.0670962259
   4557,  0.290227354, 0.0570840612
   4558,  0.290226549, 0.0470719002
   4559,  0.290225774, 0.0370597355
   4560,  0.290224969, 0.0270475727
   4561,  0.290224195, 0.0170354098
   4562,  0.300237805,   0.19776316
   4563,     0.300237,  0.187750146
   4564,  0.300236225,  0.177737132
   4565,   0.30023545,  0.167724118
   4566,  0.300234646,  0.157711104
   4567,  0.300233871,  0.147698075
   4568,  0.300233096,  0.137685061
   4569,  0.300232291,  0.127672046
   4570,  0.300231516,  0.117659032
   4571,  0.300230742,  0.107646018
   4572,  0.300229937, 0.0976330042
   4573,  0.300229162, 0.0876199827
   4574,  0.300228387, 0.0776069686
   4575,  0.300227612, 0.0675939545
   4576,  0.300226808, 0.0575809367
   4577,  0.300226033, 0.0475679189
   4578,  0.300225258, 0.0375549048
   4579,  0.300224453, 0.0275418889
   4580,  0.300223678, 0.0175288729
   4581,  0.310236365,  0.198289201
   4582,   0.31023556,  0.188275307
   4583,  0.310234785,  0.178261414
   4584,   0.31023401,  0.168247521
   4585,  0.310233235,  0.158233613
   4586,   0.31023246,   0.14821972
   4587,  0.310231686,  0.138205826
   4588,  0.310230881,  0.128191918
   4589,  0.310230106,  0.118178025
   4590,  0.310229331,  0.108164124
   4591,  0.310228556, 0.0981502309
   4592,  0.310227782, 0.0881363302
   4593,  0.310227007,  0.078122437
   4594,  0.310226202, 0.0681085363
   4595,  0.310225427, 0.0580946393
   4596,  0.310224652, 0.0480807424
   4597,  0.310223877, 0.0380668454
   4598,  0.310223103, 0.0280529466
   4599,  0.310222328, 0.0180390477
   4600,  0.320233971,  0.198832482
   4601,  0.320233226,   0.18881768
   4602,  0.320232451,  0.178802863
   4603,  0.320231676,  0.168788061
   4604,  0.320230901,  0.158773243
   4605,  0.320230126,  0.148758441
   4606,  0.320229352,  0.138743639
   4607,  0.320228577,  0.128728822
   4608,  0.320227802,   0.11871402
   4609,  0.320227027,   0.10869921
   4610,  0.320226282, 0.0986844003
   4611,  0.320225507, 0.0886695907
   4612,  0.320224732, 0.0786547884
   4613,  0.320223957, 0.0686399788
   4614,  0.320223182, 0.0586251691
   4615,  0.320222408, 0.0486103594
   4616,  0.320221633, 0.0385955535
   4617,  0.320220858, 0.0285807438
   4618,  0.320220083,  0.018565936
   4619,  0.330230683,  0.199392989
   4620,  0.330229908,  0.189377233
   4621,  0.330229133,  0.179361492
   4622,  0.330228388,  0.169345751
   4623,  0.330227613,  0.159329996
   4624,  0.330226868,  0.149314255
   4625,  0.330226094,  0.139298499
   4626,  0.330225348,  0.129282758
   4627,  0.330224574,  0.119267009
   4628,  0.330223829,  0.109251261
   4629,  0.330223054, 0.0992355123
   4630,  0.330222309, 0.0892197639
   4631,  0.330221534, 0.0792040154
   4632,  0.330220789, 0.0691882744
   4633,  0.330220014, 0.0591725223
   4634,  0.330219269, 0.0491567776
   4635,  0.330218494, 0.0391410291
   4636,  0.330217749, 0.0291252825
   4637,  0.330216974, 0.0191095341
   4638,  0.340226382,  0.199970722
   4639,  0.340225637,  0.189953998
   4640,  0.340224892,  0.179937288
   4641,  0.340224117,  0.169920579
   4642,  0.340223372,  0.159903854
   4643,  0.340222627,  0.149887145
   4644,  0.340221882,   0.13987042
   4645,  0.340221137,  0.129853711
   4646,  0.340220392,  0.119836994
   4647,  0.340219647,  0.109820284
   4648,  0.340218902, 0.0998035669
   4649,  0.340218157, 0.0897868499
   4650,  0.340217412, 0.0797701329
   4651,  0.340216666, 0.0697534159
   4652,  0.340215921, 0.0597367026
   4653,  0.340215176, 0.0497199893
   4654,  0.340214431, 0.0397032723
   4655,  0.340213686, 0.0296865571
   4656,  0.340212941,  0.019669842
   4657,  0.350221068,  0.200565681
   4658,  0.350220323,  0.190547958
   4659,  0.350219607,   0.18053025
   4660,  0.350218862,  0.170512542
   4661,  0.350218147,  0.160494834
   4662,  0.350217432,  0.150477111
   4663,  0.350216687,  0.140459403
   4664,  0.350215971,  0.130441695
   4665,  0.350215226,   0.12042398
   4666,  0.350214511,  0.110406265
   4667,  0.350213766,  0.100388557
   4668,  0.350213051, 0.0903708413
   4669,  0.350212306, 0.0803531259
   4670,  0.350211591,  0.070335418
   4671,  0.350210845, 0.0603177063
   4672,   0.35021013, 0.0502999946
   4673,  0.350209385, 0.0402822793
   4674,   0.35020867, 0.0302645676
   4675,  0.350207925, 0.0202468559
   4676,   0.36021471,  0.201177865
   4677,  0.360213995,  0.191159114
   4678,   0.36021331,  0.181140378
   4679,  0.360212594,  0.171121642
   4680,  0.360211879,  0.161102906
   4681,  0.360211164,   0.15108417
   4682,  0.360210478,  0.141065434
   4683,  0.360209763,  0.131046697
   4684,  0.360209048,  0.121027954
   4685,  0.360208333,  0.111009218
   4686,  0.360207647,  0.100990482
   4687,  0.360206932, 0.0909717381
   4688,  0.360206217,  0.080953002
   4689,  0.360205501, 0.0709342659
   4690,  0.360204816,  0.060915526
   4691,  0.360204101, 0.0508967899
   4692,  0.360203385, 0.0408780538
   4693,   0.36020267, 0.0308593139
   4694,  0.360201955, 0.0208405759
   4695,   0.37020731,  0.201807261
   4696,  0.370206624,  0.191787466
   4697,  0.370205939,  0.181767672
   4698,  0.370205253,  0.171747878
   4699,  0.370204568,  0.161728099
   4700,  0.370203882,  0.151708305
   4701,  0.370203197,  0.141688511
   4702,  0.370202512,  0.131668717
   4703,  0.370201826,  0.121648923
   4704,  0.370201141,  0.111629128
   4705,  0.370200455,  0.101609342
   4706,   0.37019977, 0.0915895477
   4707,  0.370199084, 0.0815697536
   4708,  0.370198399, 0.0715499595
   4709,  0.370197713, 0.0615301691
   4710,  0.370197028, 0.0515103787
   4711,  0.370196372, 0.0414905846
   4712,  0.370195687, 0.0314707942
   4713,  0.370195001, 0.0214510001
   4714,  0.380198777,  0.202453882
   4715,  0.380198121,  0.192433015
   4716,  0.380197465,  0.182412133
   4717,   0.38019681,  0.172391266
   4718,  0.380196154,  0.162370384
   4719,  0.380195498,  0.152349502
   4720,  0.380194843,  0.142328635
   4721,  0.380194187,  0.132307753
   4722,  0.380193532,  0.122286879
   4723,  0.380192876,  0.112266004
   4724,   0.38019222,   0.10224513
   4725,  0.380191565, 0.0922242552
   4726,  0.380190909, 0.0822033808
   4727,  0.380190253, 0.0721825063
   4728,  0.380189598, 0.0621616282
   4729,  0.380188942, 0.0521407537
   4730,  0.380188286, 0.0421198793
   4731,  0.380187631, 0.0320990011
   4732,  0.380186975, 0.0220781267
   4733,  0.390189141,  0.203117728
   4734,  0.390188515,  0.193095744
   4735,  0.390187889,  0.183073759
   4736,  0.390187263,   0.17305176
   4737,  0.390186638,  0.163029775
   4738,  0.390186012,   0.15300779
   4739,  0.390185386,  0.142985806
   4740,   0.39018476,  0.132963821
   4741,  0.390184134,  0.122941829
   4742,  0.390183508,  0.112919845
   4743,  0.390182883,  0.102897853
   4744,  0.390182257, 0.0928758681
   4745,  0.390181661, 0.0828538761
   4746,  0.390181035, 0.0728318915
   4747,  0.390180409, 0.0628099069
   4748,  0.390179783, 0.0527879149
   4749,  0.390179157, 0.0427659303
   4750,  0.390178531,  0.032743942
   4751,  0.390177906, 0.0227219537
   4752,  0.400178313,  0.203798786
   4753,  0.400177747,  0.193775654
   4754,  0.400177151,  0.183752537
   4755,  0.400176555,  0.173729405
   4756,  0.400175989,  0.163706273
   4757,  0.400175393,  0.153683141
   4758,  0.400174797,  0.143660024
   4759,  0.400174201,  0.133636892
   4760,  0.400173634,   0.12361376
   4761,  0.400173038,  0.113590635
   4762,  0.400172442,  0.103567503
   4763,  0.400171846, 0.0935443789
   4764,   0.40017128, 0.0835212469
   4765,  0.400170684, 0.0734981224
   4766,  0.400170088, 0.0634749904
   4767,  0.400169492, 0.0534518659
   4768,  0.400168926, 0.0434287377
   4769,  0.400168329, 0.0334056094
   4770,  0.400167733, 0.0233824793
   4771,  0.410166323,  0.204497054
   4772,  0.410165787,   0.19447276
   4773,   0.41016525,  0.184448466
   4774,  0.410164684,  0.174424171
   4775,  0.410164148,  0.164399862
   4776,  0.410163581,  0.154375568
   4777,  0.410163045,  0.144351274
   4778,  0.410162479,   0.13432698
   4779,  0.410161942,  0.124302678
   4780,  0.410161406,  0.114278384
   4781,   0.41016084,  0.104254082
   4782,  0.410160303, 0.0942297876
   4783,  0.410159737, 0.0842054859
   4784,    0.4101592, 0.0741811916
   4785,  0.410158664, 0.0641568899
   4786,  0.410158098, 0.0541325957
   4787,  0.410157561, 0.0441082977
   4788,  0.410156995, 0.0340839997
   4789,  0.410156459, 0.0240597036
   4790,  0.420153111,  0.205212548
   4791,  0.420152605,  0.195187047
   4792,  0.420152098,  0.185161546
   4793,  0.420151591,   0.17513606
   4794,  0.420151114,  0.165110558
   4795,  0.420150608,  0.155085072
   4796,  0.420150101,  0.145059571
   4797,  0.420149595,  0.135034069
   4798,  0.420149088,  0.125008583
   4799,  0.420148581,  0.114983082
   4800,  0.420148075,  0.104957588
   4801,  0.420147568, 0.0949320942
   4802,  0.420147061,  0.084906593
   4803,  0.420146555, 0.0748810992
   4804,  0.420146048, 0.0648556054
   4805,  0.420145541, 0.0548301078
   4806,  0.420145035,  0.044804614
   4807,  0.420144528, 0.0347791165
   4808,  0.420144022, 0.0247536208
   4809,  0.430138648,  0.205945238
   4810,  0.430138201,  0.195918515
   4811,  0.430137753,  0.185891792
   4812,  0.430137277,  0.175865069
   4813,   0.43013683,  0.165838346
   4814,  0.430136383,  0.155811623
   4815,  0.430135906,    0.1457849
   4816,  0.430135459,  0.135758176
   4817,  0.430135012,  0.125731453
   4818,  0.430134535,  0.115704738
   4819,  0.430134088,  0.105678014
   4820,  0.430133641, 0.0956512913
   4821,  0.430133164, 0.0856245682
   4822,  0.430132717,  0.075597845
   4823,   0.43013227, 0.0655711219
   4824,  0.430131793, 0.0555443987
   4825,  0.430131346, 0.0455176756
   4826,  0.430130899, 0.0354909562
   4827,  0.430130422, 0.0254642311
   4828,  0.440122932,  0.206695139
   4829,  0.440122515,  0.196667165
   4830,  0.440122098,   0.18663919
   4831,   0.44012171,  0.176611215
   4832,  0.440121293,  0.166583225
   4833,  0.440120906,   0.15655525
   4834,  0.440120488,  0.146527275
   4835,  0.440120071,  0.136499301
   4836,  0.440119684,  0.126471311
   4837,  0.440119267,  0.116443336
   4838,  0.440118879,  0.106415361
   4839,  0.440118462, 0.0963873789
   4840,  0.440118045,  0.086359404
   4841,  0.440117657, 0.0763314217
   4842,   0.44011724, 0.0663034469
   4843,  0.440116853, 0.0562754683
   4844,  0.440116435, 0.0462474898
   4845,  0.440116018, 0.0362195112
   4846,  0.440115631, 0.0261915345
   4847,  0.450105876,  0.207462251
   4848,  0.450105518,  0.197432995
   4849,   0.45010519,  0.187403724
   4850,  0.450104833,  0.177374467
   4851,  0.450104475,  0.167345196
   4852,  0.450104117,   0.15731594
   4853,   0.45010379,  0.147286683
   4854,  0.450103432,  0.137257412
   4855,  0.450103074,  0.127228156
   4856,  0.450102746,  0.117198892
   4857,  0.450102389,  0.107169628
   4858,  0.450102031, 0.0971403643
   4859,  0.450101674, 0.0871111006
   4860,  0.450101346, 0.0770818368
   4861,  0.450100988,  0.067052573
   4862,  0.450100631, 0.0570233129
   4863,  0.450100303, 0.0469940491
   4864,  0.450099945,  0.036964789
   4865,  0.450099587, 0.0269355252
   4866,  0.460087478,  0.208246559
   4867,   0.46008721,  0.198215991
   4868,  0.460086912,  0.188185409
   4869,  0.460086614,  0.178154841
   4870,  0.460086346,  0.168124259
   4871,  0.460086048,  0.158093691
   4872,   0.46008575,  0.148063108
   4873,  0.460085481,  0.138032541
   4874,  0.460085183,  0.128001958
   4875,  0.460084885,  0.117971383
   4876,  0.460084617,  0.107940808
   4877,  0.460084319, 0.0979102328
   4878,  0.460084021, 0.0878796577
   4879,  0.460083753, 0.0778490826
   4880,  0.460083455, 0.0678185076
   4881,  0.460083157, 0.0577879287
   4882,  0.460082889, 0.0477573536
   4883,  0.460082591, 0.0377267785
   4884,  0.460082293, 0.0276962034
   4885,  0.470067739,  0.209048077
   4886,  0.470067531,  0.199016154
   4887,  0.470067292,  0.188984245
   4888,  0.470067084,  0.178952321
   4889,  0.470066845,  0.168920413
   4890,  0.470066637,  0.158888489
   4891,  0.470066398,   0.14885658
   4892,   0.47006619,  0.138824657
   4893,  0.470065951,  0.128792733
   4894,  0.470065743,  0.118760824
   4895,  0.470065504,  0.108728908
   4896,  0.470065296, 0.0986969844
   4897,  0.470065057, 0.0886650681
   4898,  0.470064849, 0.0786331519
   4899,   0.47006461, 0.0686012357
   4900,  0.470064402, 0.0585693195
   4901,  0.470064163, 0.0485373996
   4902,  0.470063955, 0.0385054834
   4903,  0.470063716, 0.0284735654
   4904,    0.4800466,  0.209866792
   4905,  0.480046451,  0.199833497
   4906,  0.480046302,  0.189800218
   4907,  0.480046123,  0.179766923
   4908,  0.480045974,  0.169733644
   4909,  0.480045825,  0.159700349
   4910,  0.480045676,  0.149667069
   4911,  0.480045527,  0.139633775
   4912,  0.480045378,  0.129600495
   4913,  0.480045229,  0.119567201
   4914,   0.48004505,  0.109533913
   4915,  0.480044901, 0.0995006263
   4916,  0.480044752, 0.0894673392
   4917,  0.480044603, 0.0794340521
   4918,  0.480044454,  0.069400765
   4919,  0.480044305, 0.0593674742
   4920,  0.480044127, 0.0493341871
   4921,  0.480043977,    0.0393009
   4922,  0.480043828, 0.0292676128
   4923,   0.49002403,  0.210702702
   4924,  0.490023941,  0.200668007
   4925,  0.490023881,  0.190633327
   4926,  0.490023792,  0.180598632
   4927,  0.490023702,  0.170563951
   4928,  0.490023643,  0.160529271
   4929,  0.490023553,  0.150494576
   4930,  0.490023464,  0.140459895
   4931,  0.490023404,    0.1304252
   4932,  0.490023315,  0.120390519
   4933,  0.490023226,  0.110355832
   4934,  0.490023166,  0.100321144
   4935,  0.490023077,  0.090286456
   4936,  0.490022987, 0.0802517682
   4937,  0.490022928, 0.0702170879
   4938,  0.490022838,    0.0601824
   4939,  0.490022749, 0.0501477122
   4940,  0.490022689, 0.0401130244
   4941,    0.4900226, 0.0300783385
*Element, type=CPE4
   1,    1,    9,  458,  244
   2,    9,   10,  459,  458
   3,   10,   11,  460,  459
   4,   11,   12,  461,  460
   5,   12,   13,  462,  461
   6,   13,   14,  463,  462
   7,   14,   15,  464,  463
   8,   15,   16,  465,  464
   9,   16,   17,  466,  465
  10,   17,   18,  467,  466
  11,   18,   19,  468,  467
  12,   19,   20,  469,  468
  13,   20,   21,  470,  469
  14,   21,   22,  471,  470
  15,   22,   23,  472,  471
  16,   23,   24,  473,  472
  17,   24,   25,  474,  473
  18,   25,   26,  475,  474
  19,   26,   27,  476,  475
  20,   27,    2,   28,  476
  21,  244,  458,  477,  243
  22,  458,  459,  478,  477
  23,  459,  460,  479,  478
  24,  460,  461,  480,  479
  25,  461,  462,  481,  480
  26,  462,  463,  482,  481
  27,  463,  464,  483,  482
  28,  464,  465,  484,  483
  29,  465,  466,  485,  484
  30,  466,  467,  486,  485
  31,  467,  468,  487,  486
  32,  468,  469,  488,  487
  33,  469,  470,  489,  488
  34,  470,  471,  490,  489
  35,  471,  472,  491,  490
  36,  472,  473,  492,  491
  37,  473,  474,  493,  492
  38,  474,  475,  494,  493
  39,  475,  476,  495,  494
  40,  476,   28,   29,  495
  41,  243,  477,  496,  242
  42,  477,  478,  497,  496
  43,  478,  479,  498,  497
  44,  479,  480,  499,  498
  45,  480,  481,  500,  499
  46,  481,  482,  501,  500
  47,  482,  483,  502,  501
  48,  483,  484,  503,  502
  49,  484,  485,  504,  503
  50,  485,  486,  505,  504
  51,  486,  487,  506,  505
  52,  487,  488,  507,  506
  53,  488,  489,  508,  507
  54,  489,  490,  509,  508
  55,  490,  491,  510,  509
  56,  491,  492,  511,  510
  57,  492,  493,  512,  511
  58,  493,  494,  513,  512
  59,  494,  495,  514,  513
  60,  495,   29,   30,  514
  61,  242,  496,  515,  241
  62,  496,  497,  516,  515
  63,  497,  498,  517,  516
  64,  498,  499,  518,  517
  65,  499,  500,  519,  518
  66,  500,  501,  520,  519
  67,  501,  502,  521,  520
  68,  502,  503,  522,  521
  69,  503,  504,  523,  522
  70,  504,  505,  524,  523
  71,  505,  506,  525,  524
  72,  506,  507,  526,  525
  73,  507,  508,  527,  526
  74,  508,  509,  528,  527
  75,  509,  510,  529,  528
  76,  510,  511,  530,  529
  77,  511,  512,  531,  530
  78,  512,  513,  532,  531
  79,  513,  514,  533,  532
  80,  514,   30,   31,  533
  81,  241,  515,  534,  240
  82,  515,  516,  535,  534
  83,  516,  517,  536,  535
  84,  517,  518,  537,  536
  85,  518,  519,  538,  537
  86,  519,  520,  539,  538
  87,  520,  521,  540,  539
  88,  521,  522,  541,  540
  89,  522,  523,  542,  541
  90,  523,  524,  543,  542
  91,  524,  525,  544,  543
  92,  525,  526,  545,  544
  93,  526,  527,  546,  545
  94,  527,  528,  547,  546
  95,  528,  529,  548,  547
  96,  529,  530,  549,  548
  97,  530,  531,  550,  549
  98,  531,  532,  551,  550
  99,  532,  533,  552,  551
 100,  533,   31,   32,  552
 101,  240,  534,  553,  239
 102,  534,  535,  554,  553
 103,  535,  536,  555,  554
 104,  536,  537,  556,  555
 105,  537,  538,  557,  556
 106,  538,  539,  558,  557
 107,  539,  540,  559,  558
 108,  540,  541,  560,  559
 109,  541,  542,  561,  560
 110,  542,  543,  562,  561
 111,  543,  544,  563,  562
 112,  544,  545,  564,  563
 113,  545,  546,  565,  564
 114,  546,  547,  566,  565
 115,  547,  548,  567,  566
 116,  548,  549,  568,  567
 117,  549,  550,  569,  568
 118,  550,  551,  570,  569
 119,  551,  552,  571,  570
 120,  552,   32,   33,  571
 121,  239,  553,  572,  238
 122,  553,  554,  573,  572
 123,  554,  555,  574,  573
 124,  555,  556,  575,  574
 125,  556,  557,  576,  575
 126,  557,  558,  577,  576
 127,  558,  559,  578,  577
 128,  559,  560,  579,  578
 129,  560,  561,  580,  579
 130,  561,  562,  581,  580
 131,  562,  563,  582,  581
 132,  563,  564,  583,  582
 133,  564,  565,  584,  583
 134,  565,  566,  585,  584
 135,  566,  567,  586,  585
 136,  567,  568,  587,  586
 137,  568,  569,  588,  587
 138,  569,  570,  589,  588
 139,  570,  571,  590,  589
 140,  571,   33,   34,  590
 141,  238,  572,  591,  237
 142,  572,  573,  592,  591
 143,  573,  574,  593,  592
 144,  574,  575,  594,  593
 145,  575,  576,  595,  594
 146,  576,  577,  596,  595
 147,  577,  578,  597,  596
 148,  578,  579,  598,  597
 149,  579,  580,  599,  598
 150,  580,  581,  600,  599
 151,  581,  582,  601,  600
 152,  582,  583,  602,  601
 153,  583,  584,  603,  602
 154,  584,  585,  604,  603
 155,  585,  586,  605,  604
 156,  586,  587,  606,  605
 157,  587,  588,  607,  606
 158,  588,  589,  608,  607
 159,  589,  590,  609,  608
 160,  590,   34,   35,  609
 161,  237,  591,  610,  236
 162,  591,  592,  611,  610
 163,  592,  593,  612,  611
 164,  593,  594,  613,  612
 165,  594,  595,  614,  613
 166,  595,  596,  615,  614
 167,  596,  597,  616,  615
 168,  597,  598,  617,  616
 169,  598,  599,  618,  617
 170,  599,  600,  619,  618
 171,  600,  601,  620,  619
 172,  601,  602,  621,  620
 173,  602,  603,  622,  621
 174,  603,  604,  623,  622
 175,  604,  605,  624,  623
 176,  605,  606,  625,  624
 177,  606,  607,  626,  625
 178,  607,  608,  627,  626
 179,  608,  609,  628,  627
 180,  609,   35,   36,  628
 181,  236,  610,  629,  235
 182,  610,  611,  630,  629
 183,  611,  612,  631,  630
 184,  612,  613,  632,  631
 185,  613,  614,  633,  632
 186,  614,  615,  634,  633
 187,  615,  616,  635,  634
 188,  616,  617,  636,  635
 189,  617,  618,  637,  636
 190,  618,  619,  638,  637
 191,  619,  620,  639,  638
 192,  620,  621,  640,  639
 193,  621,  622,  641,  640
 194,  622,  623,  642,  641
 195,  623,  624,  643,  642
 196,  624,  625,  644,  643
 197,  625,  626,  645,  644
 198,  626,  627,  646,  645
 199,  627,  628,  647,  646
 200,  628,   36,   37,  647
 201,  235,  629,  648,  234
 202,  629,  630,  649,  648
 203,  630,  631,  650,  649
 204,  631,  632,  651,  650
 205,  632,  633,  652,  651
 206,  633,  634,  653,  652
 207,  634,  635,  654,  653
 208,  635,  636,  655,  654
 209,  636,  637,  656,  655
 210,  637,  638,  657,  656
 211,  638,  639,  658,  657
 212,  639,  640,  659,  658
 213,  640,  641,  660,  659
 214,  641,  642,  661,  660
 215,  642,  643,  662,  661
 216,  643,  644,  663,  662
 217,  644,  645,  664,  663
 218,  645,  646,  665,  664
 219,  646,  647,  666,  665
 220,  647,   37,   38,  666
 221,  234,  648,  667,  233
 222,  648,  649,  668,  667
 223,  649,  650,  669,  668
 224,  650,  651,  670,  669
 225,  651,  652,  671,  670
 226,  652,  653,  672,  671
 227,  653,  654,  673,  672
 228,  654,  655,  674,  673
 229,  655,  656,  675,  674
 230,  656,  657,  676,  675
 231,  657,  658,  677,  676
 232,  658,  659,  678,  677
 233,  659,  660,  679,  678
 234,  660,  661,  680,  679
 235,  661,  662,  681,  680
 236,  662,  663,  682,  681
 237,  663,  664,  683,  682
 238,  664,  665,  684,  683
 239,  665,  666,  685,  684
 240,  666,   38,   39,  685
 241,  233,  667,  686,  232
 242,  667,  668,  687,  686
 243,  668,  669,  688,  687
 244,  669,  670,  689,  688
 245,  670,  671,  690,  689
 246,  671,  672,  691,  690
 247,  672,  673,  692,  691
 248,  673,  674,  693,  692
 249,  674,  675,  694,  693
 250,  675,  676,  695,  694
 251,  676,  677,  696,  695
 252,  677,  678,  697,  696
 253,  678,  679,  698,  697
 254,  679,  680,  699,  698
 255,  680,  681,  700,  699
 256,  681,  682,  701,  700
 257,  682,  683,  702,  701
 258,  683,  684,  703,  702
 259,  684,  685,  704,  703
 260,  685,   39,   40,  704
 261,  232,  686,  705,  231
 262,  686,  687,  706,  705
 263,  687,  688,  707,  706
 264,  688,  689,  708,  707
 265,  689,  690,  709,  708
 266,  690,  691,  710,  709
 267,  691,  692,  711,  710
 268,  692,  693,  712,  711
 269,  693,  694,  713,  712
 270,  694,  695,  714,  713
 271,  695,  696,  715,  714
 272,  696,  697,  716,  715
 273,  697,  698,  717,  716
 274,  698,  699,  718,  717
 275,  699,  700,  719,  718
 276,  700,  701,  720,  719
 277,  701,  702,  721,  720
 278,  702,  703,  722,  721
 279,  703,  704,  723,  722
 280,  704,   40,   41,  723
 281,  231,  705,  724,  230
 282,  705,  706,  725,  724
 283,  706,  707,  726,  725
 284,  707,  708,  727,  726
 285,  708,  709,  728,  727
 286,  709,  710,  729,  728
 287,  710,  711,  730,  729
 288,  711,  712,  731,  730
 289,  712,  713,  732,  731
 290,  713,  714,  733,  732
 291,  714,  715,  734,  733
 292,  715,  716,  735,  734
 293,  716,  717,  736,  735
 294,  717,  718,  737,  736
 295,  718,  719,  738,  737
 296,  719,  720,  739,  738
 297,  720,  721,  740,  739
 298,  721,  722,  741,  740
 299,  722,  723,  742,  741
 300,  723,   41,   42,  742
 301,  230,  724,  743,  229
 302,  724,  725,  744,  743
 303,  725,  726,  745,  744
 304,  726,  727,  746,  745
 305,  727,  728,  747,  746
 306,  728,  729,  748,  747
 307,  729,  730,  749,  748
 308,  730,  731,  750,  749
 309,  731,  732,  751,  750
 310,  732,  733,  752,  751
 311,  733,  734,  753,  752
 312,  734,  735,  754,  753
 313,  735,  736,  755,  754
 314,  736,  737,  756,  755
 315,  737,  738,  757,  756
 316,  738,  739,  758,  757
 317,  739,  740,  759,  758
 318,  740,  741,  760,  759
 319,  741,  742,  761,  760
 320,  742,   42,   43,  761
 321,  229,  743,  762,  228
 322,  743,  744,  763,  762
 323,  744,  745,  764,  763
 324,  745,  746,  765,  764
 325,  746,  747,  766,  765
 326,  747,  748,  767,  766
 327,  748,  749,  768,  767
 328,  749,  750,  769,  768
 329,  750,  751,  770,  769
 330,  751,  752,  771,  770
 331,  752,  753,  772,  771
 332,  753,  754,  773,  772
 333,  754,  755,  774,  773
 334,  755,  756,  775,  774
 335,  756,  757,  776,  775
 336,  757,  758,  777,  776
 337,  758,  759,  778,  777
 338,  759,  760,  779,  778
 339,  760,  761,  780,  779
 340,  761,   43,   44,  780
 341,  228,  762,  781,  227
 342,  762,  763,  782,  781
 343,  763,  764,  783,  782
 344,  764,  765,  784,  783
 345,  765,  766,  785,  784
 346,  766,  767,  786,  785
 347,  767,  768,  787,  786
 348,  768,  769,  788,  787
 349,  769,  770,  789,  788
 350,  770,  771,  790,  789
 351,  771,  772,  791,  790
 352,  772,  773,  792,  791
 353,  773,  774,  793,  792
 354,  774,  775,  794,  793
 355,  775,  776,  795,  794
 356,  776,  777,  796,  795
 357,  777,  778,  797,  796
 358,  778,  779,  798,  797
 359,  779,  780,  799,  798
 360,  780,   44,   45,  799
 361,  227,  781,  800,  226
 362,  781,  782,  801,  800
 363,  782,  783,  802,  801
 364,  783,  784,  803,  802
 365,  784,  785,  804,  803
 366,  785,  786,  805,  804
 367,  786,  787,  806,  805
 368,  787,  788,  807,  806
 369,  788,  789,  808,  807
 370,  789,  790,  809,  808
 371,  790,  791,  810,  809
 372,  791,  792,  811,  810
 373,  792,  793,  812,  811
 374,  793,  794,  813,  812
 375,  794,  795,  814,  813
 376,  795,  796,  815,  814
 377,  796,  797,  816,  815
 378,  797,  798,  817,  816
 379,  798,  799,  818,  817
 380,  799,   45,   46,  818
 381,  226,  800,  819,  225
 382,  800,  801,  820,  819
 383,  801,  802,  821,  820
 384,  802,  803,  822,  821
 385,  803,  804,  823,  822
 386,  804,  805,  824,  823
 387,  805,  806,  825,  824
 388,  806,  807,  826,  825
 389,  807,  808,  827,  826
 390,  808,  809,  828,  827
 391,  809,  810,  829,  828
 392,  810,  811,  830,  829
 393,  811,  812,  831,  830
 394,  812,  813,  832,  831
 395,  813,  814,  833,  832
 396,  814,  815,  834,  833
 397,  815,  816,  835,  834
 398,  816,  817,  836,  835
 399,  817,  818,  837,  836
 400,  818,   46,   47,  837
 401,  225,  819,  838,  224
 402,  819,  820,  839,  838
 403,  820,  821,  840,  839
 404,  821,  822,  841,  840
 405,  822,  823,  842,  841
 406,  823,  824,  843,  842
 407,  824,  825,  844,  843
 408,  825,  826,  845,  844
 409,  826,  827,  846,  845
 410,  827,  828,  847,  846
 411,  828,  829,  848,  847
 412,  829,  830,  849,  848
 413,  830,  831,  850,  849
 414,  831,  832,  851,  850
 415,  832,  833,  852,  851
 416,  833,  834,  853,  852
 417,  834,  835,  854,  853
 418,  835,  836,  855,  854
 419,  836,  837,  856,  855
 420,  837,   47,   48,  856
 421,  224,  838,  857,  223
 422,  838,  839,  858,  857
 423,  839,  840,  859,  858
 424,  840,  841,  860,  859
 425,  841,  842,  861,  860
 426,  842,  843,  862,  861
 427,  843,  844,  863,  862
 428,  844,  845,  864,  863
 429,  845,  846,  865,  864
 430,  846,  847,  866,  865
 431,  847,  848,  867,  866
 432,  848,  849,  868,  867
 433,  849,  850,  869,  868
 434,  850,  851,  870,  869
 435,  851,  852,  871,  870
 436,  852,  853,  872,  871
 437,  853,  854,  873,  872
 438,  854,  855,  874,  873
 439,  855,  856,  875,  874
 440,  856,   48,   49,  875
 441,  223,  857,  876,  222
 442,  857,  858,  877,  876
 443,  858,  859,  878,  877
 444,  859,  860,  879,  878
 445,  860,  861,  880,  879
 446,  861,  862,  881,  880
 447,  862,  863,  882,  881
 448,  863,  864,  883,  882
 449,  864,  865,  884,  883
 450,  865,  866,  885,  884
 451,  866,  867,  886,  885
 452,  867,  868,  887,  886
 453,  868,  869,  888,  887
 454,  869,  870,  889,  888
 455,  870,  871,  890,  889
 456,  871,  872,  891,  890
 457,  872,  873,  892,  891
 458,  873,  874,  893,  892
 459,  874,  875,  894,  893
 460,  875,   49,   50,  894
 461,  222,  876,  895,  221
 462,  876,  877,  896,  895
 463,  877,  878,  897,  896
 464,  878,  879,  898,  897
 465,  879,  880,  899,  898
 466,  880,  881,  900,  899
 467,  881,  882,  901,  900
 468,  882,  883,  902,  901
 469,  883,  884,  903,  902
 470,  884,  885,  904,  903
 471,  885,  886,  905,  904
 472,  886,  887,  906,  905
 473,  887,  888,  907,  906
 474,  888,  889,  908,  907
 475,  889,  890,  909,  908
 476,  890,  891,  910,  909
 477,  891,  892,  911,  910
 478,  892,  893,  912,  911
 479,  893,  894,  913,  912
 480,  894,   50,   51,  913
 481,  221,  895,  914,  220
 482,  895,  896,  915,  914
 483,  896,  897,  916,  915
 484,  897,  898,  917,  916
 485,  898,  899,  918,  917
 486,  899,  900,  919,  918
 487,  900,  901,  920,  919
 488,  901,  902,  921,  920
 489,  902,  903,  922,  921
 490,  903,  904,  923,  922
 491,  904,  905,  924,  923
 492,  905,  906,  925,  924
 493,  906,  907,  926,  925
 494,  907,  908,  927,  926
 495,  908,  909,  928,  927
 496,  909,  910,  929,  928
 497,  910,  911,  930,  929
 498,  911,  912,  931,  930
 499,  912,  913,  932,  931
 500,  913,   51,   52,  932
 501,  220,  914,  933,  219
 502,  914,  915,  934,  933
 503,  915,  916,  935,  934
 504,  916,  917,  936,  935
 505,  917,  918,  937,  936
 506,  918,  919,  938,  937
 507,  919,  920,  939,  938
 508,  920,  921,  940,  939
 509,  921,  922,  941,  940
 510,  922,  923,  942,  941
 511,  923,  924,  943,  942
 512,  924,  925,  944,  943
 513,  925,  926,  945,  944
 514,  926,  927,  946,  945
 515,  927,  928,  947,  946
 516,  928,  929,  948,  947
 517,  929,  930,  949,  948
 518,  930,  931,  950,  949
 519,  931,  932,  951,  950
 520,  932,   52,   53,  951
 521,  219,  933,  952,  218
 522,  933,  934,  953,  952
 523,  934,  935,  954,  953
 524,  935,  936,  955,  954
 525,  936,  937,  956,  955
 526,  937,  938,  957,  956
 527,  938,  939,  958,  957
 528,  939,  940,  959,  958
 529,  940,  941,  960,  959
 530,  941,  942,  961,  960
 531,  942,  943,  962,  961
 532,  943,  944,  963,  962
 533,  944,  945,  964,  963
 534,  945,  946,  965,  964
 535,  946,  947,  966,  965
 536,  947,  948,  967,  966
 537,  948,  949,  968,  967
 538,  949,  950,  969,  968
 539,  950,  951,  970,  969
 540,  951,   53,   54,  970
 541,  218,  952,  971,  217
 542,  952,  953,  972,  971
 543,  953,  954,  973,  972
 544,  954,  955,  974,  973
 545,  955,  956,  975,  974
 546,  956,  957,  976,  975
 547,  957,  958,  977,  976
 548,  958,  959,  978,  977
 549,  959,  960,  979,  978
 550,  960,  961,  980,  979
 551,  961,  962,  981,  980
 552,  962,  963,  982,  981
 553,  963,  964,  983,  982
 554,  964,  965,  984,  983
 555,  965,  966,  985,  984
 556,  966,  967,  986,  985
 557,  967,  968,  987,  986
 558,  968,  969,  988,  987
 559,  969,  970,  989,  988
 560,  970,   54,   55,  989
 561,  217,  971,  990,  216
 562,  971,  972,  991,  990
 563,  972,  973,  992,  991
 564,  973,  974,  993,  992
 565,  974,  975,  994,  993
 566,  975,  976,  995,  994
 567,  976,  977,  996,  995
 568,  977,  978,  997,  996
 569,  978,  979,  998,  997
 570,  979,  980,  999,  998
 571,  980,  981, 1000,  999
 572,  981,  982, 1001, 1000
 573,  982,  983, 1002, 1001
 574,  983,  984, 1003, 1002
 575,  984,  985, 1004, 1003
 576,  985,  986, 1005, 1004
 577,  986,  987, 1006, 1005
 578,  987,  988, 1007, 1006
 579,  988,  989, 1008, 1007
 580,  989,   55,   56, 1008
 581,  216,  990, 1009,  215
 582,  990,  991, 1010, 1009
 583,  991,  992, 1011, 1010
 584,  992,  993, 1012, 1011
 585,  993,  994, 1013, 1012
 586,  994,  995, 1014, 1013
 587,  995,  996, 1015, 1014
 588,  996,  997, 1016, 1015
 589,  997,  998, 1017, 1016
 590,  998,  999, 1018, 1017
 591,  999, 1000, 1019, 1018
 592, 1000, 1001, 1020, 1019
 593, 1001, 1002, 1021, 1020
 594, 1002, 1003, 1022, 1021
 595, 1003, 1004, 1023, 1022
 596, 1004, 1005, 1024, 1023
 597, 1005, 1006, 1025, 1024
 598, 1006, 1007, 1026, 1025
 599, 1007, 1008, 1027, 1026
 600, 1008,   56,   57, 1027
 601,  215, 1009, 1028,  214
 602, 1009, 1010, 1029, 1028
 603, 1010, 1011, 1030, 1029
 604, 1011, 1012, 1031, 1030
 605, 1012, 1013, 1032, 1031
 606, 1013, 1014, 1033, 1032
 607, 1014, 1015, 1034, 1033
 608, 1015, 1016, 1035, 1034
 609, 1016, 1017, 1036, 1035
 610, 1017, 1018, 1037, 1036
 611, 1018, 1019, 1038, 1037
 612, 1019, 1020, 1039, 1038
 613, 1020, 1021, 1040, 1039
 614, 1021, 1022, 1041, 1040
 615, 1022, 1023, 1042, 1041
 616, 1023, 1024, 1043, 1042
 617, 1024, 1025, 1044, 1043
 618, 1025, 1026, 1045, 1044
 619, 1026, 1027, 1046, 1045
 620, 1027,   57,   58, 1046
 621,  214, 1028, 1047,  213
 622, 1028, 1029, 1048, 1047
 623, 1029, 1030, 1049, 1048
 624, 1030, 1031, 1050, 1049
 625, 1031, 1032, 1051, 1050
 626, 1032, 1033, 1052, 1051
 627, 1033, 1034, 1053, 1052
 628, 1034, 1035, 1054, 1053
 629, 1035, 1036, 1055, 1054
 630, 1036, 1037, 1056, 1055
 631, 1037, 1038, 1057, 1056
 632, 1038, 1039, 1058, 1057
 633, 1039, 1040, 1059, 1058
 634, 1040, 1041, 1060, 1059
 635, 1041, 1042, 1061, 1060
 636, 1042, 1043, 1062, 1061
 637, 1043, 1044, 1063, 1062
 638, 1044, 1045, 1064, 1063
 639, 1045, 1046, 1065, 1064
 640, 1046,   58,   59, 1065
 641,  213, 1047, 1066,  212
 642, 1047, 1048, 1067, 1066
 643, 1048, 1049, 1068, 1067
 644, 1049, 1050, 1069, 1068
 645, 1050, 1051, 1070, 1069
 646, 1051, 1052, 1071, 1070
 647, 1052, 1053, 1072, 1071
 648, 1053, 1054, 1073, 1072
 649, 1054, 1055, 1074, 1073
 650, 1055, 1056, 1075, 1074
 651, 1056, 1057, 1076, 1075
 652, 1057, 1058, 1077, 1076
 653, 1058, 1059, 1078, 1077
 654, 1059, 1060, 1079, 1078
 655, 1060, 1061, 1080, 1079
 656, 1061, 1062, 1081, 1080
 657, 1062, 1063, 1082, 1081
 658, 1063, 1064, 1083, 1082
 659, 1064, 1065, 1084, 1083
 660, 1065,   59,   60, 1084
 661,  212, 1066, 1085,  211
 662, 1066, 1067, 1086, 1085
 663, 1067, 1068, 1087, 1086
 664, 1068, 1069, 1088, 1087
 665, 1069, 1070, 1089, 1088
 666, 1070, 1071, 1090, 1089
 667, 1071, 1072, 1091, 1090
 668, 1072, 1073, 1092, 1091
 669, 1073, 1074, 1093, 1092
 670, 1074, 1075, 1094, 1093
 671, 1075, 1076, 1095, 1094
 672, 1076, 1077, 1096, 1095
 673, 1077, 1078, 1097, 1096
 674, 1078, 1079, 1098, 1097
 675, 1079, 1080, 1099, 1098
 676, 1080, 1081, 1100, 1099
 677, 1081, 1082, 1101, 1100
 678, 1082, 1083, 1102, 1101
 679, 1083, 1084, 1103, 1102
 680, 1084,   60,   61, 1103
 681,  211, 1085, 1104,  210
 682, 1085, 1086, 1105, 1104
 683, 1086, 1087, 1106, 1105
 684, 1087, 1088, 1107, 1106
 685, 1088, 1089, 1108, 1107
 686, 1089, 1090, 1109, 1108
 687, 1090, 1091, 1110, 1109
 688, 1091, 1092, 1111, 1110
 689, 1092, 1093, 1112, 1111
 690, 1093, 1094, 1113, 1112
 691, 1094, 1095, 1114, 1113
 692, 1095, 1096, 1115, 1114
 693, 1096, 1097, 1116, 1115
 694, 1097, 1098, 1117, 1116
 695, 1098, 1099, 1118, 1117
 696, 1099, 1100, 1119, 1118
 697, 1100, 1101, 1120, 1119
 698, 1101, 1102, 1121, 1120
 699, 1102, 1103, 1122, 1121
 700, 1103,   61,   62, 1122
 701,  210, 1104, 1123,  209
 702, 1104, 1105, 1124, 1123
 703, 1105, 1106, 1125, 1124
 704, 1106, 1107, 1126, 1125
 705, 1107, 1108, 1127, 1126
 706, 1108, 1109, 1128, 1127
 707, 1109, 1110, 1129, 1128
 708, 1110, 1111, 1130, 1129
 709, 1111, 1112, 1131, 1130
 710, 1112, 1113, 1132, 1131
 711, 1113, 1114, 1133, 1132
 712, 1114, 1115, 1134, 1133
 713, 1115, 1116, 1135, 1134
 714, 1116, 1117, 1136, 1135
 715, 1117, 1118, 1137, 1136
 716, 1118, 1119, 1138, 1137
 717, 1119, 1120, 1139, 1138
 718, 1120, 1121, 1140, 1139
 719, 1121, 1122, 1141, 1140
 720, 1122,   62,   63, 1141
 721,  209, 1123, 1142,  208
 722, 1123, 1124, 1143, 1142
 723, 1124, 1125, 1144, 1143
 724, 1125, 1126, 1145, 1144
 725, 1126, 1127, 1146, 1145
 726, 1127, 1128, 1147, 1146
 727, 1128, 1129, 1148, 1147
 728, 1129, 1130, 1149, 1148
 729, 1130, 1131, 1150, 1149
 730, 1131, 1132, 1151, 1150
 731, 1132, 1133, 1152, 1151
 732, 1133, 1134, 1153, 1152
 733, 1134, 1135, 1154, 1153
 734, 1135, 1136, 1155, 1154
 735, 1136, 1137, 1156, 1155
 736, 1137, 1138, 1157, 1156
 737, 1138, 1139, 1158, 1157
 738, 1139, 1140, 1159, 1158
 739, 1140, 1141, 1160, 1159
 740, 1141,   63,   64, 1160
 741,  208, 1142, 1161,  207
 742, 1142, 1143, 1162, 1161
 743, 1143, 1144, 1163, 1162
 744, 1144, 1145, 1164, 1163
 745, 1145, 1146, 1165, 1164
 746, 1146, 1147, 1166, 1165
 747, 1147, 1148, 1167, 1166
 748, 1148, 1149, 1168, 1167
 749, 1149, 1150, 1169, 1168
 750, 1150, 1151, 1170, 1169
 751, 1151, 1152, 1171, 1170
 752, 1152, 1153, 1172, 1171
 753, 1153, 1154, 1173, 1172
 754, 1154, 1155, 1174, 1173
 755, 1155, 1156, 1175, 1174
 756, 1156, 1157, 1176, 1175
 757, 1157, 1158, 1177, 1176
 758, 1158, 1159, 1178, 1177
 759, 1159, 1160, 1179, 1178
 760, 1160,   64,   65, 1179
 761,  207, 1161, 1180,  206
 762, 1161, 1162, 1181, 1180
 763, 1162, 1163, 1182, 1181
 764, 1163, 1164, 1183, 1182
 765, 1164, 1165, 1184, 1183
 766, 1165, 1166, 1185, 1184
 767, 1166, 1167, 1186, 1185
 768, 1167, 1168, 1187, 1186
 769, 1168, 1169, 1188, 1187
 770, 1169, 1170, 1189, 1188
 771, 1170, 1171, 1190, 1189
 772, 1171, 1172, 1191, 1190
 773, 1172, 1173, 1192, 1191
 774, 1173, 1174, 1193, 1192
 775, 1174, 1175, 1194, 1193
 776, 1175, 1176, 1195, 1194
 777, 1176, 1177, 1196, 1195
 778, 1177, 1178, 1197, 1196
 779, 1178, 1179, 1198, 1197
 780, 1179,   65,   66, 1198
 781,  206, 1180, 1199,  205
 782, 1180, 1181, 1200, 1199
 783, 1181, 1182, 1201, 1200
 784, 1182, 1183, 1202, 1201
 785, 1183, 1184, 1203, 1202
 786, 1184, 1185, 1204, 1203
 787, 1185, 1186, 1205, 1204
 788, 1186, 1187, 1206, 1205
 789, 1187, 1188, 1207, 1206
 790, 1188, 1189, 1208, 1207
 791, 1189, 1190, 1209, 1208
 792, 1190, 1191, 1210, 1209
 793, 1191, 1192, 1211, 1210
 794, 1192, 1193, 1212, 1211
 795, 1193, 1194, 1213, 1212
 796, 1194, 1195, 1214, 1213
 797, 1195, 1196, 1215, 1214
 798, 1196, 1197, 1216, 1215
 799, 1197, 1198, 1217, 1216
 800, 1198,   66,   67, 1217
 801,  205, 1199, 1218,  204
 802, 1199, 1200, 1219, 1218
 803, 1200, 1201, 1220, 1219
 804, 1201, 1202, 1221, 1220
 805, 1202, 1203, 1222, 1221
 806, 1203, 1204, 1223, 1222
 807, 1204, 1205, 1224, 1223
 808, 1205, 1206, 1225, 1224
 809, 1206, 1207, 1226, 1225
 810, 1207, 1208, 1227, 1226
 811, 1208, 1209, 1228, 1227
 812, 1209, 1210, 1229, 1228
 813, 1210, 1211, 1230, 1229
 814, 1211, 1212, 1231, 1230
 815, 1212, 1213, 1232, 1231
 816, 1213, 1214, 1233, 1232
 817, 1214, 1215, 1234, 1233
 818, 1215, 1216, 1235, 1234
 819, 1216, 1217, 1236, 1235
 820, 1217,   67,   68, 1236
 821,  204, 1218, 1237,  203
 822, 1218, 1219, 1238, 1237
 823, 1219, 1220, 1239, 1238
 824, 1220, 1221, 1240, 1239
 825, 1221, 1222, 1241, 1240
 826, 1222, 1223, 1242, 1241
 827, 1223, 1224, 1243, 1242
 828, 1224, 1225, 1244, 1243
 829, 1225, 1226, 1245, 1244
 830, 1226, 1227, 1246, 1245
 831, 1227, 1228, 1247, 1246
 832, 1228, 1229, 1248, 1247
 833, 1229, 1230, 1249, 1248
 834, 1230, 1231, 1250, 1249
 835, 1231, 1232, 1251, 1250
 836, 1232, 1233, 1252, 1251
 837, 1233, 1234, 1253, 1252
 838, 1234, 1235, 1254, 1253
 839, 1235, 1236, 1255, 1254
 840, 1236,   68,   69, 1255
 841,  203, 1237, 1256,  202
 842, 1237, 1238, 1257, 1256
 843, 1238, 1239, 1258, 1257
 844, 1239, 1240, 1259, 1258
 845, 1240, 1241, 1260, 1259
 846, 1241, 1242, 1261, 1260
 847, 1242, 1243, 1262, 1261
 848, 1243, 1244, 1263, 1262
 849, 1244, 1245, 1264, 1263
 850, 1245, 1246, 1265, 1264
 851, 1246, 1247, 1266, 1265
 852, 1247, 1248, 1267, 1266
 853, 1248, 1249, 1268, 1267
 854, 1249, 1250, 1269, 1268
 855, 1250, 1251, 1270, 1269
 856, 1251, 1252, 1271, 1270
 857, 1252, 1253, 1272, 1271
 858, 1253, 1254, 1273, 1272
 859, 1254, 1255, 1274, 1273
 860, 1255,   69,   70, 1274
 861,  202, 1256, 1275,  201
 862, 1256, 1257, 1276, 1275
 863, 1257, 1258, 1277, 1276
 864, 1258, 1259, 1278, 1277
 865, 1259, 1260, 1279, 1278
 866, 1260, 1261, 1280, 1279
 867, 1261, 1262, 1281, 1280
 868, 1262, 1263, 1282, 1281
 869, 1263, 1264, 1283, 1282
 870, 1264, 1265, 1284, 1283
 871, 1265, 1266, 1285, 1284
 872, 1266, 1267, 1286, 1285
 873, 1267, 1268, 1287, 1286
 874, 1268, 1269, 1288, 1287
 875, 1269, 1270, 1289, 1288
 876, 1270, 1271, 1290, 1289
 877, 1271, 1272, 1291, 1290
 878, 1272, 1273, 1292, 1291
 879, 1273, 1274, 1293, 1292
 880, 1274,   70,   71, 1293
 881,  201, 1275, 1294,  200
 882, 1275, 1276, 1295, 1294
 883, 1276, 1277, 1296, 1295
 884, 1277, 1278, 1297, 1296
 885, 1278, 1279, 1298, 1297
 886, 1279, 1280, 1299, 1298
 887, 1280, 1281, 1300, 1299
 888, 1281, 1282, 1301, 1300
 889, 1282, 1283, 1302, 1301
 890, 1283, 1284, 1303, 1302
 891, 1284, 1285, 1304, 1303
 892, 1285, 1286, 1305, 1304
 893, 1286, 1287, 1306, 1305
 894, 1287, 1288, 1307, 1306
 895, 1288, 1289, 1308, 1307
 896, 1289, 1290, 1309, 1308
 897, 1290, 1291, 1310, 1309
 898, 1291, 1292, 1311, 1310
 899, 1292, 1293, 1312, 1311
 900, 1293,   71,   72, 1312
 901,  200, 1294, 1313,  199
 902, 1294, 1295, 1314, 1313
 903, 1295, 1296, 1315, 1314
 904, 1296, 1297, 1316, 1315
 905, 1297, 1298, 1317, 1316
 906, 1298, 1299, 1318, 1317
 907, 1299, 1300, 1319, 1318
 908, 1300, 1301, 1320, 1319
 909, 1301, 1302, 1321, 1320
 910, 1302, 1303, 1322, 1321
 911, 1303, 1304, 1323, 1322
 912, 1304, 1305, 1324, 1323
 913, 1305, 1306, 1325, 1324
 914, 1306, 1307, 1326, 1325
 915, 1307, 1308, 1327, 1326
 916, 1308, 1309, 1328, 1327
 917, 1309, 1310, 1329, 1328
 918, 1310, 1311, 1330, 1329
 919, 1311, 1312, 1331, 1330
 920, 1312,   72,   73, 1331
 921,  199, 1313, 1332,  198
 922, 1313, 1314, 1333, 1332
 923, 1314, 1315, 1334, 1333
 924, 1315, 1316, 1335, 1334
 925, 1316, 1317, 1336, 1335
 926, 1317, 1318, 1337, 1336
 927, 1318, 1319, 1338, 1337
 928, 1319, 1320, 1339, 1338
 929, 1320, 1321, 1340, 1339
 930, 1321, 1322, 1341, 1340
 931, 1322, 1323, 1342, 1341
 932, 1323, 1324, 1343, 1342
 933, 1324, 1325, 1344, 1343
 934, 1325, 1326, 1345, 1344
 935, 1326, 1327, 1346, 1345
 936, 1327, 1328, 1347, 1346
 937, 1328, 1329, 1348, 1347
 938, 1329, 1330, 1349, 1348
 939, 1330, 1331, 1350, 1349
 940, 1331,   73,   74, 1350
 941,  198, 1332, 1351,  197
 942, 1332, 1333, 1352, 1351
 943, 1333, 1334, 1353, 1352
 944, 1334, 1335, 1354, 1353
 945, 1335, 1336, 1355, 1354
 946, 1336, 1337, 1356, 1355
 947, 1337, 1338, 1357, 1356
 948, 1338, 1339, 1358, 1357
 949, 1339, 1340, 1359, 1358
 950, 1340, 1341, 1360, 1359
 951, 1341, 1342, 1361, 1360
 952, 1342, 1343, 1362, 1361
 953, 1343, 1344, 1363, 1362
 954, 1344, 1345, 1364, 1363
 955, 1345, 1346, 1365, 1364
 956, 1346, 1347, 1366, 1365
 957, 1347, 1348, 1367, 1366
 958, 1348, 1349, 1368, 1367
 959, 1349, 1350, 1369, 1368
 960, 1350,   74,   75, 1369
 961,  197, 1351, 1370,  196
 962, 1351, 1352, 1371, 1370
 963, 1352, 1353, 1372, 1371
 964, 1353, 1354, 1373, 1372
 965, 1354, 1355, 1374, 1373
 966, 1355, 1356, 1375, 1374
 967, 1356, 1357, 1376, 1375
 968, 1357, 1358, 1377, 1376
 969, 1358, 1359, 1378, 1377
 970, 1359, 1360, 1379, 1378
 971, 1360, 1361, 1380, 1379
 972, 1361, 1362, 1381, 1380
 973, 1362, 1363, 1382, 1381
 974, 1363, 1364, 1383, 1382
 975, 1364, 1365, 1384, 1383
 976, 1365, 1366, 1385, 1384
 977, 1366, 1367, 1386, 1385
 978, 1367, 1368, 1387, 1386
 979, 1368, 1369, 1388, 1387
 980, 1369,   75,   76, 1388
 981,  196, 1370, 1389,  195
 982, 1370, 1371, 1390, 1389
 983, 1371, 1372, 1391, 1390
 984, 1372, 1373, 1392, 1391
 985, 1373, 1374, 1393, 1392
 986, 1374, 1375, 1394, 1393
 987, 1375, 1376, 1395, 1394
 988, 1376, 1377, 1396, 1395
 989, 1377, 1378, 1397, 1396
 990, 1378, 1379, 1398, 1397
 991, 1379, 1380, 1399, 1398
 992, 1380, 1381, 1400, 1399
 993, 1381, 1382, 1401, 1400
 994, 1382, 1383, 1402, 1401
 995, 1383, 1384, 1403, 1402
 996, 1384, 1385, 1404, 1403
 997, 1385, 1386, 1405, 1404
 998, 1386, 1387, 1406, 1405
 999, 1387, 1388, 1407, 1406
1000, 1388,   76,   77, 1407
1001,  195, 1389, 1408,  194
1002, 1389, 1390, 1409, 1408
1003, 1390, 1391, 1410, 1409
1004, 1391, 1392, 1411, 1410
1005, 1392, 1393, 1412, 1411
1006, 1393, 1394, 1413, 1412
1007, 1394, 1395, 1414, 1413
1008, 1395, 1396, 1415, 1414
1009, 1396, 1397, 1416, 1415
1010, 1397, 1398, 1417, 1416
1011, 1398, 1399, 1418, 1417
1012, 1399, 1400, 1419, 1418
1013, 1400, 1401, 1420, 1419
1014, 1401, 1402, 1421, 1420
1015, 1402, 1403, 1422, 1421
1016, 1403, 1404, 1423, 1422
1017, 1404, 1405, 1424, 1423
1018, 1405, 1406, 1425, 1424
1019, 1406, 1407, 1426, 1425
1020, 1407,   77,   78, 1426
1021,  194, 1408, 1427,  193
1022, 1408, 1409, 1428, 1427
1023, 1409, 1410, 1429, 1428
1024, 1410, 1411, 1430, 1429
1025, 1411, 1412, 1431, 1430
1026, 1412, 1413, 1432, 1431
1027, 1413, 1414, 1433, 1432
1028, 1414, 1415, 1434, 1433
1029, 1415, 1416, 1435, 1434
1030, 1416, 1417, 1436, 1435
1031, 1417, 1418, 1437, 1436
1032, 1418, 1419, 1438, 1437
1033, 1419, 1420, 1439, 1438
1034, 1420, 1421, 1440, 1439
1035, 1421, 1422, 1441, 1440
1036, 1422, 1423, 1442, 1441
1037, 1423, 1424, 1443, 1442
1038, 1424, 1425, 1444, 1443
1039, 1425, 1426, 1445, 1444
1040, 1426,   78,   79, 1445
1041,  193, 1427, 1446,  192
1042, 1427, 1428, 1447, 1446
1043, 1428, 1429, 1448, 1447
1044, 1429, 1430, 1449, 1448
1045, 1430, 1431, 1450, 1449
1046, 1431, 1432, 1451, 1450
1047, 1432, 1433, 1452, 1451
1048, 1433, 1434, 1453, 1452
1049, 1434, 1435, 1454, 1453
1050, 1435, 1436, 1455, 1454
1051, 1436, 1437, 1456, 1455
1052, 1437, 1438, 1457, 1456
1053, 1438, 1439, 1458, 1457
1054, 1439, 1440, 1459, 1458
1055, 1440, 1441, 1460, 1459
1056, 1441, 1442, 1461, 1460
1057, 1442, 1443, 1462, 1461
1058, 1443, 1444, 1463, 1462
1059, 1444, 1445, 1464, 1463
1060, 1445,   79,   80, 1464
1061,  192, 1446, 1465,  191
1062, 1446, 1447, 1466, 1465
1063, 1447, 1448, 1467, 1466
1064, 1448, 1449, 1468, 1467
1065, 1449, 1450, 1469, 1468
1066, 1450, 1451, 1470, 1469
1067, 1451, 1452, 1471, 1470
1068, 1452, 1453, 1472, 1471
1069, 1453, 1454, 1473, 1472
1070, 1454, 1455, 1474, 1473
1071, 1455, 1456, 1475, 1474
1072, 1456, 1457, 1476, 1475
1073, 1457, 1458, 1477, 1476
1074, 1458, 1459, 1478, 1477
1075, 1459, 1460, 1479, 1478
1076, 1460, 1461, 1480, 1479
1077, 1461, 1462, 1481, 1480
1078, 1462, 1463, 1482, 1481
1079, 1463, 1464, 1483, 1482
1080, 1464,   80,   81, 1483
1081,  191, 1465, 1484,  190
1082, 1465, 1466, 1485, 1484
1083, 1466, 1467, 1486, 1485
1084, 1467, 1468, 1487, 1486
1085, 1468, 1469, 1488, 1487
1086, 1469, 1470, 1489, 1488
1087, 1470, 1471, 1490, 1489
1088, 1471, 1472, 1491, 1490
1089, 1472, 1473, 1492, 1491
1090, 1473, 1474, 1493, 1492
1091, 1474, 1475, 1494, 1493
1092, 1475, 1476, 1495, 1494
1093, 1476, 1477, 1496, 1495
1094, 1477, 1478, 1497, 1496
1095, 1478, 1479, 1498, 1497
1096, 1479, 1480, 1499, 1498
1097, 1480, 1481, 1500, 1499
1098, 1481, 1482, 1501, 1500
1099, 1482, 1483, 1502, 1501
1100, 1483,   81,   82, 1502
1101,  190, 1484, 1503,  189
1102, 1484, 1485, 1504, 1503
1103, 1485, 1486, 1505, 1504
1104, 1486, 1487, 1506, 1505
1105, 1487, 1488, 1507, 1506
1106, 1488, 1489, 1508, 1507
1107, 1489, 1490, 1509, 1508
1108, 1490, 1491, 1510, 1509
1109, 1491, 1492, 1511, 1510
1110, 1492, 1493, 1512, 1511
1111, 1493, 1494, 1513, 1512
1112, 1494, 1495, 1514, 1513
1113, 1495, 1496, 1515, 1514
1114, 1496, 1497, 1516, 1515
1115, 1497, 1498, 1517, 1516
1116, 1498, 1499, 1518, 1517
1117, 1499, 1500, 1519, 1518
1118, 1500, 1501, 1520, 1519
1119, 1501, 1502, 1521, 1520
1120, 1502,   82,   83, 1521
1121,  189, 1503, 1522,  188
1122, 1503, 1504, 1523, 1522
1123, 1504, 1505, 1524, 1523
1124, 1505, 1506, 1525, 1524
1125, 1506, 1507, 1526, 1525
1126, 1507, 1508, 1527, 1526
1127, 1508, 1509, 1528, 1527
1128, 1509, 1510, 1529, 1528
1129, 1510, 1511, 1530, 1529
1130, 1511, 1512, 1531, 1530
1131, 1512, 1513, 1532, 1531
1132, 1513, 1514, 1533, 1532
1133, 1514, 1515, 1534, 1533
1134, 1515, 1516, 1535, 1534
1135, 1516, 1517, 1536, 1535
1136, 1517, 1518, 1537, 1536
1137, 1518, 1519, 1538, 1537
1138, 1519, 1520, 1539, 1538
1139, 1520, 1521, 1540, 1539
1140, 1521,   83,   84, 1540
1141,  188, 1522, 1541,  187
1142, 1522, 1523, 1542, 1541
1143, 1523, 1524, 1543, 1542
1144, 1524, 1525, 1544, 1543
1145, 1525, 1526, 1545, 1544
1146, 1526, 1527, 1546, 1545
1147, 1527, 1528, 1547, 1546
1148, 1528, 1529, 1548, 1547
1149, 1529, 1530, 1549, 1548
1150, 1530, 1531, 1550, 1549
1151, 1531, 1532, 1551, 1550
1152, 1532, 1533, 1552, 1551
1153, 1533, 1534, 1553, 1552
1154, 1534, 1535, 1554, 1553
1155, 1535, 1536, 1555, 1554
1156, 1536, 1537, 1556, 1555
1157, 1537, 1538, 1557, 1556
1158, 1538, 1539, 1558, 1557
1159, 1539, 1540, 1559, 1558
1160, 1540,   84,   85, 1559
1161,  187, 1541, 1560,  186
1162, 1541, 1542, 1561, 1560
1163, 1542, 1543, 1562, 1561
1164, 1543, 1544, 1563, 1562
1165, 1544, 1545, 1564, 1563
1166, 1545, 1546, 1565, 1564
1167, 1546, 1547, 1566, 1565
1168, 1547, 1548, 1567, 1566
1169, 1548, 1549, 1568, 1567
1170, 1549, 1550, 1569, 1568
1171, 1550, 1551, 1570, 1569
1172, 1551, 1552, 1571, 1570
1173, 1552, 1553, 1572, 1571
1174, 1553, 1554, 1573, 1572
1175, 1554, 1555, 1574, 1573
1176, 1555, 1556, 1575, 1574
1177, 1556, 1557, 1576, 1575
1178, 1557, 1558, 1577, 1576
1179, 1558, 1559, 1578, 1577
1180, 1559,   85,   86, 1578
1181,  186, 1560, 1579,  185
1182, 1560, 1561, 1580, 1579
1183, 1561, 1562, 1581, 1580
1184, 1562, 1563, 1582, 1581
1185, 1563, 1564, 1583, 1582
1186, 1564, 1565, 1584, 1583
1187, 1565, 1566, 1585, 1584
1188, 1566, 1567, 1586, 1585
1189, 1567, 1568, 1587, 1586
1190, 1568, 1569, 1588, 1587
1191, 1569, 1570, 1589, 1588
1192, 1570, 1571, 1590, 1589
1193, 1571, 1572, 1591, 1590
1194, 1572, 1573, 1592, 1591
1195, 1573, 1574, 1593, 1592
1196, 1574, 1575, 1594, 1593
1197, 1575, 1576, 1595, 1594
1198, 1576, 1577, 1596, 1595
1199, 1577, 1578, 1597, 1596
1200, 1578,   86,   87, 1597
1201,  185, 1579, 1598,  184
1202, 1579, 1580, 1599, 1598
1203, 1580, 1581, 1600, 1599
1204, 1581, 1582, 1601, 1600
1205, 1582, 1583, 1602, 1601
1206, 1583, 1584, 1603, 1602
1207, 1584, 1585, 1604, 1603
1208, 1585, 1586, 1605, 1604
1209, 1586, 1587, 1606, 1605
1210, 1587, 1588, 1607, 1606
1211, 1588, 1589, 1608, 1607
1212, 1589, 1590, 1609, 1608
1213, 1590, 1591, 1610, 1609
1214, 1591, 1592, 1611, 1610
1215, 1592, 1593, 1612, 1611
1216, 1593, 1594, 1613, 1612
1217, 1594, 1595, 1614, 1613
1218, 1595, 1596, 1615, 1614
1219, 1596, 1597, 1616, 1615
1220, 1597,   87,   88, 1616
1221,  184, 1598, 1617,  183
1222, 1598, 1599, 1618, 1617
1223, 1599, 1600, 1619, 1618
1224, 1600, 1601, 1620, 1619
1225, 1601, 1602, 1621, 1620
1226, 1602, 1603, 1622, 1621
1227, 1603, 1604, 1623, 1622
1228, 1604, 1605, 1624, 1623
1229, 1605, 1606, 1625, 1624
1230, 1606, 1607, 1626, 1625
1231, 1607, 1608, 1627, 1626
1232, 1608, 1609, 1628, 1627
1233, 1609, 1610, 1629, 1628
1234, 1610, 1611, 1630, 1629
1235, 1611, 1612, 1631, 1630
1236, 1612, 1613, 1632, 1631
1237, 1613, 1614, 1633, 1632
1238, 1614, 1615, 1634, 1633
1239, 1615, 1616, 1635, 1634
1240, 1616,   88,   89, 1635
1241,  183, 1617, 1636,  182
1242, 1617, 1618, 1637, 1636
1243, 1618, 1619, 1638, 1637
1244, 1619, 1620, 1639, 1638
1245, 1620, 1621, 1640, 1639
1246, 1621, 1622, 1641, 1640
1247, 1622, 1623, 1642, 1641
1248, 1623, 1624, 1643, 1642
1249, 1624, 1625, 1644, 1643
1250, 1625, 1626, 1645, 1644
1251, 1626, 1627, 1646, 1645
1252, 1627, 1628, 1647, 1646
1253, 1628, 1629, 1648, 1647
1254, 1629, 1630, 1649, 1648
1255, 1630, 1631, 1650, 1649
1256, 1631, 1632, 1651, 1650
1257, 1632, 1633, 1652, 1651
1258, 1633, 1634, 1653, 1652
1259, 1634, 1635, 1654, 1653
1260, 1635,   89,   90, 1654
1261,  182, 1636, 1655,  181
1262, 1636, 1637, 1656, 1655
1263, 1637, 1638, 1657, 1656
1264, 1638, 1639, 1658, 1657
1265, 1639, 1640, 1659, 1658
1266, 1640, 1641, 1660, 1659
1267, 1641, 1642, 1661, 1660
1268, 1642, 1643, 1662, 1661
1269, 1643, 1644, 1663, 1662
1270, 1644, 1645, 1664, 1663
1271, 1645, 1646, 1665, 1664
1272, 1646, 1647, 1666, 1665
1273, 1647, 1648, 1667, 1666
1274, 1648, 1649, 1668, 1667
1275, 1649, 1650, 1669, 1668
1276, 1650, 1651, 1670, 1669
1277, 1651, 1652, 1671, 1670
1278, 1652, 1653, 1672, 1671
1279, 1653, 1654, 1673, 1672
1280, 1654,   90,   91, 1673
1281,  181, 1655, 1674,  180
1282, 1655, 1656, 1675, 1674
1283, 1656, 1657, 1676, 1675
1284, 1657, 1658, 1677, 1676
1285, 1658, 1659, 1678, 1677
1286, 1659, 1660, 1679, 1678
1287, 1660, 1661, 1680, 1679
1288, 1661, 1662, 1681, 1680
1289, 1662, 1663, 1682, 1681
1290, 1663, 1664, 1683, 1682
1291, 1664, 1665, 1684, 1683
1292, 1665, 1666, 1685, 1684
1293, 1666, 1667, 1686, 1685
1294, 1667, 1668, 1687, 1686
1295, 1668, 1669, 1688, 1687
1296, 1669, 1670, 1689, 1688
1297, 1670, 1671, 1690, 1689
1298, 1671, 1672, 1691, 1690
1299, 1672, 1673, 1692, 1691
1300, 1673,   91,   92, 1692
1301,  180, 1674, 1693,  179
1302, 1674, 1675, 1694, 1693
1303, 1675, 1676, 1695, 1694
1304, 1676, 1677, 1696, 1695
1305, 1677, 1678, 1697, 1696
1306, 1678, 1679, 1698, 1697
1307, 1679, 1680, 1699, 1698
1308, 1680, 1681, 1700, 1699
1309, 1681, 1682, 1701, 1700
1310, 1682, 1683, 1702, 1701
1311, 1683, 1684, 1703, 1702
1312, 1684, 1685, 1704, 1703
1313, 1685, 1686, 1705, 1704
1314, 1686, 1687, 1706, 1705
1315, 1687, 1688, 1707, 1706
1316, 1688, 1689, 1708, 1707
1317, 1689, 1690, 1709, 1708
1318, 1690, 1691, 1710, 1709
1319, 1691, 1692, 1711, 1710
1320, 1692,   92,   93, 1711
1321,  179, 1693, 1712,  178
1322, 1693, 1694, 1713, 1712
1323, 1694, 1695, 1714, 1713
1324, 1695, 1696, 1715, 1714
1325, 1696, 1697, 1716, 1715
1326, 1697, 1698, 1717, 1716
1327, 1698, 1699, 1718, 1717
1328, 1699, 1700, 1719, 1718
1329, 1700, 1701, 1720, 1719
1330, 1701, 1702, 1721, 1720
1331, 1702, 1703, 1722, 1721
1332, 1703, 1704, 1723, 1722
1333, 1704, 1705, 1724, 1723
1334, 1705, 1706, 1725, 1724
1335, 1706, 1707, 1726, 1725
1336, 1707, 1708, 1727, 1726
1337, 1708, 1709, 1728, 1727
1338, 1709, 1710, 1729, 1728
1339, 1710, 1711, 1730, 1729
1340, 1711,   93,   94, 1730
1341,  178, 1712, 1731,  177
1342, 1712, 1713, 1732, 1731
1343, 1713, 1714, 1733, 1732
1344, 1714, 1715, 1734, 1733
1345, 1715, 1716, 1735, 1734
1346, 1716, 1717, 1736, 1735
1347, 1717, 1718, 1737, 1736
1348, 1718, 1719, 1738, 1737
1349, 1719, 1720, 1739, 1738
1350, 1720, 1721, 1740, 1739
1351, 1721, 1722, 1741, 1740
1352, 1722, 1723, 1742, 1741
1353, 1723, 1724, 1743, 1742
1354, 1724, 1725, 1744, 1743
1355, 1725, 1726, 1745, 1744
1356, 1726, 1727, 1746, 1745
1357, 1727, 1728, 1747, 1746
1358, 1728, 1729, 1748, 1747
1359, 1729, 1730, 1749, 1748
1360, 1730,   94,   95, 1749
1361,  177, 1731, 1750,  176
1362, 1731, 1732, 1751, 1750
1363, 1732, 1733, 1752, 1751
1364, 1733, 1734, 1753, 1752
1365, 1734, 1735, 1754, 1753
1366, 1735, 1736, 1755, 1754
1367, 1736, 1737, 1756, 1755
1368, 1737, 1738, 1757, 1756
1369, 1738, 1739, 1758, 1757
1370, 1739, 1740, 1759, 1758
1371, 1740, 1741, 1760, 1759
1372, 1741, 1742, 1761, 1760
1373, 1742, 1743, 1762, 1761
1374, 1743, 1744, 1763, 1762
1375, 1744, 1745, 1764, 1763
1376, 1745, 1746, 1765, 1764
1377, 1746, 1747, 1766, 1765
1378, 1747, 1748, 1767, 1766
1379, 1748, 1749, 1768, 1767
1380, 1749,   95,   96, 1768
1381,  176, 1750, 1769,  175
1382, 1750, 1751, 1770, 1769
1383, 1751, 1752, 1771, 1770
1384, 1752, 1753, 1772, 1771
1385, 1753, 1754, 1773, 1772
1386, 1754, 1755, 1774, 1773
1387, 1755, 1756, 1775, 1774
1388, 1756, 1757, 1776, 1775
1389, 1757, 1758, 1777, 1776
1390, 1758, 1759, 1778, 1777
1391, 1759, 1760, 1779, 1778
1392, 1760, 1761, 1780, 1779
1393, 1761, 1762, 1781, 1780
1394, 1762, 1763, 1782, 1781
1395, 1763, 1764, 1783, 1782
1396, 1764, 1765, 1784, 1783
1397, 1765, 1766, 1785, 1784
1398, 1766, 1767, 1786, 1785
1399, 1767, 1768, 1787, 1786
1400, 1768,   96,   97, 1787
1401,  175, 1769, 1788,  174
1402, 1769, 1770, 1789, 1788
1403, 1770, 1771, 1790, 1789
1404, 1771, 1772, 1791, 1790
1405, 1772, 1773, 1792, 1791
1406, 1773, 1774, 1793, 1792
1407, 1774, 1775, 1794, 1793
1408, 1775, 1776, 1795, 1794
1409, 1776, 1777, 1796, 1795
1410, 1777, 1778, 1797, 1796
1411, 1778, 1779, 1798, 1797
1412, 1779, 1780, 1799, 1798
1413, 1780, 1781, 1800, 1799
1414, 1781, 1782, 1801, 1800
1415, 1782, 1783, 1802, 1801
1416, 1783, 1784, 1803, 1802
1417, 1784, 1785, 1804, 1803
1418, 1785, 1786, 1805, 1804
1419, 1786, 1787, 1806, 1805
1420, 1787,   97,   98, 1806
1421,  174, 1788, 1807,  173
1422, 1788, 1789, 1808, 1807
1423, 1789, 1790, 1809, 1808
1424, 1790, 1791, 1810, 1809
1425, 1791, 1792, 1811, 1810
1426, 1792, 1793, 1812, 1811
1427, 1793, 1794, 1813, 1812
1428, 1794, 1795, 1814, 1813
1429, 1795, 1796, 1815, 1814
1430, 1796, 1797, 1816, 1815
1431, 1797, 1798, 1817, 1816
1432, 1798, 1799, 1818, 1817
1433, 1799, 1800, 1819, 1818
1434, 1800, 1801, 1820, 1819
1435, 1801, 1802, 1821, 1820
1436, 1802, 1803, 1822, 1821
1437, 1803, 1804, 1823, 1822
1438, 1804, 1805, 1824, 1823
1439, 1805, 1806, 1825, 1824
1440, 1806,   98,   99, 1825
1441,  173, 1807, 1826,  172
1442, 1807, 1808, 1827, 1826
1443, 1808, 1809, 1828, 1827
1444, 1809, 1810, 1829, 1828
1445, 1810, 1811, 1830, 1829
1446, 1811, 1812, 1831, 1830
1447, 1812, 1813, 1832, 1831
1448, 1813, 1814, 1833, 1832
1449, 1814, 1815, 1834, 1833
1450, 1815, 1816, 1835, 1834
1451, 1816, 1817, 1836, 1835
1452, 1817, 1818, 1837, 1836
1453, 1818, 1819, 1838, 1837
1454, 1819, 1820, 1839, 1838
1455, 1820, 1821, 1840, 1839
1456, 1821, 1822, 1841, 1840
1457, 1822, 1823, 1842, 1841
1458, 1823, 1824, 1843, 1842
1459, 1824, 1825, 1844, 1843
1460, 1825,   99,  100, 1844
1461,  172, 1826, 1845,  171
1462, 1826, 1827, 1846, 1845
1463, 1827, 1828, 1847, 1846
1464, 1828, 1829, 1848, 1847
1465, 1829, 1830, 1849, 1848
1466, 1830, 1831, 1850, 1849
1467, 1831, 1832, 1851, 1850
1468, 1832, 1833, 1852, 1851
1469, 1833, 1834, 1853, 1852
1470, 1834, 1835, 1854, 1853
1471, 1835, 1836, 1855, 1854
1472, 1836, 1837, 1856, 1855
1473, 1837, 1838, 1857, 1856
1474, 1838, 1839, 1858, 1857
1475, 1839, 1840, 1859, 1858
1476, 1840, 1841, 1860, 1859
1477, 1841, 1842, 1861, 1860
1478, 1842, 1843, 1862, 1861
1479, 1843, 1844, 1863, 1862
1480, 1844,  100,  101, 1863
1481,  171, 1845, 1864,  170
1482, 1845, 1846, 1865, 1864
1483, 1846, 1847, 1866, 1865
1484, 1847, 1848, 1867, 1866
1485, 1848, 1849, 1868, 1867
1486, 1849, 1850, 1869, 1868
1487, 1850, 1851, 1870, 1869
1488, 1851, 1852, 1871, 1870
1489, 1852, 1853, 1872, 1871
1490, 1853, 1854, 1873, 1872
1491, 1854, 1855, 1874, 1873
1492, 1855, 1856, 1875, 1874
1493, 1856, 1857, 1876, 1875
1494, 1857, 1858, 1877, 1876
1495, 1858, 1859, 1878, 1877
1496, 1859, 1860, 1879, 1878
1497, 1860, 1861, 1880, 1879
1498, 1861, 1862, 1881, 1880
1499, 1862, 1863, 1882, 1881
1500, 1863,  101,  102, 1882
1501,  170, 1864, 1883,  169
1502, 1864, 1865, 1884, 1883
1503, 1865, 1866, 1885, 1884
1504, 1866, 1867, 1886, 1885
1505, 1867, 1868, 1887, 1886
1506, 1868, 1869, 1888, 1887
1507, 1869, 1870, 1889, 1888
1508, 1870, 1871, 1890, 1889
1509, 1871, 1872, 1891, 1890
1510, 1872, 1873, 1892, 1891
1511, 1873, 1874, 1893, 1892
1512, 1874, 1875, 1894, 1893
1513, 1875, 1876, 1895, 1894
1514, 1876, 1877, 1896, 1895
1515, 1877, 1878, 1897, 1896
1516, 1878, 1879, 1898, 1897
1517, 1879, 1880, 1899, 1898
1518, 1880, 1881, 1900, 1899
1519, 1881, 1882, 1901, 1900
1520, 1882,  102,  103, 1901
1521,  169, 1883, 1902,  168
1522, 1883, 1884, 1903, 1902
1523, 1884, 1885, 1904, 1903
1524, 1885, 1886, 1905, 1904
1525, 1886, 1887, 1906, 1905
1526, 1887, 1888, 1907, 1906
1527, 1888, 1889, 1908, 1907
1528, 1889, 1890, 1909, 1908
1529, 1890, 1891, 1910, 1909
1530, 1891, 1892, 1911, 1910
1531, 1892, 1893, 1912, 1911
1532, 1893, 1894, 1913, 1912
1533, 1894, 1895, 1914, 1913
1534, 1895, 1896, 1915, 1914
1535, 1896, 1897, 1916, 1915
1536, 1897, 1898, 1917, 1916
1537, 1898, 1899, 1918, 1917
1538, 1899, 1900, 1919, 1918
1539, 1900, 1901, 1920, 1919
1540, 1901,  103,  104, 1920
1541,  168, 1902, 1921,  167
1542, 1902, 1903, 1922, 1921
1543, 1903, 1904, 1923, 1922
1544, 1904, 1905, 1924, 1923
1545, 1905, 1906, 1925, 1924
1546, 1906, 1907, 1926, 1925
1547, 1907, 1908, 1927, 1926
1548, 1908, 1909, 1928, 1927
1549, 1909, 1910, 1929, 1928
1550, 1910, 1911, 1930, 1929
1551, 1911, 1912, 1931, 1930
1552, 1912, 1913, 1932, 1931
1553, 1913, 1914, 1933, 1932
1554, 1914, 1915, 1934, 1933
1555, 1915, 1916, 1935, 1934
1556, 1916, 1917, 1936, 1935
1557, 1917, 1918, 1937, 1936
1558, 1918, 1919, 1938, 1937
1559, 1919, 1920, 1939, 1938
1560, 1920,  104,  105, 1939
1561,  167, 1921, 1940,  166
1562, 1921, 1922, 1941, 1940
1563, 1922, 1923, 1942, 1941
1564, 1923, 1924, 1943, 1942
1565, 1924, 1925, 1944, 1943
1566, 1925, 1926, 1945, 1944
1567, 1926, 1927, 1946, 1945
1568, 1927, 1928, 1947, 1946
1569, 1928, 1929, 1948, 1947
1570, 1929, 1930, 1949, 1948
1571, 1930, 1931, 1950, 1949
1572, 1931, 1932, 1951, 1950
1573, 1932, 1933, 1952, 1951
1574, 1933, 1934, 1953, 1952
1575, 1934, 1935, 1954, 1953
1576, 1935, 1936, 1955, 1954
1577, 1936, 1937, 1956, 1955
1578, 1937, 1938, 1957, 1956
1579, 1938, 1939, 1958, 1957
1580, 1939,  105,  106, 1958
1581,  166, 1940, 1959,  165
1582, 1940, 1941, 1960, 1959
1583, 1941, 1942, 1961, 1960
1584, 1942, 1943, 1962, 1961
1585, 1943, 1944, 1963, 1962
1586, 1944, 1945, 1964, 1963
1587, 1945, 1946, 1965, 1964
1588, 1946, 1947, 1966, 1965
1589, 1947, 1948, 1967, 1966
1590, 1948, 1949, 1968, 1967
1591, 1949, 1950, 1969, 1968
1592, 1950, 1951, 1970, 1969
1593, 1951, 1952, 1971, 1970
1594, 1952, 1953, 1972, 1971
1595, 1953, 1954, 1973, 1972
1596, 1954, 1955, 1974, 1973
1597, 1955, 1956, 1975, 1974
1598, 1956, 1957, 1976, 1975
1599, 1957, 1958, 1977, 1976
1600, 1958,  106,  107, 1977
1601,  165, 1959, 1978,  164
1602, 1959, 1960, 1979, 1978
1603, 1960, 1961, 1980, 1979
1604, 1961, 1962, 1981, 1980
1605, 1962, 1963, 1982, 1981
1606, 1963, 1964, 1983, 1982
1607, 1964, 1965, 1984, 1983
1608, 1965, 1966, 1985, 1984
1609, 1966, 1967, 1986, 1985
1610, 1967, 1968, 1987, 1986
1611, 1968, 1969, 1988, 1987
1612, 1969, 1970, 1989, 1988
1613, 1970, 1971, 1990, 1989
1614, 1971, 1972, 1991, 1990
1615, 1972, 1973, 1992, 1991
1616, 1973, 1974, 1993, 1992
1617, 1974, 1975, 1994, 1993
1618, 1975, 1976, 1995, 1994
1619, 1976, 1977, 1996, 1995
1620, 1977,  107,  108, 1996
1621,  164, 1978, 1997,  163
1622, 1978, 1979, 1998, 1997
1623, 1979, 1980, 1999, 1998
1624, 1980, 1981, 2000, 1999
1625, 1981, 1982, 2001, 2000
1626, 1982, 1983, 2002, 2001
1627, 1983, 1984, 2003, 2002
1628, 1984, 1985, 2004, 2003
1629, 1985, 1986, 2005, 2004
1630, 1986, 1987, 2006, 2005
1631, 1987, 1988, 2007, 2006
1632, 1988, 1989, 2008, 2007
1633, 1989, 1990, 2009, 2008
1634, 1990, 1991, 2010, 2009
1635, 1991, 1992, 2011, 2010
1636, 1992, 1993, 2012, 2011
1637, 1993, 1994, 2013, 2012
1638, 1994, 1995, 2014, 2013
1639, 1995, 1996, 2015, 2014
1640, 1996,  108,  109, 2015
1641,  163, 1997, 2016,  162
1642, 1997, 1998, 2017, 2016
1643, 1998, 1999, 2018, 2017
1644, 1999, 2000, 2019, 2018
1645, 2000, 2001, 2020, 2019
1646, 2001, 2002, 2021, 2020
1647, 2002, 2003, 2022, 2021
1648, 2003, 2004, 2023, 2022
1649, 2004, 2005, 2024, 2023
1650, 2005, 2006, 2025, 2024
1651, 2006, 2007, 2026, 2025
1652, 2007, 2008, 2027, 2026
1653, 2008, 2009, 2028, 2027
1654, 2009, 2010, 2029, 2028
1655, 2010, 2011, 2030, 2029
1656, 2011, 2012, 2031, 2030
1657, 2012, 2013, 2032, 2031
1658, 2013, 2014, 2033, 2032
1659, 2014, 2015, 2034, 2033
1660, 2015,  109,  110, 2034
1661,  162, 2016, 2035,  161
1662, 2016, 2017, 2036, 2035
1663, 2017, 2018, 2037, 2036
1664, 2018, 2019, 2038, 2037
1665, 2019, 2020, 2039, 2038
1666, 2020, 2021, 2040, 2039
1667, 2021, 2022, 2041, 2040
1668, 2022, 2023, 2042, 2041
1669, 2023, 2024, 2043, 2042
1670, 2024, 2025, 2044, 2043
1671, 2025, 2026, 2045, 2044
1672, 2026, 2027, 2046, 2045
1673, 2027, 2028, 2047, 2046
1674, 2028, 2029, 2048, 2047
1675, 2029, 2030, 2049, 2048
1676, 2030, 2031, 2050, 2049
1677, 2031, 2032, 2051, 2050
1678, 2032, 2033, 2052, 2051
1679, 2033, 2034, 2053, 2052
1680, 2034,  110,  111, 2053
1681,  161, 2035, 2054,  160
1682, 2035, 2036, 2055, 2054
1683, 2036, 2037, 2056, 2055
1684, 2037, 2038, 2057, 2056
1685, 2038, 2039, 2058, 2057
1686, 2039, 2040, 2059, 2058
1687, 2040, 2041, 2060, 2059
1688, 2041, 2042, 2061, 2060
1689, 2042, 2043, 2062, 2061
1690, 2043, 2044, 2063, 2062
1691, 2044, 2045, 2064, 2063
1692, 2045, 2046, 2065, 2064
1693, 2046, 2047, 2066, 2065
1694, 2047, 2048, 2067, 2066
1695, 2048, 2049, 2068, 2067
1696, 2049, 2050, 2069, 2068
1697, 2050, 2051, 2070, 2069
1698, 2051, 2052, 2071, 2070
1699, 2052, 2053, 2072, 2071
1700, 2053,  111,  112, 2072
1701,  160, 2054, 2073,  159
1702, 2054, 2055, 2074, 2073
1703, 2055, 2056, 2075, 2074
1704, 2056, 2057, 2076, 2075
1705, 2057, 2058, 2077, 2076
1706, 2058, 2059, 2078, 2077
1707, 2059, 2060, 2079, 2078
1708, 2060, 2061, 2080, 2079
1709, 2061, 2062, 2081, 2080
1710, 2062, 2063, 2082, 2081
1711, 2063, 2064, 2083, 2082
1712, 2064, 2065, 2084, 2083
1713, 2065, 2066, 2085, 2084
1714, 2066, 2067, 2086, 2085
1715, 2067, 2068, 2087, 2086
1716, 2068, 2069, 2088, 2087
1717, 2069, 2070, 2089, 2088
1718, 2070, 2071, 2090, 2089
1719, 2071, 2072, 2091, 2090
1720, 2072,  112,  113, 2091
1721,  159, 2073, 2092,  158
1722, 2073, 2074, 2093, 2092
1723, 2074, 2075, 2094, 2093
1724, 2075, 2076, 2095, 2094
1725, 2076, 2077, 2096, 2095
1726, 2077, 2078, 2097, 2096
1727, 2078, 2079, 2098, 2097
1728, 2079, 2080, 2099, 2098
1729, 2080, 2081, 2100, 2099
1730, 2081, 2082, 2101, 2100
1731, 2082, 2083, 2102, 2101
1732, 2083, 2084, 2103, 2102
1733, 2084, 2085, 2104, 2103
1734, 2085, 2086, 2105, 2104
1735, 2086, 2087, 2106, 2105
1736, 2087, 2088, 2107, 2106
1737, 2088, 2089, 2108, 2107
1738, 2089, 2090, 2109, 2108
1739, 2090, 2091, 2110, 2109
1740, 2091,  113,  114, 2110
1741,  158, 2092, 2111,  157
1742, 2092, 2093, 2112, 2111
1743, 2093, 2094, 2113, 2112
1744, 2094, 2095, 2114, 2113
1745, 2095, 2096, 2115, 2114
1746, 2096, 2097, 2116, 2115
1747, 2097, 2098, 2117, 2116
1748, 2098, 2099, 2118, 2117
1749, 2099, 2100, 2119, 2118
1750, 2100, 2101, 2120, 2119
1751, 2101, 2102, 2121, 2120
1752, 2102, 2103, 2122, 2121
1753, 2103, 2104, 2123, 2122
1754, 2104, 2105, 2124, 2123
1755, 2105, 2106, 2125, 2124
1756, 2106, 2107, 2126, 2125
1757, 2107, 2108, 2127, 2126
1758, 2108, 2109, 2128, 2127
1759, 2109, 2110, 2129, 2128
1760, 2110,  114,  115, 2129
1761,  157, 2111, 2130,  156
1762, 2111, 2112, 2131, 2130
1763, 2112, 2113, 2132, 2131
1764, 2113, 2114, 2133, 2132
1765, 2114, 2115, 2134, 2133
1766, 2115, 2116, 2135, 2134
1767, 2116, 2117, 2136, 2135
1768, 2117, 2118, 2137, 2136
1769, 2118, 2119, 2138, 2137
1770, 2119, 2120, 2139, 2138
1771, 2120, 2121, 2140, 2139
1772, 2121, 2122, 2141, 2140
1773, 2122, 2123, 2142, 2141
1774, 2123, 2124, 2143, 2142
1775, 2124, 2125, 2144, 2143
1776, 2125, 2126, 2145, 2144
1777, 2126, 2127, 2146, 2145
1778, 2127, 2128, 2147, 2146
1779, 2128, 2129, 2148, 2147
1780, 2129,  115,  116, 2148
1781,  156, 2130, 2149,  155
1782, 2130, 2131, 2150, 2149
1783, 2131, 2132, 2151, 2150
1784, 2132, 2133, 2152, 2151
1785, 2133, 2134, 2153, 2152
1786, 2134, 2135, 2154, 2153
1787, 2135, 2136, 2155, 2154
1788, 2136, 2137, 2156, 2155
1789, 2137, 2138, 2157, 2156
1790, 2138, 2139, 2158, 2157
1791, 2139, 2140, 2159, 2158
1792, 2140, 2141, 2160, 2159
1793, 2141, 2142, 2161, 2160
1794, 2142, 2143, 2162, 2161
1795, 2143, 2144, 2163, 2162
1796, 2144, 2145, 2164, 2163
1797, 2145, 2146, 2165, 2164
1798, 2146, 2147, 2166, 2165
1799, 2147, 2148, 2167, 2166
1800, 2148,  116,  117, 2167
1801,  155, 2149, 2168,  154
1802, 2149, 2150, 2169, 2168
1803, 2150, 2151, 2170, 2169
1804, 2151, 2152, 2171, 2170
1805, 2152, 2153, 2172, 2171
1806, 2153, 2154, 2173, 2172
1807, 2154, 2155, 2174, 2173
1808, 2155, 2156, 2175, 2174
1809, 2156, 2157, 2176, 2175
1810, 2157, 2158, 2177, 2176
1811, 2158, 2159, 2178, 2177
1812, 2159, 2160, 2179, 2178
1813, 2160, 2161, 2180, 2179
1814, 2161, 2162, 2181, 2180
1815, 2162, 2163, 2182, 2181
1816, 2163, 2164, 2183, 2182
1817, 2164, 2165, 2184, 2183
1818, 2165, 2166, 2185, 2184
1819, 2166, 2167, 2186, 2185
1820, 2167,  117,  118, 2186
1821,  154, 2168, 2187,  153
1822, 2168, 2169, 2188, 2187
1823, 2169, 2170, 2189, 2188
1824, 2170, 2171, 2190, 2189
1825, 2171, 2172, 2191, 2190
1826, 2172, 2173, 2192, 2191
1827, 2173, 2174, 2193, 2192
1828, 2174, 2175, 2194, 2193
1829, 2175, 2176, 2195, 2194
1830, 2176, 2177, 2196, 2195
1831, 2177, 2178, 2197, 2196
1832, 2178, 2179, 2198, 2197
1833, 2179, 2180, 2199, 2198
1834, 2180, 2181, 2200, 2199
1835, 2181, 2182, 2201, 2200
1836, 2182, 2183, 2202, 2201
1837, 2183, 2184, 2203, 2202
1838, 2184, 2185, 2204, 2203
1839, 2185, 2186, 2205, 2204
1840, 2186,  118,  119, 2205
1841,  153, 2187, 2206,  152
1842, 2187, 2188, 2207, 2206
1843, 2188, 2189, 2208, 2207
1844, 2189, 2190, 2209, 2208
1845, 2190, 2191, 2210, 2209
1846, 2191, 2192, 2211, 2210
1847, 2192, 2193, 2212, 2211
1848, 2193, 2194, 2213, 2212
1849, 2194, 2195, 2214, 2213
1850, 2195, 2196, 2215, 2214
1851, 2196, 2197, 2216, 2215
1852, 2197, 2198, 2217, 2216
1853, 2198, 2199, 2218, 2217
1854, 2199, 2200, 2219, 2218
1855, 2200, 2201, 2220, 2219
1856, 2201, 2202, 2221, 2220
1857, 2202, 2203, 2222, 2221
1858, 2203, 2204, 2223, 2222
1859, 2204, 2205, 2224, 2223
1860, 2205,  119,  120, 2224
1861,  152, 2206, 2225,  151
1862, 2206, 2207, 2226, 2225
1863, 2207, 2208, 2227, 2226
1864, 2208, 2209, 2228, 2227
1865, 2209, 2210, 2229, 2228
1866, 2210, 2211, 2230, 2229
1867, 2211, 2212, 2231, 2230
1868, 2212, 2213, 2232, 2231
1869, 2213, 2214, 2233, 2232
1870, 2214, 2215, 2234, 2233
1871, 2215, 2216, 2235, 2234
1872, 2216, 2217, 2236, 2235
1873, 2217, 2218, 2237, 2236
1874, 2218, 2219, 2238, 2237
1875, 2219, 2220, 2239, 2238
1876, 2220, 2221, 2240, 2239
1877, 2221, 2222, 2241, 2240
1878, 2222, 2223, 2242, 2241
1879, 2223, 2224, 2243, 2242
1880, 2224,  120,  121, 2243
1881,  151, 2225, 2244,  150
1882, 2225, 2226, 2245, 2244
1883, 2226, 2227, 2246, 2245
1884, 2227, 2228, 2247, 2246
1885, 2228, 2229, 2248, 2247
1886, 2229, 2230, 2249, 2248
1887, 2230, 2231, 2250, 2249
1888, 2231, 2232, 2251, 2250
1889, 2232, 2233, 2252, 2251
1890, 2233, 2234, 2253, 2252
1891, 2234, 2235, 2254, 2253
1892, 2235, 2236, 2255, 2254
1893, 2236, 2237, 2256, 2255
1894, 2237, 2238, 2257, 2256
1895, 2238, 2239, 2258, 2257
1896, 2239, 2240, 2259, 2258
1897, 2240, 2241, 2260, 2259
1898, 2241, 2242, 2261, 2260
1899, 2242, 2243, 2262, 2261
1900, 2243,  121,  122, 2262
1901,  150, 2244, 2263,  149
1902, 2244, 2245, 2264, 2263
1903, 2245, 2246, 2265, 2264
1904, 2246, 2247, 2266, 2265
1905, 2247, 2248, 2267, 2266
1906, 2248, 2249, 2268, 2267
1907, 2249, 2250, 2269, 2268
1908, 2250, 2251, 2270, 2269
1909, 2251, 2252, 2271, 2270
1910, 2252, 2253, 2272, 2271
1911, 2253, 2254, 2273, 2272
1912, 2254, 2255, 2274, 2273
1913, 2255, 2256, 2275, 2274
1914, 2256, 2257, 2276, 2275
1915, 2257, 2258, 2277, 2276
1916, 2258, 2259, 2278, 2277
1917, 2259, 2260, 2279, 2278
1918, 2260, 2261, 2280, 2279
1919, 2261, 2262, 2281, 2280
1920, 2262,  122,  123, 2281
1921,  149, 2263, 2282,  148
1922, 2263, 2264, 2283, 2282
1923, 2264, 2265, 2284, 2283
1924, 2265, 2266, 2285, 2284
1925, 2266, 2267, 2286, 2285
1926, 2267, 2268, 2287, 2286
1927, 2268, 2269, 2288, 2287
1928, 2269, 2270, 2289, 2288
1929, 2270, 2271, 2290, 2289
1930, 2271, 2272, 2291, 2290
1931, 2272, 2273, 2292, 2291
1932, 2273, 2274, 2293, 2292
1933, 2274, 2275, 2294, 2293
1934, 2275, 2276, 2295, 2294
1935, 2276, 2277, 2296, 2295
1936, 2277, 2278, 2297, 2296
1937, 2278, 2279, 2298, 2297
1938, 2279, 2280, 2299, 2298
1939, 2280, 2281, 2300, 2299
1940, 2281,  123,  124, 2300
1941,  148, 2282, 2301,  147
1942, 2282, 2283, 2302, 2301
1943, 2283, 2284, 2303, 2302
1944, 2284, 2285, 2304, 2303
1945, 2285, 2286, 2305, 2304
1946, 2286, 2287, 2306, 2305
1947, 2287, 2288, 2307, 2306
1948, 2288, 2289, 2308, 2307
1949, 2289, 2290, 2309, 2308
1950, 2290, 2291, 2310, 2309
1951, 2291, 2292, 2311, 2310
1952, 2292, 2293, 2312, 2311
1953, 2293, 2294, 2313, 2312
1954, 2294, 2295, 2314, 2313
1955, 2295, 2296, 2315, 2314
1956, 2296, 2297, 2316, 2315
1957, 2297, 2298, 2317, 2316
1958, 2298, 2299, 2318, 2317
1959, 2299, 2300, 2319, 2318
1960, 2300,  124,  125, 2319
1961,  147, 2301, 2320,  146
1962, 2301, 2302, 2321, 2320
1963, 2302, 2303, 2322, 2321
1964, 2303, 2304, 2323, 2322
1965, 2304, 2305, 2324, 2323
1966, 2305, 2306, 2325, 2324
1967, 2306, 2307, 2326, 2325
1968, 2307, 2308, 2327, 2326
1969, 2308, 2309, 2328, 2327
1970, 2309, 2310, 2329, 2328
1971, 2310, 2311, 2330, 2329
1972, 2311, 2312, 2331, 2330
1973, 2312, 2313, 2332, 2331
1974, 2313, 2314, 2333, 2332
1975, 2314, 2315, 2334, 2333
1976, 2315, 2316, 2335, 2334
1977, 2316, 2317, 2336, 2335
1978, 2317, 2318, 2337, 2336
1979, 2318, 2319, 2338, 2337
1980, 2319,  125,  126, 2338
1981,  146, 2320,  145,    4
1982, 2320, 2321,  144,  145
1983, 2321, 2322,  143,  144
1984, 2322, 2323,  142,  143
1985, 2323, 2324,  141,  142
1986, 2324, 2325,  140,  141
1987, 2325, 2326,  139,  140
1988, 2326, 2327,  138,  139
1989, 2327, 2328,  137,  138
1990, 2328, 2329,  136,  137
1991, 2329, 2330,  135,  136
1992, 2330, 2331,  134,  135
1993, 2331, 2332,  133,  134
1994, 2332, 2333,  132,  133
1995, 2333, 2334,  131,  132
1996, 2334, 2335,  130,  131
1997, 2335, 2336,  129,  130
1998, 2336, 2337,  128,  129
1999, 2337, 2338,  127,  128
2000, 2338,  126,    3,  127
2001,    4,  145, 2339,  301
2002,  145,  144, 2340, 2339
2003,  144,  143, 2341, 2340
2004,  143,  142, 2342, 2341
2005,  142,  141, 2343, 2342
2006,  141,  140, 2344, 2343
2007,  140,  139, 2345, 2344
2008,  139,  138, 2346, 2345
2009,  138,  137, 2347, 2346
2010,  137,  136, 2348, 2347
2011,  136,  135, 2349, 2348
2012,  135,  134, 2350, 2349
2013,  134,  133, 2351, 2350
2014,  133,  132, 2352, 2351
2015,  132,  131, 2353, 2352
2016,  131,  130, 2354, 2353
2017,  130,  129, 2355, 2354
2018,  129,  128, 2356, 2355
2019,  128,  127, 2357, 2356
2020,  127,    3,  245, 2357
2021,  301, 2339, 2358,  300
2022, 2339, 2340, 2359, 2358
2023, 2340, 2341, 2360, 2359
2024, 2341, 2342, 2361, 2360
2025, 2342, 2343, 2362, 2361
2026, 2343, 2344, 2363, 2362
2027, 2344, 2345, 2364, 2363
2028, 2345, 2346, 2365, 2364
2029, 2346, 2347, 2366, 2365
2030, 2347, 2348, 2367, 2366
2031, 2348, 2349, 2368, 2367
2032, 2349, 2350, 2369, 2368
2033, 2350, 2351, 2370, 2369
2034, 2351, 2352, 2371, 2370
2035, 2352, 2353, 2372, 2371
2036, 2353, 2354, 2373, 2372
2037, 2354, 2355, 2374, 2373
2038, 2355, 2356, 2375, 2374
2039, 2356, 2357, 2376, 2375
2040, 2357,  245,  246, 2376
2041,  300, 2358, 2377,  299
2042, 2358, 2359, 2378, 2377
2043, 2359, 2360, 2379, 2378
2044, 2360, 2361, 2380, 2379
2045, 2361, 2362, 2381, 2380
2046, 2362, 2363, 2382, 2381
2047, 2363, 2364, 2383, 2382
2048, 2364, 2365, 2384, 2383
2049, 2365, 2366, 2385, 2384
2050, 2366, 2367, 2386, 2385
2051, 2367, 2368, 2387, 2386
2052, 2368, 2369, 2388, 2387
2053, 2369, 2370, 2389, 2388
2054, 2370, 2371, 2390, 2389
2055, 2371, 2372, 2391, 2390
2056, 2372, 2373, 2392, 2391
2057, 2373, 2374, 2393, 2392
2058, 2374, 2375, 2394, 2393
2059, 2375, 2376, 2395, 2394
2060, 2376,  246,  247, 2395
2061,  299, 2377, 2396,  298
2062, 2377, 2378, 2397, 2396
2063, 2378, 2379, 2398, 2397
2064, 2379, 2380, 2399, 2398
2065, 2380, 2381, 2400, 2399
2066, 2381, 2382, 2401, 2400
2067, 2382, 2383, 2402, 2401
2068, 2383, 2384, 2403, 2402
2069, 2384, 2385, 2404, 2403
2070, 2385, 2386, 2405, 2404
2071, 2386, 2387, 2406, 2405
2072, 2387, 2388, 2407, 2406
2073, 2388, 2389, 2408, 2407
2074, 2389, 2390, 2409, 2408
2075, 2390, 2391, 2410, 2409
2076, 2391, 2392, 2411, 2410
2077, 2392, 2393, 2412, 2411
2078, 2393, 2394, 2413, 2412
2079, 2394, 2395, 2414, 2413
2080, 2395,  247,  248, 2414
2081,  298, 2396, 2415,  297
2082, 2396, 2397, 2416, 2415
2083, 2397, 2398, 2417, 2416
2084, 2398, 2399, 2418, 2417
2085, 2399, 2400, 2419, 2418
2086, 2400, 2401, 2420, 2419
2087, 2401, 2402, 2421, 2420
2088, 2402, 2403, 2422, 2421
2089, 2403, 2404, 2423, 2422
2090, 2404, 2405, 2424, 2423
2091, 2405, 2406, 2425, 2424
2092, 2406, 2407, 2426, 2425
2093, 2407, 2408, 2427, 2426
2094, 2408, 2409, 2428, 2427
2095, 2409, 2410, 2429, 2428
2096, 2410, 2411, 2430, 2429
2097, 2411, 2412, 2431, 2430
2098, 2412, 2413, 2432, 2431
2099, 2413, 2414, 2433, 2432
2100, 2414,  248,  249, 2433
2101,  297, 2415, 2434,  296
2102, 2415, 2416, 2435, 2434
2103, 2416, 2417, 2436, 2435
2104, 2417, 2418, 2437, 2436
2105, 2418, 2419, 2438, 2437
2106, 2419, 2420, 2439, 2438
2107, 2420, 2421, 2440, 2439
2108, 2421, 2422, 2441, 2440
2109, 2422, 2423, 2442, 2441
2110, 2423, 2424, 2443, 2442
2111, 2424, 2425, 2444, 2443
2112, 2425, 2426, 2445, 2444
2113, 2426, 2427, 2446, 2445
2114, 2427, 2428, 2447, 2446
2115, 2428, 2429, 2448, 2447
2116, 2429, 2430, 2449, 2448
2117, 2430, 2431, 2450, 2449
2118, 2431, 2432, 2451, 2450
2119, 2432, 2433, 2452, 2451
2120, 2433,  249,  250, 2452
2121,  296, 2434, 2453,  295
2122, 2434, 2435, 2454, 2453
2123, 2435, 2436, 2455, 2454
2124, 2436, 2437, 2456, 2455
2125, 2437, 2438, 2457, 2456
2126, 2438, 2439, 2458, 2457
2127, 2439, 2440, 2459, 2458
2128, 2440, 2441, 2460, 2459
2129, 2441, 2442, 2461, 2460
2130, 2442, 2443, 2462, 2461
2131, 2443, 2444, 2463, 2462
2132, 2444, 2445, 2464, 2463
2133, 2445, 2446, 2465, 2464
2134, 2446, 2447, 2466, 2465
2135, 2447, 2448, 2467, 2466
2136, 2448, 2449, 2468, 2467
2137, 2449, 2450, 2469, 2468
2138, 2450, 2451, 2470, 2469
2139, 2451, 2452, 2471, 2470
2140, 2452,  250,  251, 2471
2141,  295, 2453, 2472,  294
2142, 2453, 2454, 2473, 2472
2143, 2454, 2455, 2474, 2473
2144, 2455, 2456, 2475, 2474
2145, 2456, 2457, 2476, 2475
2146, 2457, 2458, 2477, 2476
2147, 2458, 2459, 2478, 2477
2148, 2459, 2460, 2479, 2478
2149, 2460, 2461, 2480, 2479
2150, 2461, 2462, 2481, 2480
2151, 2462, 2463, 2482, 2481
2152, 2463, 2464, 2483, 2482
2153, 2464, 2465, 2484, 2483
2154, 2465, 2466, 2485, 2484
2155, 2466, 2467, 2486, 2485
2156, 2467, 2468, 2487, 2486
2157, 2468, 2469, 2488, 2487
2158, 2469, 2470, 2489, 2488
2159, 2470, 2471, 2490, 2489
2160, 2471,  251,  252, 2490
2161,  294, 2472, 2491,  293
2162, 2472, 2473, 2492, 2491
2163, 2473, 2474, 2493, 2492
2164, 2474, 2475, 2494, 2493
2165, 2475, 2476, 2495, 2494
2166, 2476, 2477, 2496, 2495
2167, 2477, 2478, 2497, 2496
2168, 2478, 2479, 2498, 2497
2169, 2479, 2480, 2499, 2498
2170, 2480, 2481, 2500, 2499
2171, 2481, 2482, 2501, 2500
2172, 2482, 2483, 2502, 2501
2173, 2483, 2484, 2503, 2502
2174, 2484, 2485, 2504, 2503
2175, 2485, 2486, 2505, 2504
2176, 2486, 2487, 2506, 2505
2177, 2487, 2488, 2507, 2506
2178, 2488, 2489, 2508, 2507
2179, 2489, 2490, 2509, 2508
2180, 2490,  252,  253, 2509
2181,  293, 2491, 2510,  292
2182, 2491, 2492, 2511, 2510
2183, 2492, 2493, 2512, 2511
2184, 2493, 2494, 2513, 2512
2185, 2494, 2495, 2514, 2513
2186, 2495, 2496, 2515, 2514
2187, 2496, 2497, 2516, 2515
2188, 2497, 2498, 2517, 2516
2189, 2498, 2499, 2518, 2517
2190, 2499, 2500, 2519, 2518
2191, 2500, 2501, 2520, 2519
2192, 2501, 2502, 2521, 2520
2193, 2502, 2503, 2522, 2521
2194, 2503, 2504, 2523, 2522
2195, 2504, 2505, 2524, 2523
2196, 2505, 2506, 2525, 2524
2197, 2506, 2507, 2526, 2525
2198, 2507, 2508, 2527, 2526
2199, 2508, 2509, 2528, 2527
2200, 2509,  253,  254, 2528
2201,  292, 2510, 2529,  291
2202, 2510, 2511, 2530, 2529
2203, 2511, 2512, 2531, 2530
2204, 2512, 2513, 2532, 2531
2205, 2513, 2514, 2533, 2532
2206, 2514, 2515, 2534, 2533
2207, 2515, 2516, 2535, 2534
2208, 2516, 2517, 2536, 2535
2209, 2517, 2518, 2537, 2536
2210, 2518, 2519, 2538, 2537
2211, 2519, 2520, 2539, 2538
2212, 2520, 2521, 2540, 2539
2213, 2521, 2522, 2541, 2540
2214, 2522, 2523, 2542, 2541
2215, 2523, 2524, 2543, 2542
2216, 2524, 2525, 2544, 2543
2217, 2525, 2526, 2545, 2544
2218, 2526, 2527, 2546, 2545
2219, 2527, 2528, 2547, 2546
2220, 2528,  254,  255, 2547
2221,  291, 2529, 2548,  290
2222, 2529, 2530, 2549, 2548
2223, 2530, 2531, 2550, 2549
2224, 2531, 2532, 2551, 2550
2225, 2532, 2533, 2552, 2551
2226, 2533, 2534, 2553, 2552
2227, 2534, 2535, 2554, 2553
2228, 2535, 2536, 2555, 2554
2229, 2536, 2537, 2556, 2555
2230, 2537, 2538, 2557, 2556
2231, 2538, 2539, 2558, 2557
2232, 2539, 2540, 2559, 2558
2233, 2540, 2541, 2560, 2559
2234, 2541, 2542, 2561, 2560
2235, 2542, 2543, 2562, 2561
2236, 2543, 2544, 2563, 2562
2237, 2544, 2545, 2564, 2563
2238, 2545, 2546, 2565, 2564
2239, 2546, 2547, 2566, 2565
2240, 2547,  255,  256, 2566
2241,  290, 2548, 2567,  289
2242, 2548, 2549, 2568, 2567
2243, 2549, 2550, 2569, 2568
2244, 2550, 2551, 2570, 2569
2245, 2551, 2552, 2571, 2570
2246, 2552, 2553, 2572, 2571
2247, 2553, 2554, 2573, 2572
2248, 2554, 2555, 2574, 2573
2249, 2555, 2556, 2575, 2574
2250, 2556, 2557, 2576, 2575
2251, 2557, 2558, 2577, 2576
2252, 2558, 2559, 2578, 2577
2253, 2559, 2560, 2579, 2578
2254, 2560, 2561, 2580, 2579
2255, 2561, 2562, 2581, 2580
2256, 2562, 2563, 2582, 2581
2257, 2563, 2564, 2583, 2582
2258, 2564, 2565, 2584, 2583
2259, 2565, 2566, 2585, 2584
2260, 2566,  256,  257, 2585
2261,  289, 2567, 2586,  288
2262, 2567, 2568, 2587, 2586
2263, 2568, 2569, 2588, 2587
2264, 2569, 2570, 2589, 2588
2265, 2570, 2571, 2590, 2589
2266, 2571, 2572, 2591, 2590
2267, 2572, 2573, 2592, 2591
2268, 2573, 2574, 2593, 2592
2269, 2574, 2575, 2594, 2593
2270, 2575, 2576, 2595, 2594
2271, 2576, 2577, 2596, 2595
2272, 2577, 2578, 2597, 2596
2273, 2578, 2579, 2598, 2597
2274, 2579, 2580, 2599, 2598
2275, 2580, 2581, 2600, 2599
2276, 2581, 2582, 2601, 2600
2277, 2582, 2583, 2602, 2601
2278, 2583, 2584, 2603, 2602
2279, 2584, 2585, 2604, 2603
2280, 2585,  257,  258, 2604
2281,  288, 2586, 2605,  287
2282, 2586, 2587, 2606, 2605
2283, 2587, 2588, 2607, 2606
2284, 2588, 2589, 2608, 2607
2285, 2589, 2590, 2609, 2608
2286, 2590, 2591, 2610, 2609
2287, 2591, 2592, 2611, 2610
2288, 2592, 2593, 2612, 2611
2289, 2593, 2594, 2613, 2612
2290, 2594, 2595, 2614, 2613
2291, 2595, 2596, 2615, 2614
2292, 2596, 2597, 2616, 2615
2293, 2597, 2598, 2617, 2616
2294, 2598, 2599, 2618, 2617
2295, 2599, 2600, 2619, 2618
2296, 2600, 2601, 2620, 2619
2297, 2601, 2602, 2621, 2620
2298, 2602, 2603, 2622, 2621
2299, 2603, 2604, 2623, 2622
2300, 2604,  258,  259, 2623
2301,  287, 2605, 2624,  286
2302, 2605, 2606, 2625, 2624
2303, 2606, 2607, 2626, 2625
2304, 2607, 2608, 2627, 2626
2305, 2608, 2609, 2628, 2627
2306, 2609, 2610, 2629, 2628
2307, 2610, 2611, 2630, 2629
2308, 2611, 2612, 2631, 2630
2309, 2612, 2613, 2632, 2631
2310, 2613, 2614, 2633, 2632
2311, 2614, 2615, 2634, 2633
2312, 2615, 2616, 2635, 2634
2313, 2616, 2617, 2636, 2635
2314, 2617, 2618, 2637, 2636
2315, 2618, 2619, 2638, 2637
2316, 2619, 2620, 2639, 2638
2317, 2620, 2621, 2640, 2639
2318, 2621, 2622, 2641, 2640
2319, 2622, 2623, 2642, 2641
2320, 2623,  259,  260, 2642
2321,  286, 2624, 2643,  285
2322, 2624, 2625, 2644, 2643
2323, 2625, 2626, 2645, 2644
2324, 2626, 2627, 2646, 2645
2325, 2627, 2628, 2647, 2646
2326, 2628, 2629, 2648, 2647
2327, 2629, 2630, 2649, 2648
2328, 2630, 2631, 2650, 2649
2329, 2631, 2632, 2651, 2650
2330, 2632, 2633, 2652, 2651
2331, 2633, 2634, 2653, 2652
2332, 2634, 2635, 2654, 2653
2333, 2635, 2636, 2655, 2654
2334, 2636, 2637, 2656, 2655
2335, 2637, 2638, 2657, 2656
2336, 2638, 2639, 2658, 2657
2337, 2639, 2640, 2659, 2658
2338, 2640, 2641, 2660, 2659
2339, 2641, 2642, 2661, 2660
2340, 2642,  260,  261, 2661
2341,  285, 2643, 2662,  284
2342, 2643, 2644, 2663, 2662
2343, 2644, 2645, 2664, 2663
2344, 2645, 2646, 2665, 2664
2345, 2646, 2647, 2666, 2665
2346, 2647, 2648, 2667, 2666
2347, 2648, 2649, 2668, 2667
2348, 2649, 2650, 2669, 2668
2349, 2650, 2651, 2670, 2669
2350, 2651, 2652, 2671, 2670
2351, 2652, 2653, 2672, 2671
2352, 2653, 2654, 2673, 2672
2353, 2654, 2655, 2674, 2673
2354, 2655, 2656, 2675, 2674
2355, 2656, 2657, 2676, 2675
2356, 2657, 2658, 2677, 2676
2357, 2658, 2659, 2678, 2677
2358, 2659, 2660, 2679, 2678
2359, 2660, 2661, 2680, 2679
2360, 2661,  261,  262, 2680
2361,  284, 2662, 2681,  283
2362, 2662, 2663, 2682, 2681
2363, 2663, 2664, 2683, 2682
2364, 2664, 2665, 2684, 2683
2365, 2665, 2666, 2685, 2684
2366, 2666, 2667, 2686, 2685
2367, 2667, 2668, 2687, 2686
2368, 2668, 2669, 2688, 2687
2369, 2669, 2670, 2689, 2688
2370, 2670, 2671, 2690, 2689
2371, 2671, 2672, 2691, 2690
2372, 2672, 2673, 2692, 2691
2373, 2673, 2674, 2693, 2692
2374, 2674, 2675, 2694, 2693
2375, 2675, 2676, 2695, 2694
2376, 2676, 2677, 2696, 2695
2377, 2677, 2678, 2697, 2696
2378, 2678, 2679, 2698, 2697
2379, 2679, 2680, 2699, 2698
2380, 2680,  262,  263, 2699
2381,  283, 2681,  282,    6
2382, 2681, 2682,  281,  282
2383, 2682, 2683,  280,  281
2384, 2683, 2684,  279,  280
2385, 2684, 2685,  278,  279
2386, 2685, 2686,  277,  278
2387, 2686, 2687,  276,  277
2388, 2687, 2688,  275,  276
2389, 2688, 2689,  274,  275
2390, 2689, 2690,  273,  274
2391, 2690, 2691,  272,  273
2392, 2691, 2692,  271,  272
2393, 2692, 2693,  270,  271
2394, 2693, 2694,  269,  270
2395, 2694, 2695,  268,  269
2396, 2695, 2696,  267,  268
2397, 2696, 2697,  266,  267
2398, 2697, 2698,  265,  266
2399, 2698, 2699,  264,  265
2400, 2699,  263,    5,  264
2401,    7,  302, 2700,  358
2402,  302,  303, 2701, 2700
2403,  303,  304, 2702, 2701
2404,  304,  305, 2703, 2702
2405,  305,  306, 2704, 2703
2406,  306,  307, 2705, 2704
2407,  307,  308, 2706, 2705
2408,  308,  309, 2707, 2706
2409,  309,  310, 2708, 2707
2410,  310,  311, 2709, 2708
2411,  311,  312, 2710, 2709
2412,  312,  313, 2711, 2710
2413,  313,  314, 2712, 2711
2414,  314,  315, 2713, 2712
2415,  315,  316, 2714, 2713
2416,  316,  317, 2715, 2714
2417,  317,  318, 2716, 2715
2418,  318,  319, 2717, 2716
2419,  319,  320, 2718, 2717
2420,  320,    2,   27, 2718
2421,  358, 2700, 2719,  357
2422, 2700, 2701, 2720, 2719
2423, 2701, 2702, 2721, 2720
2424, 2702, 2703, 2722, 2721
2425, 2703, 2704, 2723, 2722
2426, 2704, 2705, 2724, 2723
2427, 2705, 2706, 2725, 2724
2428, 2706, 2707, 2726, 2725
2429, 2707, 2708, 2727, 2726
2430, 2708, 2709, 2728, 2727
2431, 2709, 2710, 2729, 2728
2432, 2710, 2711, 2730, 2729
2433, 2711, 2712, 2731, 2730
2434, 2712, 2713, 2732, 2731
2435, 2713, 2714, 2733, 2732
2436, 2714, 2715, 2734, 2733
2437, 2715, 2716, 2735, 2734
2438, 2716, 2717, 2736, 2735
2439, 2717, 2718, 2737, 2736
2440, 2718,   27,   26, 2737
2441,  357, 2719, 2738,  356
2442, 2719, 2720, 2739, 2738
2443, 2720, 2721, 2740, 2739
2444, 2721, 2722, 2741, 2740
2445, 2722, 2723, 2742, 2741
2446, 2723, 2724, 2743, 2742
2447, 2724, 2725, 2744, 2743
2448, 2725, 2726, 2745, 2744
2449, 2726, 2727, 2746, 2745
2450, 2727, 2728, 2747, 2746
2451, 2728, 2729, 2748, 2747
2452, 2729, 2730, 2749, 2748
2453, 2730, 2731, 2750, 2749
2454, 2731, 2732, 2751, 2750
2455, 2732, 2733, 2752, 2751
2456, 2733, 2734, 2753, 2752
2457, 2734, 2735, 2754, 2753
2458, 2735, 2736, 2755, 2754
2459, 2736, 2737, 2756, 2755
2460, 2737,   26,   25, 2756
2461,  356, 2738, 2757,  355
2462, 2738, 2739, 2758, 2757
2463, 2739, 2740, 2759, 2758
2464, 2740, 2741, 2760, 2759
2465, 2741, 2742, 2761, 2760
2466, 2742, 2743, 2762, 2761
2467, 2743, 2744, 2763, 2762
2468, 2744, 2745, 2764, 2763
2469, 2745, 2746, 2765, 2764
2470, 2746, 2747, 2766, 2765
2471, 2747, 2748, 2767, 2766
2472, 2748, 2749, 2768, 2767
2473, 2749, 2750, 2769, 2768
2474, 2750, 2751, 2770, 2769
2475, 2751, 2752, 2771, 2770
2476, 2752, 2753, 2772, 2771
2477, 2753, 2754, 2773, 2772
2478, 2754, 2755, 2774, 2773
2479, 2755, 2756, 2775, 2774
2480, 2756,   25,   24, 2775
2481,  355, 2757, 2776,  354
2482, 2757, 2758, 2777, 2776
2483, 2758, 2759, 2778, 2777
2484, 2759, 2760, 2779, 2778
2485, 2760, 2761, 2780, 2779
2486, 2761, 2762, 2781, 2780
2487, 2762, 2763, 2782, 2781
2488, 2763, 2764, 2783, 2782
2489, 2764, 2765, 2784, 2783
2490, 2765, 2766, 2785, 2784
2491, 2766, 2767, 2786, 2785
2492, 2767, 2768, 2787, 2786
2493, 2768, 2769, 2788, 2787
2494, 2769, 2770, 2789, 2788
2495, 2770, 2771, 2790, 2789
2496, 2771, 2772, 2791, 2790
2497, 2772, 2773, 2792, 2791
2498, 2773, 2774, 2793, 2792
2499, 2774, 2775, 2794, 2793
2500, 2775,   24,   23, 2794
2501,  354, 2776, 2795,  353
2502, 2776, 2777, 2796, 2795
2503, 2777, 2778, 2797, 2796
2504, 2778, 2779, 2798, 2797
2505, 2779, 2780, 2799, 2798
2506, 2780, 2781, 2800, 2799
2507, 2781, 2782, 2801, 2800
2508, 2782, 2783, 2802, 2801
2509, 2783, 2784, 2803, 2802
2510, 2784, 2785, 2804, 2803
2511, 2785, 2786, 2805, 2804
2512, 2786, 2787, 2806, 2805
2513, 2787, 2788, 2807, 2806
2514, 2788, 2789, 2808, 2807
2515, 2789, 2790, 2809, 2808
2516, 2790, 2791, 2810, 2809
2517, 2791, 2792, 2811, 2810
2518, 2792, 2793, 2812, 2811
2519, 2793, 2794, 2813, 2812
2520, 2794,   23,   22, 2813
2521,  353, 2795, 2814,  352
2522, 2795, 2796, 2815, 2814
2523, 2796, 2797, 2816, 2815
2524, 2797, 2798, 2817, 2816
2525, 2798, 2799, 2818, 2817
2526, 2799, 2800, 2819, 2818
2527, 2800, 2801, 2820, 2819
2528, 2801, 2802, 2821, 2820
2529, 2802, 2803, 2822, 2821
2530, 2803, 2804, 2823, 2822
2531, 2804, 2805, 2824, 2823
2532, 2805, 2806, 2825, 2824
2533, 2806, 2807, 2826, 2825
2534, 2807, 2808, 2827, 2826
2535, 2808, 2809, 2828, 2827
2536, 2809, 2810, 2829, 2828
2537, 2810, 2811, 2830, 2829
2538, 2811, 2812, 2831, 2830
2539, 2812, 2813, 2832, 2831
2540, 2813,   22,   21, 2832
2541,  352, 2814, 2833,  351
2542, 2814, 2815, 2834, 2833
2543, 2815, 2816, 2835, 2834
2544, 2816, 2817, 2836, 2835
2545, 2817, 2818, 2837, 2836
2546, 2818, 2819, 2838, 2837
2547, 2819, 2820, 2839, 2838
2548, 2820, 2821, 2840, 2839
2549, 2821, 2822, 2841, 2840
2550, 2822, 2823, 2842, 2841
2551, 2823, 2824, 2843, 2842
2552, 2824, 2825, 2844, 2843
2553, 2825, 2826, 2845, 2844
2554, 2826, 2827, 2846, 2845
2555, 2827, 2828, 2847, 2846
2556, 2828, 2829, 2848, 2847
2557, 2829, 2830, 2849, 2848
2558, 2830, 2831, 2850, 2849
2559, 2831, 2832, 2851, 2850
2560, 2832,   21,   20, 2851
2561,  351, 2833, 2852,  350
2562, 2833, 2834, 2853, 2852
2563, 2834, 2835, 2854, 2853
2564, 2835, 2836, 2855, 2854
2565, 2836, 2837, 2856, 2855
2566, 2837, 2838, 2857, 2856
2567, 2838, 2839, 2858, 2857
2568, 2839, 2840, 2859, 2858
2569, 2840, 2841, 2860, 2859
2570, 2841, 2842, 2861, 2860
2571, 2842, 2843, 2862, 2861
2572, 2843, 2844, 2863, 2862
2573, 2844, 2845, 2864, 2863
2574, 2845, 2846, 2865, 2864
2575, 2846, 2847, 2866, 2865
2576, 2847, 2848, 2867, 2866
2577, 2848, 2849, 2868, 2867
2578, 2849, 2850, 2869, 2868
2579, 2850, 2851, 2870, 2869
2580, 2851,   20,   19, 2870
2581,  350, 2852, 2871,  349
2582, 2852, 2853, 2872, 2871
2583, 2853, 2854, 2873, 2872
2584, 2854, 2855, 2874, 2873
2585, 2855, 2856, 2875, 2874
2586, 2856, 2857, 2876, 2875
2587, 2857, 2858, 2877, 2876
2588, 2858, 2859, 2878, 2877
2589, 2859, 2860, 2879, 2878
2590, 2860, 2861, 2880, 2879
2591, 2861, 2862, 2881, 2880
2592, 2862, 2863, 2882, 2881
2593, 2863, 2864, 2883, 2882
2594, 2864, 2865, 2884, 2883
2595, 2865, 2866, 2885, 2884
2596, 2866, 2867, 2886, 2885
2597, 2867, 2868, 2887, 2886
2598, 2868, 2869, 2888, 2887
2599, 2869, 2870, 2889, 2888
2600, 2870,   19,   18, 2889
2601,  349, 2871, 2890,  348
2602, 2871, 2872, 2891, 2890
2603, 2872, 2873, 2892, 2891
2604, 2873, 2874, 2893, 2892
2605, 2874, 2875, 2894, 2893
2606, 2875, 2876, 2895, 2894
2607, 2876, 2877, 2896, 2895
2608, 2877, 2878, 2897, 2896
2609, 2878, 2879, 2898, 2897
2610, 2879, 2880, 2899, 2898
2611, 2880, 2881, 2900, 2899
2612, 2881, 2882, 2901, 2900
2613, 2882, 2883, 2902, 2901
2614, 2883, 2884, 2903, 2902
2615, 2884, 2885, 2904, 2903
2616, 2885, 2886, 2905, 2904
2617, 2886, 2887, 2906, 2905
2618, 2887, 2888, 2907, 2906
2619, 2888, 2889, 2908, 2907
2620, 2889,   18,   17, 2908
2621,  348, 2890, 2909,  347
2622, 2890, 2891, 2910, 2909
2623, 2891, 2892, 2911, 2910
2624, 2892, 2893, 2912, 2911
2625, 2893, 2894, 2913, 2912
2626, 2894, 2895, 2914, 2913
2627, 2895, 2896, 2915, 2914
2628, 2896, 2897, 2916, 2915
2629, 2897, 2898, 2917, 2916
2630, 2898, 2899, 2918, 2917
2631, 2899, 2900, 2919, 2918
2632, 2900, 2901, 2920, 2919
2633, 2901, 2902, 2921, 2920
2634, 2902, 2903, 2922, 2921
2635, 2903, 2904, 2923, 2922
2636, 2904, 2905, 2924, 2923
2637, 2905, 2906, 2925, 2924
2638, 2906, 2907, 2926, 2925
2639, 2907, 2908, 2927, 2926
2640, 2908,   17,   16, 2927
2641,  347, 2909, 2928,  346
2642, 2909, 2910, 2929, 2928
2643, 2910, 2911, 2930, 2929
2644, 2911, 2912, 2931, 2930
2645, 2912, 2913, 2932, 2931
2646, 2913, 2914, 2933, 2932
2647, 2914, 2915, 2934, 2933
2648, 2915, 2916, 2935, 2934
2649, 2916, 2917, 2936, 2935
2650, 2917, 2918, 2937, 2936
2651, 2918, 2919, 2938, 2937
2652, 2919, 2920, 2939, 2938
2653, 2920, 2921, 2940, 2939
2654, 2921, 2922, 2941, 2940
2655, 2922, 2923, 2942, 2941
2656, 2923, 2924, 2943, 2942
2657, 2924, 2925, 2944, 2943
2658, 2925, 2926, 2945, 2944
2659, 2926, 2927, 2946, 2945
2660, 2927,   16,   15, 2946
2661,  346, 2928, 2947,  345
2662, 2928, 2929, 2948, 2947
2663, 2929, 2930, 2949, 2948
2664, 2930, 2931, 2950, 2949
2665, 2931, 2932, 2951, 2950
2666, 2932, 2933, 2952, 2951
2667, 2933, 2934, 2953, 2952
2668, 2934, 2935, 2954, 2953
2669, 2935, 2936, 2955, 2954
2670, 2936, 2937, 2956, 2955
2671, 2937, 2938, 2957, 2956
2672, 2938, 2939, 2958, 2957
2673, 2939, 2940, 2959, 2958
2674, 2940, 2941, 2960, 2959
2675, 2941, 2942, 2961, 2960
2676, 2942, 2943, 2962, 2961
2677, 2943, 2944, 2963, 2962
2678, 2944, 2945, 2964, 2963
2679, 2945, 2946, 2965, 2964
2680, 2946,   15,   14, 2965
2681,  345, 2947, 2966,  344
2682, 2947, 2948, 2967, 2966
2683, 2948, 2949, 2968, 2967
2684, 2949, 2950, 2969, 2968
2685, 2950, 2951, 2970, 2969
2686, 2951, 2952, 2971, 2970
2687, 2952, 2953, 2972, 2971
2688, 2953, 2954, 2973, 2972
2689, 2954, 2955, 2974, 2973
2690, 2955, 2956, 2975, 2974
2691, 2956, 2957, 2976, 2975
2692, 2957, 2958, 2977, 2976
2693, 2958, 2959, 2978, 2977
2694, 2959, 2960, 2979, 2978
2695, 2960, 2961, 2980, 2979
2696, 2961, 2962, 2981, 2980
2697, 2962, 2963, 2982, 2981
2698, 2963, 2964, 2983, 2982
2699, 2964, 2965, 2984, 2983
2700, 2965,   14,   13, 2984
2701,  344, 2966, 2985,  343
2702, 2966, 2967, 2986, 2985
2703, 2967, 2968, 2987, 2986
2704, 2968, 2969, 2988, 2987
2705, 2969, 2970, 2989, 2988
2706, 2970, 2971, 2990, 2989
2707, 2971, 2972, 2991, 2990
2708, 2972, 2973, 2992, 2991
2709, 2973, 2974, 2993, 2992
2710, 2974, 2975, 2994, 2993
2711, 2975, 2976, 2995, 2994
2712, 2976, 2977, 2996, 2995
2713, 2977, 2978, 2997, 2996
2714, 2978, 2979, 2998, 2997
2715, 2979, 2980, 2999, 2998
2716, 2980, 2981, 3000, 2999
2717, 2981, 2982, 3001, 3000
2718, 2982, 2983, 3002, 3001
2719, 2983, 2984, 3003, 3002
2720, 2984,   13,   12, 3003
2721,  343, 2985, 3004,  342
2722, 2985, 2986, 3005, 3004
2723, 2986, 2987, 3006, 3005
2724, 2987, 2988, 3007, 3006
2725, 2988, 2989, 3008, 3007
2726, 2989, 2990, 3009, 3008
2727, 2990, 2991, 3010, 3009
2728, 2991, 2992, 3011, 3010
2729, 2992, 2993, 3012, 3011
2730, 2993, 2994, 3013, 3012
2731, 2994, 2995, 3014, 3013
2732, 2995, 2996, 3015, 3014
2733, 2996, 2997, 3016, 3015
2734, 2997, 2998, 3017, 3016
2735, 2998, 2999, 3018, 3017
2736, 2999, 3000, 3019, 3018
2737, 3000, 3001, 3020, 3019
2738, 3001, 3002, 3021, 3020
2739, 3002, 3003, 3022, 3021
2740, 3003,   12,   11, 3022
2741,  342, 3004, 3023,  341
2742, 3004, 3005, 3024, 3023
2743, 3005, 3006, 3025, 3024
2744, 3006, 3007, 3026, 3025
2745, 3007, 3008, 3027, 3026
2746, 3008, 3009, 3028, 3027
2747, 3009, 3010, 3029, 3028
2748, 3010, 3011, 3030, 3029
2749, 3011, 3012, 3031, 3030
2750, 3012, 3013, 3032, 3031
2751, 3013, 3014, 3033, 3032
2752, 3014, 3015, 3034, 3033
2753, 3015, 3016, 3035, 3034
2754, 3016, 3017, 3036, 3035
2755, 3017, 3018, 3037, 3036
2756, 3018, 3019, 3038, 3037
2757, 3019, 3020, 3039, 3038
2758, 3020, 3021, 3040, 3039
2759, 3021, 3022, 3041, 3040
2760, 3022,   11,   10, 3041
2761,  341, 3023, 3042,  340
2762, 3023, 3024, 3043, 3042
2763, 3024, 3025, 3044, 3043
2764, 3025, 3026, 3045, 3044
2765, 3026, 3027, 3046, 3045
2766, 3027, 3028, 3047, 3046
2767, 3028, 3029, 3048, 3047
2768, 3029, 3030, 3049, 3048
2769, 3030, 3031, 3050, 3049
2770, 3031, 3032, 3051, 3050
2771, 3032, 3033, 3052, 3051
2772, 3033, 3034, 3053, 3052
2773, 3034, 3035, 3054, 3053
2774, 3035, 3036, 3055, 3054
2775, 3036, 3037, 3056, 3055
2776, 3037, 3038, 3057, 3056
2777, 3038, 3039, 3058, 3057
2778, 3039, 3040, 3059, 3058
2779, 3040, 3041, 3060, 3059
2780, 3041,   10,    9, 3060
2781,  340, 3042,  339,    8
2782, 3042, 3043,  338,  339
2783, 3043, 3044,  337,  338
2784, 3044, 3045,  336,  337
2785, 3045, 3046,  335,  336
2786, 3046, 3047,  334,  335
2787, 3047, 3048,  333,  334
2788, 3048, 3049,  332,  333
2789, 3049, 3050,  331,  332
2790, 3050, 3051,  330,  331
2791, 3051, 3052,  329,  330
2792, 3052, 3053,  328,  329
2793, 3053, 3054,  327,  328
2794, 3054, 3055,  326,  327
2795, 3055, 3056,  325,  326
2796, 3056, 3057,  324,  325
2797, 3057, 3058,  323,  324
2798, 3058, 3059,  322,  323
2799, 3059, 3060,  321,  322
2800, 3060,    9,    1,  321
2801,    2,  320, 3061,   28
2802,  320,  319, 3062, 3061
2803,  319,  318, 3063, 3062
2804,  318,  317, 3064, 3063
2805,  317,  316, 3065, 3064
2806,  316,  315, 3066, 3065
2807,  315,  314, 3067, 3066
2808,  314,  313, 3068, 3067
2809,  313,  312, 3069, 3068
2810,  312,  311, 3070, 3069
2811,  311,  310, 3071, 3070
2812,  310,  309, 3072, 3071
2813,  309,  308, 3073, 3072
2814,  308,  307, 3074, 3073
2815,  307,  306, 3075, 3074
2816,  306,  305, 3076, 3075
2817,  305,  304, 3077, 3076
2818,  304,  303, 3078, 3077
2819,  303,  302, 3079, 3078
2820,  302,    7,  359, 3079
2821,   28, 3061, 3080,   29
2822, 3061, 3062, 3081, 3080
2823, 3062, 3063, 3082, 3081
2824, 3063, 3064, 3083, 3082
2825, 3064, 3065, 3084, 3083
2826, 3065, 3066, 3085, 3084
2827, 3066, 3067, 3086, 3085
2828, 3067, 3068, 3087, 3086
2829, 3068, 3069, 3088, 3087
2830, 3069, 3070, 3089, 3088
2831, 3070, 3071, 3090, 3089
2832, 3071, 3072, 3091, 3090
2833, 3072, 3073, 3092, 3091
2834, 3073, 3074, 3093, 3092
2835, 3074, 3075, 3094, 3093
2836, 3075, 3076, 3095, 3094
2837, 3076, 3077, 3096, 3095
2838, 3077, 3078, 3097, 3096
2839, 3078, 3079, 3098, 3097
2840, 3079,  359,  360, 3098
2841,   29, 3080, 3099,   30
2842, 3080, 3081, 3100, 3099
2843, 3081, 3082, 3101, 3100
2844, 3082, 3083, 3102, 3101
2845, 3083, 3084, 3103, 3102
2846, 3084, 3085, 3104, 3103
2847, 3085, 3086, 3105, 3104
2848, 3086, 3087, 3106, 3105
2849, 3087, 3088, 3107, 3106
2850, 3088, 3089, 3108, 3107
2851, 3089, 3090, 3109, 3108
2852, 3090, 3091, 3110, 3109
2853, 3091, 3092, 3111, 3110
2854, 3092, 3093, 3112, 3111
2855, 3093, 3094, 3113, 3112
2856, 3094, 3095, 3114, 3113
2857, 3095, 3096, 3115, 3114
2858, 3096, 3097, 3116, 3115
2859, 3097, 3098, 3117, 3116
2860, 3098,  360,  361, 3117
2861,   30, 3099, 3118,   31
2862, 3099, 3100, 3119, 3118
2863, 3100, 3101, 3120, 3119
2864, 3101, 3102, 3121, 3120
2865, 3102, 3103, 3122, 3121
2866, 3103, 3104, 3123, 3122
2867, 3104, 3105, 3124, 3123
2868, 3105, 3106, 3125, 3124
2869, 3106, 3107, 3126, 3125
2870, 3107, 3108, 3127, 3126
2871, 3108, 3109, 3128, 3127
2872, 3109, 3110, 3129, 3128
2873, 3110, 3111, 3130, 3129
2874, 3111, 3112, 3131, 3130
2875, 3112, 3113, 3132, 3131
2876, 3113, 3114, 3133, 3132
2877, 3114, 3115, 3134, 3133
2878, 3115, 3116, 3135, 3134
2879, 3116, 3117, 3136, 3135
2880, 3117,  361,  362, 3136
2881,   31, 3118, 3137,   32
2882, 3118, 3119, 3138, 3137
2883, 3119, 3120, 3139, 3138
2884, 3120, 3121, 3140, 3139
2885, 3121, 3122, 3141, 3140
2886, 3122, 3123, 3142, 3141
2887, 3123, 3124, 3143, 3142
2888, 3124, 3125, 3144, 3143
2889, 3125, 3126, 3145, 3144
2890, 3126, 3127, 3146, 3145
2891, 3127, 3128, 3147, 3146
2892, 3128, 3129, 3148, 3147
2893, 3129, 3130, 3149, 3148
2894, 3130, 3131, 3150, 3149
2895, 3131, 3132, 3151, 3150
2896, 3132, 3133, 3152, 3151
2897, 3133, 3134, 3153, 3152
2898, 3134, 3135, 3154, 3153
2899, 3135, 3136, 3155, 3154
2900, 3136,  362,  363, 3155
2901,   32, 3137, 3156,   33
2902, 3137, 3138, 3157, 3156
2903, 3138, 3139, 3158, 3157
2904, 3139, 3140, 3159, 3158
2905, 3140, 3141, 3160, 3159
2906, 3141, 3142, 3161, 3160
2907, 3142, 3143, 3162, 3161
2908, 3143, 3144, 3163, 3162
2909, 3144, 3145, 3164, 3163
2910, 3145, 3146, 3165, 3164
2911, 3146, 3147, 3166, 3165
2912, 3147, 3148, 3167, 3166
2913, 3148, 3149, 3168, 3167
2914, 3149, 3150, 3169, 3168
2915, 3150, 3151, 3170, 3169
2916, 3151, 3152, 3171, 3170
2917, 3152, 3153, 3172, 3171
2918, 3153, 3154, 3173, 3172
2919, 3154, 3155, 3174, 3173
2920, 3155,  363,  364, 3174
2921,   33, 3156, 3175,   34
2922, 3156, 3157, 3176, 3175
2923, 3157, 3158, 3177, 3176
2924, 3158, 3159, 3178, 3177
2925, 3159, 3160, 3179, 3178
2926, 3160, 3161, 3180, 3179
2927, 3161, 3162, 3181, 3180
2928, 3162, 3163, 3182, 3181
2929, 3163, 3164, 3183, 3182
2930, 3164, 3165, 3184, 3183
2931, 3165, 3166, 3185, 3184
2932, 3166, 3167, 3186, 3185
2933, 3167, 3168, 3187, 3186
2934, 3168, 3169, 3188, 3187
2935, 3169, 3170, 3189, 3188
2936, 3170, 3171, 3190, 3189
2937, 3171, 3172, 3191, 3190
2938, 3172, 3173, 3192, 3191
2939, 3173, 3174, 3193, 3192
2940, 3174,  364,  365, 3193
2941,   34, 3175, 3194,   35
2942, 3175, 3176, 3195, 3194
2943, 3176, 3177, 3196, 3195
2944, 3177, 3178, 3197, 3196
2945, 3178, 3179, 3198, 3197
2946, 3179, 3180, 3199, 3198
2947, 3180, 3181, 3200, 3199
2948, 3181, 3182, 3201, 3200
2949, 3182, 3183, 3202, 3201
2950, 3183, 3184, 3203, 3202
2951, 3184, 3185, 3204, 3203
2952, 3185, 3186, 3205, 3204
2953, 3186, 3187, 3206, 3205
2954, 3187, 3188, 3207, 3206
2955, 3188, 3189, 3208, 3207
2956, 3189, 3190, 3209, 3208
2957, 3190, 3191, 3210, 3209
2958, 3191, 3192, 3211, 3210
2959, 3192, 3193, 3212, 3211
2960, 3193,  365,  366, 3212
2961,   35, 3194, 3213,   36
2962, 3194, 3195, 3214, 3213
2963, 3195, 3196, 3215, 3214
2964, 3196, 3197, 3216, 3215
2965, 3197, 3198, 3217, 3216
2966, 3198, 3199, 3218, 3217
2967, 3199, 3200, 3219, 3218
2968, 3200, 3201, 3220, 3219
2969, 3201, 3202, 3221, 3220
2970, 3202, 3203, 3222, 3221
2971, 3203, 3204, 3223, 3222
2972, 3204, 3205, 3224, 3223
2973, 3205, 3206, 3225, 3224
2974, 3206, 3207, 3226, 3225
2975, 3207, 3208, 3227, 3226
2976, 3208, 3209, 3228, 3227
2977, 3209, 3210, 3229, 3228
2978, 3210, 3211, 3230, 3229
2979, 3211, 3212, 3231, 3230
2980, 3212,  366,  367, 3231
2981,   36, 3213, 3232,   37
2982, 3213, 3214, 3233, 3232
2983, 3214, 3215, 3234, 3233
2984, 3215, 3216, 3235, 3234
2985, 3216, 3217, 3236, 3235
2986, 3217, 3218, 3237, 3236
2987, 3218, 3219, 3238, 3237
2988, 3219, 3220, 3239, 3238
2989, 3220, 3221, 3240, 3239
2990, 3221, 3222, 3241, 3240
2991, 3222, 3223, 3242, 3241
2992, 3223, 3224, 3243, 3242
2993, 3224, 3225, 3244, 3243
2994, 3225, 3226, 3245, 3244
2995, 3226, 3227, 3246, 3245
2996, 3227, 3228, 3247, 3246
2997, 3228, 3229, 3248, 3247
2998, 3229, 3230, 3249, 3248
2999, 3230, 3231, 3250, 3249
3000, 3231,  367,  368, 3250
3001,   37, 3232, 3251,   38
3002, 3232, 3233, 3252, 3251
3003, 3233, 3234, 3253, 3252
3004, 3234, 3235, 3254, 3253
3005, 3235, 3236, 3255, 3254
3006, 3236, 3237, 3256, 3255
3007, 3237, 3238, 3257, 3256
3008, 3238, 3239, 3258, 3257
3009, 3239, 3240, 3259, 3258
3010, 3240, 3241, 3260, 3259
3011, 3241, 3242, 3261, 3260
3012, 3242, 3243, 3262, 3261
3013, 3243, 3244, 3263, 3262
3014, 3244, 3245, 3264, 3263
3015, 3245, 3246, 3265, 3264
3016, 3246, 3247, 3266, 3265
3017, 3247, 3248, 3267, 3266
3018, 3248, 3249, 3268, 3267
3019, 3249, 3250, 3269, 3268
3020, 3250,  368,  369, 3269
3021,   38, 3251, 3270,   39
3022, 3251, 3252, 3271, 3270
3023, 3252, 3253, 3272, 3271
3024, 3253, 3254, 3273, 3272
3025, 3254, 3255, 3274, 3273
3026, 3255, 3256, 3275, 3274
3027, 3256, 3257, 3276, 3275
3028, 3257, 3258, 3277, 3276
3029, 3258, 3259, 3278, 3277
3030, 3259, 3260, 3279, 3278
3031, 3260, 3261, 3280, 3279
3032, 3261, 3262, 3281, 3280
3033, 3262, 3263, 3282, 3281
3034, 3263, 3264, 3283, 3282
3035, 3264, 3265, 3284, 3283
3036, 3265, 3266, 3285, 3284
3037, 3266, 3267, 3286, 3285
3038, 3267, 3268, 3287, 3286
3039, 3268, 3269, 3288, 3287
3040, 3269,  369,  370, 3288
3041,   39, 3270, 3289,   40
3042, 3270, 3271, 3290, 3289
3043, 3271, 3272, 3291, 3290
3044, 3272, 3273, 3292, 3291
3045, 3273, 3274, 3293, 3292
3046, 3274, 3275, 3294, 3293
3047, 3275, 3276, 3295, 3294
3048, 3276, 3277, 3296, 3295
3049, 3277, 3278, 3297, 3296
3050, 3278, 3279, 3298, 3297
3051, 3279, 3280, 3299, 3298
3052, 3280, 3281, 3300, 3299
3053, 3281, 3282, 3301, 3300
3054, 3282, 3283, 3302, 3301
3055, 3283, 3284, 3303, 3302
3056, 3284, 3285, 3304, 3303
3057, 3285, 3286, 3305, 3304
3058, 3286, 3287, 3306, 3305
3059, 3287, 3288, 3307, 3306
3060, 3288,  370,  371, 3307
3061,   40, 3289, 3308,   41
3062, 3289, 3290, 3309, 3308
3063, 3290, 3291, 3310, 3309
3064, 3291, 3292, 3311, 3310
3065, 3292, 3293, 3312, 3311
3066, 3293, 3294, 3313, 3312
3067, 3294, 3295, 3314, 3313
3068, 3295, 3296, 3315, 3314
3069, 3296, 3297, 3316, 3315
3070, 3297, 3298, 3317, 3316
3071, 3298, 3299, 3318, 3317
3072, 3299, 3300, 3319, 3318
3073, 3300, 3301, 3320, 3319
3074, 3301, 3302, 3321, 3320
3075, 3302, 3303, 3322, 3321
3076, 3303, 3304, 3323, 3322
3077, 3304, 3305, 3324, 3323
3078, 3305, 3306, 3325, 3324
3079, 3306, 3307, 3326, 3325
3080, 3307,  371,  372, 3326
3081,   41, 3308, 3327,   42
3082, 3308, 3309, 3328, 3327
3083, 3309, 3310, 3329, 3328
3084, 3310, 3311, 3330, 3329
3085, 3311, 3312, 3331, 3330
3086, 3312, 3313, 3332, 3331
3087, 3313, 3314, 3333, 3332
3088, 3314, 3315, 3334, 3333
3089, 3315, 3316, 3335, 3334
3090, 3316, 3317, 3336, 3335
3091, 3317, 3318, 3337, 3336
3092, 3318, 3319, 3338, 3337
3093, 3319, 3320, 3339, 3338
3094, 3320, 3321, 3340, 3339
3095, 3321, 3322, 3341, 3340
3096, 3322, 3323, 3342, 3341
3097, 3323, 3324, 3343, 3342
3098, 3324, 3325, 3344, 3343
3099, 3325, 3326, 3345, 3344
3100, 3326,  372,  373, 3345
3101,   42, 3327, 3346,   43
3102, 3327, 3328, 3347, 3346
3103, 3328, 3329, 3348, 3347
3104, 3329, 3330, 3349, 3348
3105, 3330, 3331, 3350, 3349
3106, 3331, 3332, 3351, 3350
3107, 3332, 3333, 3352, 3351
3108, 3333, 3334, 3353, 3352
3109, 3334, 3335, 3354, 3353
3110, 3335, 3336, 3355, 3354
3111, 3336, 3337, 3356, 3355
3112, 3337, 3338, 3357, 3356
3113, 3338, 3339, 3358, 3357
3114, 3339, 3340, 3359, 3358
3115, 3340, 3341, 3360, 3359
3116, 3341, 3342, 3361, 3360
3117, 3342, 3343, 3362, 3361
3118, 3343, 3344, 3363, 3362
3119, 3344, 3345, 3364, 3363
3120, 3345,  373,  374, 3364
3121,   43, 3346, 3365,   44
3122, 3346, 3347, 3366, 3365
3123, 3347, 3348, 3367, 3366
3124, 3348, 3349, 3368, 3367
3125, 3349, 3350, 3369, 3368
3126, 3350, 3351, 3370, 3369
3127, 3351, 3352, 3371, 3370
3128, 3352, 3353, 3372, 3371
3129, 3353, 3354, 3373, 3372
3130, 3354, 3355, 3374, 3373
3131, 3355, 3356, 3375, 3374
3132, 3356, 3357, 3376, 3375
3133, 3357, 3358, 3377, 3376
3134, 3358, 3359, 3378, 3377
3135, 3359, 3360, 3379, 3378
3136, 3360, 3361, 3380, 3379
3137, 3361, 3362, 3381, 3380
3138, 3362, 3363, 3382, 3381
3139, 3363, 3364, 3383, 3382
3140, 3364,  374,  375, 3383
3141,   44, 3365, 3384,   45
3142, 3365, 3366, 3385, 3384
3143, 3366, 3367, 3386, 3385
3144, 3367, 3368, 3387, 3386
3145, 3368, 3369, 3388, 3387
3146, 3369, 3370, 3389, 3388
3147, 3370, 3371, 3390, 3389
3148, 3371, 3372, 3391, 3390
3149, 3372, 3373, 3392, 3391
3150, 3373, 3374, 3393, 3392
3151, 3374, 3375, 3394, 3393
3152, 3375, 3376, 3395, 3394
3153, 3376, 3377, 3396, 3395
3154, 3377, 3378, 3397, 3396
3155, 3378, 3379, 3398, 3397
3156, 3379, 3380, 3399, 3398
3157, 3380, 3381, 3400, 3399
3158, 3381, 3382, 3401, 3400
3159, 3382, 3383, 3402, 3401
3160, 3383,  375,  376, 3402
3161,   45, 3384, 3403,   46
3162, 3384, 3385, 3404, 3403
3163, 3385, 3386, 3405, 3404
3164, 3386, 3387, 3406, 3405
3165, 3387, 3388, 3407, 3406
3166, 3388, 3389, 3408, 3407
3167, 3389, 3390, 3409, 3408
3168, 3390, 3391, 3410, 3409
3169, 3391, 3392, 3411, 3410
3170, 3392, 3393, 3412, 3411
3171, 3393, 3394, 3413, 3412
3172, 3394, 3395, 3414, 3413
3173, 3395, 3396, 3415, 3414
3174, 3396, 3397, 3416, 3415
3175, 3397, 3398, 3417, 3416
3176, 3398, 3399, 3418, 3417
3177, 3399, 3400, 3419, 3418
3178, 3400, 3401, 3420, 3419
3179, 3401, 3402, 3421, 3420
3180, 3402,  376,  377, 3421
3181,   46, 3403, 3422,   47
3182, 3403, 3404, 3423, 3422
3183, 3404, 3405, 3424, 3423
3184, 3405, 3406, 3425, 3424
3185, 3406, 3407, 3426, 3425
3186, 3407, 3408, 3427, 3426
3187, 3408, 3409, 3428, 3427
3188, 3409, 3410, 3429, 3428
3189, 3410, 3411, 3430, 3429
3190, 3411, 3412, 3431, 3430
3191, 3412, 3413, 3432, 3431
3192, 3413, 3414, 3433, 3432
3193, 3414, 3415, 3434, 3433
3194, 3415, 3416, 3435, 3434
3195, 3416, 3417, 3436, 3435
3196, 3417, 3418, 3437, 3436
3197, 3418, 3419, 3438, 3437
3198, 3419, 3420, 3439, 3438
3199, 3420, 3421, 3440, 3439
3200, 3421,  377,  378, 3440
3201,   47, 3422, 3441,   48
3202, 3422, 3423, 3442, 3441
3203, 3423, 3424, 3443, 3442
3204, 3424, 3425, 3444, 3443
3205, 3425, 3426, 3445, 3444
3206, 3426, 3427, 3446, 3445
3207, 3427, 3428, 3447, 3446
3208, 3428, 3429, 3448, 3447
3209, 3429, 3430, 3449, 3448
3210, 3430, 3431, 3450, 3449
3211, 3431, 3432, 3451, 3450
3212, 3432, 3433, 3452, 3451
3213, 3433, 3434, 3453, 3452
3214, 3434, 3435, 3454, 3453
3215, 3435, 3436, 3455, 3454
3216, 3436, 3437, 3456, 3455
3217, 3437, 3438, 3457, 3456
3218, 3438, 3439, 3458, 3457
3219, 3439, 3440, 3459, 3458
3220, 3440,  378,  379, 3459
3221,   48, 3441, 3460,   49
3222, 3441, 3442, 3461, 3460
3223, 3442, 3443, 3462, 3461
3224, 3443, 3444, 3463, 3462
3225, 3444, 3445, 3464, 3463
3226, 3445, 3446, 3465, 3464
3227, 3446, 3447, 3466, 3465
3228, 3447, 3448, 3467, 3466
3229, 3448, 3449, 3468, 3467
3230, 3449, 3450, 3469, 3468
3231, 3450, 3451, 3470, 3469
3232, 3451, 3452, 3471, 3470
3233, 3452, 3453, 3472, 3471
3234, 3453, 3454, 3473, 3472
3235, 3454, 3455, 3474, 3473
3236, 3455, 3456, 3475, 3474
3237, 3456, 3457, 3476, 3475
3238, 3457, 3458, 3477, 3476
3239, 3458, 3459, 3478, 3477
3240, 3459,  379,  380, 3478
3241,   49, 3460, 3479,   50
3242, 3460, 3461, 3480, 3479
3243, 3461, 3462, 3481, 3480
3244, 3462, 3463, 3482, 3481
3245, 3463, 3464, 3483, 3482
3246, 3464, 3465, 3484, 3483
3247, 3465, 3466, 3485, 3484
3248, 3466, 3467, 3486, 3485
3249, 3467, 3468, 3487, 3486
3250, 3468, 3469, 3488, 3487
3251, 3469, 3470, 3489, 3488
3252, 3470, 3471, 3490, 3489
3253, 3471, 3472, 3491, 3490
3254, 3472, 3473, 3492, 3491
3255, 3473, 3474, 3493, 3492
3256, 3474, 3475, 3494, 3493
3257, 3475, 3476, 3495, 3494
3258, 3476, 3477, 3496, 3495
3259, 3477, 3478, 3497, 3496
3260, 3478,  380,  381, 3497
3261,   50, 3479, 3498,   51
3262, 3479, 3480, 3499, 3498
3263, 3480, 3481, 3500, 3499
3264, 3481, 3482, 3501, 3500
3265, 3482, 3483, 3502, 3501
3266, 3483, 3484, 3503, 3502
3267, 3484, 3485, 3504, 3503
3268, 3485, 3486, 3505, 3504
3269, 3486, 3487, 3506, 3505
3270, 3487, 3488, 3507, 3506
3271, 3488, 3489, 3508, 3507
3272, 3489, 3490, 3509, 3508
3273, 3490, 3491, 3510, 3509
3274, 3491, 3492, 3511, 3510
3275, 3492, 3493, 3512, 3511
3276, 3493, 3494, 3513, 3512
3277, 3494, 3495, 3514, 3513
3278, 3495, 3496, 3515, 3514
3279, 3496, 3497, 3516, 3515
3280, 3497,  381,  382, 3516
3281,   51, 3498, 3517,   52
3282, 3498, 3499, 3518, 3517
3283, 3499, 3500, 3519, 3518
3284, 3500, 3501, 3520, 3519
3285, 3501, 3502, 3521, 3520
3286, 3502, 3503, 3522, 3521
3287, 3503, 3504, 3523, 3522
3288, 3504, 3505, 3524, 3523
3289, 3505, 3506, 3525, 3524
3290, 3506, 3507, 3526, 3525
3291, 3507, 3508, 3527, 3526
3292, 3508, 3509, 3528, 3527
3293, 3509, 3510, 3529, 3528
3294, 3510, 3511, 3530, 3529
3295, 3511, 3512, 3531, 3530
3296, 3512, 3513, 3532, 3531
3297, 3513, 3514, 3533, 3532
3298, 3514, 3515, 3534, 3533
3299, 3515, 3516, 3535, 3534
3300, 3516,  382,  383, 3535
3301,   52, 3517, 3536,   53
3302, 3517, 3518, 3537, 3536
3303, 3518, 3519, 3538, 3537
3304, 3519, 3520, 3539, 3538
3305, 3520, 3521, 3540, 3539
3306, 3521, 3522, 3541, 3540
3307, 3522, 3523, 3542, 3541
3308, 3523, 3524, 3543, 3542
3309, 3524, 3525, 3544, 3543
3310, 3525, 3526, 3545, 3544
3311, 3526, 3527, 3546, 3545
3312, 3527, 3528, 3547, 3546
3313, 3528, 3529, 3548, 3547
3314, 3529, 3530, 3549, 3548
3315, 3530, 3531, 3550, 3549
3316, 3531, 3532, 3551, 3550
3317, 3532, 3533, 3552, 3551
3318, 3533, 3534, 3553, 3552
3319, 3534, 3535, 3554, 3553
3320, 3535,  383,  384, 3554
3321,   53, 3536, 3555,   54
3322, 3536, 3537, 3556, 3555
3323, 3537, 3538, 3557, 3556
3324, 3538, 3539, 3558, 3557
3325, 3539, 3540, 3559, 3558
3326, 3540, 3541, 3560, 3559
3327, 3541, 3542, 3561, 3560
3328, 3542, 3543, 3562, 3561
3329, 3543, 3544, 3563, 3562
3330, 3544, 3545, 3564, 3563
3331, 3545, 3546, 3565, 3564
3332, 3546, 3547, 3566, 3565
3333, 3547, 3548, 3567, 3566
3334, 3548, 3549, 3568, 3567
3335, 3549, 3550, 3569, 3568
3336, 3550, 3551, 3570, 3569
3337, 3551, 3552, 3571, 3570
3338, 3552, 3553, 3572, 3571
3339, 3553, 3554, 3573, 3572
3340, 3554,  384,  385, 3573
3341,   54, 3555, 3574,   55
3342, 3555, 3556, 3575, 3574
3343, 3556, 3557, 3576, 3575
3344, 3557, 3558, 3577, 3576
3345, 3558, 3559, 3578, 3577
3346, 3559, 3560, 3579, 3578
3347, 3560, 3561, 3580, 3579
3348, 3561, 3562, 3581, 3580
3349, 3562, 3563, 3582, 3581
3350, 3563, 3564, 3583, 3582
3351, 3564, 3565, 3584, 3583
3352, 3565, 3566, 3585, 3584
3353, 3566, 3567, 3586, 3585
3354, 3567, 3568, 3587, 3586
3355, 3568, 3569, 3588, 3587
3356, 3569, 3570, 3589, 3588
3357, 3570, 3571, 3590, 3589
3358, 3571, 3572, 3591, 3590
3359, 3572, 3573, 3592, 3591
3360, 3573,  385,  386, 3592
3361,   55, 3574, 3593,   56
3362, 3574, 3575, 3594, 3593
3363, 3575, 3576, 3595, 3594
3364, 3576, 3577, 3596, 3595
3365, 3577, 3578, 3597, 3596
3366, 3578, 3579, 3598, 3597
3367, 3579, 3580, 3599, 3598
3368, 3580, 3581, 3600, 3599
3369, 3581, 3582, 3601, 3600
3370, 3582, 3583, 3602, 3601
3371, 3583, 3584, 3603, 3602
3372, 3584, 3585, 3604, 3603
3373, 3585, 3586, 3605, 3604
3374, 3586, 3587, 3606, 3605
3375, 3587, 3588, 3607, 3606
3376, 3588, 3589, 3608, 3607
3377, 3589, 3590, 3609, 3608
3378, 3590, 3591, 3610, 3609
3379, 3591, 3592, 3611, 3610
3380, 3592,  386,  387, 3611
3381,   56, 3593, 3612,   57
3382, 3593, 3594, 3613, 3612
3383, 3594, 3595, 3614, 3613
3384, 3595, 3596, 3615, 3614
3385, 3596, 3597, 3616, 3615
3386, 3597, 3598, 3617, 3616
3387, 3598, 3599, 3618, 3617
3388, 3599, 3600, 3619, 3618
3389, 3600, 3601, 3620, 3619
3390, 3601, 3602, 3621, 3620
3391, 3602, 3603, 3622, 3621
3392, 3603, 3604, 3623, 3622
3393, 3604, 3605, 3624, 3623
3394, 3605, 3606, 3625, 3624
3395, 3606, 3607, 3626, 3625
3396, 3607, 3608, 3627, 3626
3397, 3608, 3609, 3628, 3627
3398, 3609, 3610, 3629, 3628
3399, 3610, 3611, 3630, 3629
3400, 3611,  387,  388, 3630
3401,   57, 3612, 3631,   58
3402, 3612, 3613, 3632, 3631
3403, 3613, 3614, 3633, 3632
3404, 3614, 3615, 3634, 3633
3405, 3615, 3616, 3635, 3634
3406, 3616, 3617, 3636, 3635
3407, 3617, 3618, 3637, 3636
3408, 3618, 3619, 3638, 3637
3409, 3619, 3620, 3639, 3638
3410, 3620, 3621, 3640, 3639
3411, 3621, 3622, 3641, 3640
3412, 3622, 3623, 3642, 3641
3413, 3623, 3624, 3643, 3642
3414, 3624, 3625, 3644, 3643
3415, 3625, 3626, 3645, 3644
3416, 3626, 3627, 3646, 3645
3417, 3627, 3628, 3647, 3646
3418, 3628, 3629, 3648, 3647
3419, 3629, 3630, 3649, 3648
3420, 3630,  388,  389, 3649
3421,   58, 3631, 3650,   59
3422, 3631, 3632, 3651, 3650
3423, 3632, 3633, 3652, 3651
3424, 3633, 3634, 3653, 3652
3425, 3634, 3635, 3654, 3653
3426, 3635, 3636, 3655, 3654
3427, 3636, 3637, 3656, 3655
3428, 3637, 3638, 3657, 3656
3429, 3638, 3639, 3658, 3657
3430, 3639, 3640, 3659, 3658
3431, 3640, 3641, 3660, 3659
3432, 3641, 3642, 3661, 3660
3433, 3642, 3643, 3662, 3661
3434, 3643, 3644, 3663, 3662
3435, 3644, 3645, 3664, 3663
3436, 3645, 3646, 3665, 3664
3437, 3646, 3647, 3666, 3665
3438, 3647, 3648, 3667, 3666
3439, 3648, 3649, 3668, 3667
3440, 3649,  389,  390, 3668
3441,   59, 3650, 3669,   60
3442, 3650, 3651, 3670, 3669
3443, 3651, 3652, 3671, 3670
3444, 3652, 3653, 3672, 3671
3445, 3653, 3654, 3673, 3672
3446, 3654, 3655, 3674, 3673
3447, 3655, 3656, 3675, 3674
3448, 3656, 3657, 3676, 3675
3449, 3657, 3658, 3677, 3676
3450, 3658, 3659, 3678, 3677
3451, 3659, 3660, 3679, 3678
3452, 3660, 3661, 3680, 3679
3453, 3661, 3662, 3681, 3680
3454, 3662, 3663, 3682, 3681
3455, 3663, 3664, 3683, 3682
3456, 3664, 3665, 3684, 3683
3457, 3665, 3666, 3685, 3684
3458, 3666, 3667, 3686, 3685
3459, 3667, 3668, 3687, 3686
3460, 3668,  390,  391, 3687
3461,   60, 3669, 3688,   61
3462, 3669, 3670, 3689, 3688
3463, 3670, 3671, 3690, 3689
3464, 3671, 3672, 3691, 3690
3465, 3672, 3673, 3692, 3691
3466, 3673, 3674, 3693, 3692
3467, 3674, 3675, 3694, 3693
3468, 3675, 3676, 3695, 3694
3469, 3676, 3677, 3696, 3695
3470, 3677, 3678, 3697, 3696
3471, 3678, 3679, 3698, 3697
3472, 3679, 3680, 3699, 3698
3473, 3680, 3681, 3700, 3699
3474, 3681, 3682, 3701, 3700
3475, 3682, 3683, 3702, 3701
3476, 3683, 3684, 3703, 3702
3477, 3684, 3685, 3704, 3703
3478, 3685, 3686, 3705, 3704
3479, 3686, 3687, 3706, 3705
3480, 3687,  391,  392, 3706
3481,   61, 3688, 3707,   62
3482, 3688, 3689, 3708, 3707
3483, 3689, 3690, 3709, 3708
3484, 3690, 3691, 3710, 3709
3485, 3691, 3692, 3711, 3710
3486, 3692, 3693, 3712, 3711
3487, 3693, 3694, 3713, 3712
3488, 3694, 3695, 3714, 3713
3489, 3695, 3696, 3715, 3714
3490, 3696, 3697, 3716, 3715
3491, 3697, 3698, 3717, 3716
3492, 3698, 3699, 3718, 3717
3493, 3699, 3700, 3719, 3718
3494, 3700, 3701, 3720, 3719
3495, 3701, 3702, 3721, 3720
3496, 3702, 3703, 3722, 3721
3497, 3703, 3704, 3723, 3722
3498, 3704, 3705, 3724, 3723
3499, 3705, 3706, 3725, 3724
3500, 3706,  392,  393, 3725
3501,   62, 3707, 3726,   63
3502, 3707, 3708, 3727, 3726
3503, 3708, 3709, 3728, 3727
3504, 3709, 3710, 3729, 3728
3505, 3710, 3711, 3730, 3729
3506, 3711, 3712, 3731, 3730
3507, 3712, 3713, 3732, 3731
3508, 3713, 3714, 3733, 3732
3509, 3714, 3715, 3734, 3733
3510, 3715, 3716, 3735, 3734
3511, 3716, 3717, 3736, 3735
3512, 3717, 3718, 3737, 3736
3513, 3718, 3719, 3738, 3737
3514, 3719, 3720, 3739, 3738
3515, 3720, 3721, 3740, 3739
3516, 3721, 3722, 3741, 3740
3517, 3722, 3723, 3742, 3741
3518, 3723, 3724, 3743, 3742
3519, 3724, 3725, 3744, 3743
3520, 3725,  393,  394, 3744
3521,   63, 3726, 3745,   64
3522, 3726, 3727, 3746, 3745
3523, 3727, 3728, 3747, 3746
3524, 3728, 3729, 3748, 3747
3525, 3729, 3730, 3749, 3748
3526, 3730, 3731, 3750, 3749
3527, 3731, 3732, 3751, 3750
3528, 3732, 3733, 3752, 3751
3529, 3733, 3734, 3753, 3752
3530, 3734, 3735, 3754, 3753
3531, 3735, 3736, 3755, 3754
3532, 3736, 3737, 3756, 3755
3533, 3737, 3738, 3757, 3756
3534, 3738, 3739, 3758, 3757
3535, 3739, 3740, 3759, 3758
3536, 3740, 3741, 3760, 3759
3537, 3741, 3742, 3761, 3760
3538, 3742, 3743, 3762, 3761
3539, 3743, 3744, 3763, 3762
3540, 3744,  394,  395, 3763
3541,   64, 3745, 3764,   65
3542, 3745, 3746, 3765, 3764
3543, 3746, 3747, 3766, 3765
3544, 3747, 3748, 3767, 3766
3545, 3748, 3749, 3768, 3767
3546, 3749, 3750, 3769, 3768
3547, 3750, 3751, 3770, 3769
3548, 3751, 3752, 3771, 3770
3549, 3752, 3753, 3772, 3771
3550, 3753, 3754, 3773, 3772
3551, 3754, 3755, 3774, 3773
3552, 3755, 3756, 3775, 3774
3553, 3756, 3757, 3776, 3775
3554, 3757, 3758, 3777, 3776
3555, 3758, 3759, 3778, 3777
3556, 3759, 3760, 3779, 3778
3557, 3760, 3761, 3780, 3779
3558, 3761, 3762, 3781, 3780
3559, 3762, 3763, 3782, 3781
3560, 3763,  395,  396, 3782
3561,   65, 3764, 3783,   66
3562, 3764, 3765, 3784, 3783
3563, 3765, 3766, 3785, 3784
3564, 3766, 3767, 3786, 3785
3565, 3767, 3768, 3787, 3786
3566, 3768, 3769, 3788, 3787
3567, 3769, 3770, 3789, 3788
3568, 3770, 3771, 3790, 3789
3569, 3771, 3772, 3791, 3790
3570, 3772, 3773, 3792, 3791
3571, 3773, 3774, 3793, 3792
3572, 3774, 3775, 3794, 3793
3573, 3775, 3776, 3795, 3794
3574, 3776, 3777, 3796, 3795
3575, 3777, 3778, 3797, 3796
3576, 3778, 3779, 3798, 3797
3577, 3779, 3780, 3799, 3798
3578, 3780, 3781, 3800, 3799
3579, 3781, 3782, 3801, 3800
3580, 3782,  396,  397, 3801
3581,   66, 3783, 3802,   67
3582, 3783, 3784, 3803, 3802
3583, 3784, 3785, 3804, 3803
3584, 3785, 3786, 3805, 3804
3585, 3786, 3787, 3806, 3805
3586, 3787, 3788, 3807, 3806
3587, 3788, 3789, 3808, 3807
3588, 3789, 3790, 3809, 3808
3589, 3790, 3791, 3810, 3809
3590, 3791, 3792, 3811, 3810
3591, 3792, 3793, 3812, 3811
3592, 3793, 3794, 3813, 3812
3593, 3794, 3795, 3814, 3813
3594, 3795, 3796, 3815, 3814
3595, 3796, 3797, 3816, 3815
3596, 3797, 3798, 3817, 3816
3597, 3798, 3799, 3818, 3817
3598, 3799, 3800, 3819, 3818
3599, 3800, 3801, 3820, 3819
3600, 3801,  397,  398, 3820
3601,   67, 3802, 3821,   68
3602, 3802, 3803, 3822, 3821
3603, 3803, 3804, 3823, 3822
3604, 3804, 3805, 3824, 3823
3605, 3805, 3806, 3825, 3824
3606, 3806, 3807, 3826, 3825
3607, 3807, 3808, 3827, 3826
3608, 3808, 3809, 3828, 3827
3609, 3809, 3810, 3829, 3828
3610, 3810, 3811, 3830, 3829
3611, 3811, 3812, 3831, 3830
3612, 3812, 3813, 3832, 3831
3613, 3813, 3814, 3833, 3832
3614, 3814, 3815, 3834, 3833
3615, 3815, 3816, 3835, 3834
3616, 3816, 3817, 3836, 3835
3617, 3817, 3818, 3837, 3836
3618, 3818, 3819, 3838, 3837
3619, 3819, 3820, 3839, 3838
3620, 3820,  398,  399, 3839
3621,   68, 3821, 3840,   69
3622, 3821, 3822, 3841, 3840
3623, 3822, 3823, 3842, 3841
3624, 3823, 3824, 3843, 3842
3625, 3824, 3825, 3844, 3843
3626, 3825, 3826, 3845, 3844
3627, 3826, 3827, 3846, 3845
3628, 3827, 3828, 3847, 3846
3629, 3828, 3829, 3848, 3847
3630, 3829, 3830, 3849, 3848
3631, 3830, 3831, 3850, 3849
3632, 3831, 3832, 3851, 3850
3633, 3832, 3833, 3852, 3851
3634, 3833, 3834, 3853, 3852
3635, 3834, 3835, 3854, 3853
3636, 3835, 3836, 3855, 3854
3637, 3836, 3837, 3856, 3855
3638, 3837, 3838, 3857, 3856
3639, 3838, 3839, 3858, 3857
3640, 3839,  399,  400, 3858
3641,   69, 3840, 3859,   70
3642, 3840, 3841, 3860, 3859
3643, 3841, 3842, 3861, 3860
3644, 3842, 3843, 3862, 3861
3645, 3843, 3844, 3863, 3862
3646, 3844, 3845, 3864, 3863
3647, 3845, 3846, 3865, 3864
3648, 3846, 3847, 3866, 3865
3649, 3847, 3848, 3867, 3866
3650, 3848, 3849, 3868, 3867
3651, 3849, 3850, 3869, 3868
3652, 3850, 3851, 3870, 3869
3653, 3851, 3852, 3871, 3870
3654, 3852, 3853, 3872, 3871
3655, 3853, 3854, 3873, 3872
3656, 3854, 3855, 3874, 3873
3657, 3855, 3856, 3875, 3874
3658, 3856, 3857, 3876, 3875
3659, 3857, 3858, 3877, 3876
3660, 3858,  400,  401, 3877
3661,   70, 3859, 3878,   71
3662, 3859, 3860, 3879, 3878
3663, 3860, 3861, 3880, 3879
3664, 3861, 3862, 3881, 3880
3665, 3862, 3863, 3882, 3881
3666, 3863, 3864, 3883, 3882
3667, 3864, 3865, 3884, 3883
3668, 3865, 3866, 3885, 3884
3669, 3866, 3867, 3886, 3885
3670, 3867, 3868, 3887, 3886
3671, 3868, 3869, 3888, 3887
3672, 3869, 3870, 3889, 3888
3673, 3870, 3871, 3890, 3889
3674, 3871, 3872, 3891, 3890
3675, 3872, 3873, 3892, 3891
3676, 3873, 3874, 3893, 3892
3677, 3874, 3875, 3894, 3893
3678, 3875, 3876, 3895, 3894
3679, 3876, 3877, 3896, 3895
3680, 3877,  401,  402, 3896
3681,   71, 3878, 3897,   72
3682, 3878, 3879, 3898, 3897
3683, 3879, 3880, 3899, 3898
3684, 3880, 3881, 3900, 3899
3685, 3881, 3882, 3901, 3900
3686, 3882, 3883, 3902, 3901
3687, 3883, 3884, 3903, 3902
3688, 3884, 3885, 3904, 3903
3689, 3885, 3886, 3905, 3904
3690, 3886, 3887, 3906, 3905
3691, 3887, 3888, 3907, 3906
3692, 3888, 3889, 3908, 3907
3693, 3889, 3890, 3909, 3908
3694, 3890, 3891, 3910, 3909
3695, 3891, 3892, 3911, 3910
3696, 3892, 3893, 3912, 3911
3697, 3893, 3894, 3913, 3912
3698, 3894, 3895, 3914, 3913
3699, 3895, 3896, 3915, 3914
3700, 3896,  402,  403, 3915
3701,   72, 3897, 3916,   73
3702, 3897, 3898, 3917, 3916
3703, 3898, 3899, 3918, 3917
3704, 3899, 3900, 3919, 3918
3705, 3900, 3901, 3920, 3919
3706, 3901, 3902, 3921, 3920
3707, 3902, 3903, 3922, 3921
3708, 3903, 3904, 3923, 3922
3709, 3904, 3905, 3924, 3923
3710, 3905, 3906, 3925, 3924
3711, 3906, 3907, 3926, 3925
3712, 3907, 3908, 3927, 3926
3713, 3908, 3909, 3928, 3927
3714, 3909, 3910, 3929, 3928
3715, 3910, 3911, 3930, 3929
3716, 3911, 3912, 3931, 3930
3717, 3912, 3913, 3932, 3931
3718, 3913, 3914, 3933, 3932
3719, 3914, 3915, 3934, 3933
3720, 3915,  403,  404, 3934
3721,   73, 3916, 3935,   74
3722, 3916, 3917, 3936, 3935
3723, 3917, 3918, 3937, 3936
3724, 3918, 3919, 3938, 3937
3725, 3919, 3920, 3939, 3938
3726, 3920, 3921, 3940, 3939
3727, 3921, 3922, 3941, 3940
3728, 3922, 3923, 3942, 3941
3729, 3923, 3924, 3943, 3942
3730, 3924, 3925, 3944, 3943
3731, 3925, 3926, 3945, 3944
3732, 3926, 3927, 3946, 3945
3733, 3927, 3928, 3947, 3946
3734, 3928, 3929, 3948, 3947
3735, 3929, 3930, 3949, 3948
3736, 3930, 3931, 3950, 3949
3737, 3931, 3932, 3951, 3950
3738, 3932, 3933, 3952, 3951
3739, 3933, 3934, 3953, 3952
3740, 3934,  404,  405, 3953
3741,   74, 3935, 3954,   75
3742, 3935, 3936, 3955, 3954
3743, 3936, 3937, 3956, 3955
3744, 3937, 3938, 3957, 3956
3745, 3938, 3939, 3958, 3957
3746, 3939, 3940, 3959, 3958
3747, 3940, 3941, 3960, 3959
3748, 3941, 3942, 3961, 3960
3749, 3942, 3943, 3962, 3961
3750, 3943, 3944, 3963, 3962
3751, 3944, 3945, 3964, 3963
3752, 3945, 3946, 3965, 3964
3753, 3946, 3947, 3966, 3965
3754, 3947, 3948, 3967, 3966
3755, 3948, 3949, 3968, 3967
3756, 3949, 3950, 3969, 3968
3757, 3950, 3951, 3970, 3969
3758, 3951, 3952, 3971, 3970
3759, 3952, 3953, 3972, 3971
3760, 3953,  405,  406, 3972
3761,   75, 3954, 3973,   76
3762, 3954, 3955, 3974, 3973
3763, 3955, 3956, 3975, 3974
3764, 3956, 3957, 3976, 3975
3765, 3957, 3958, 3977, 3976
3766, 3958, 3959, 3978, 3977
3767, 3959, 3960, 3979, 3978
3768, 3960, 3961, 3980, 3979
3769, 3961, 3962, 3981, 3980
3770, 3962, 3963, 3982, 3981
3771, 3963, 3964, 3983, 3982
3772, 3964, 3965, 3984, 3983
3773, 3965, 3966, 3985, 3984
3774, 3966, 3967, 3986, 3985
3775, 3967, 3968, 3987, 3986
3776, 3968, 3969, 3988, 3987
3777, 3969, 3970, 3989, 3988
3778, 3970, 3971, 3990, 3989
3779, 3971, 3972, 3991, 3990
3780, 3972,  406,  407, 3991
3781,   76, 3973, 3992,   77
3782, 3973, 3974, 3993, 3992
3783, 3974, 3975, 3994, 3993
3784, 3975, 3976, 3995, 3994
3785, 3976, 3977, 3996, 3995
3786, 3977, 3978, 3997, 3996
3787, 3978, 3979, 3998, 3997
3788, 3979, 3980, 3999, 3998
3789, 3980, 3981, 4000, 3999
3790, 3981, 3982, 4001, 4000
3791, 3982, 3983, 4002, 4001
3792, 3983, 3984, 4003, 4002
3793, 3984, 3985, 4004, 4003
3794, 3985, 3986, 4005, 4004
3795, 3986, 3987, 4006, 4005
3796, 3987, 3988, 4007, 4006
3797, 3988, 3989, 4008, 4007
3798, 3989, 3990, 4009, 4008
3799, 3990, 3991, 4010, 4009
3800, 3991,  407,  408, 4010
3801,   77, 3992, 4011,   78
3802, 3992, 3993, 4012, 4011
3803, 3993, 3994, 4013, 4012
3804, 3994, 3995, 4014, 4013
3805, 3995, 3996, 4015, 4014
3806, 3996, 3997, 4016, 4015
3807, 3997, 3998, 4017, 4016
3808, 3998, 3999, 4018, 4017
3809, 3999, 4000, 4019, 4018
3810, 4000, 4001, 4020, 4019
3811, 4001, 4002, 4021, 4020
3812, 4002, 4003, 4022, 4021
3813, 4003, 4004, 4023, 4022
3814, 4004, 4005, 4024, 4023
3815, 4005, 4006, 4025, 4024
3816, 4006, 4007, 4026, 4025
3817, 4007, 4008, 4027, 4026
3818, 4008, 4009, 4028, 4027
3819, 4009, 4010, 4029, 4028
3820, 4010,  408,  409, 4029
3821,   78, 4011, 4030,   79
3822, 4011, 4012, 4031, 4030
3823, 4012, 4013, 4032, 4031
3824, 4013, 4014, 4033, 4032
3825, 4014, 4015, 4034, 4033
3826, 4015, 4016, 4035, 4034
3827, 4016, 4017, 4036, 4035
3828, 4017, 4018, 4037, 4036
3829, 4018, 4019, 4038, 4037
3830, 4019, 4020, 4039, 4038
3831, 4020, 4021, 4040, 4039
3832, 4021, 4022, 4041, 4040
3833, 4022, 4023, 4042, 4041
3834, 4023, 4024, 4043, 4042
3835, 4024, 4025, 4044, 4043
3836, 4025, 4026, 4045, 4044
3837, 4026, 4027, 4046, 4045
3838, 4027, 4028, 4047, 4046
3839, 4028, 4029, 4048, 4047
3840, 4029,  409,  410, 4048
3841,   79, 4030, 4049,   80
3842, 4030, 4031, 4050, 4049
3843, 4031, 4032, 4051, 4050
3844, 4032, 4033, 4052, 4051
3845, 4033, 4034, 4053, 4052
3846, 4034, 4035, 4054, 4053
3847, 4035, 4036, 4055, 4054
3848, 4036, 4037, 4056, 4055
3849, 4037, 4038, 4057, 4056
3850, 4038, 4039, 4058, 4057
3851, 4039, 4040, 4059, 4058
3852, 4040, 4041, 4060, 4059
3853, 4041, 4042, 4061, 4060
3854, 4042, 4043, 4062, 4061
3855, 4043, 4044, 4063, 4062
3856, 4044, 4045, 4064, 4063
3857, 4045, 4046, 4065, 4064
3858, 4046, 4047, 4066, 4065
3859, 4047, 4048, 4067, 4066
3860, 4048,  410,  411, 4067
3861,   80, 4049, 4068,   81
3862, 4049, 4050, 4069, 4068
3863, 4050, 4051, 4070, 4069
3864, 4051, 4052, 4071, 4070
3865, 4052, 4053, 4072, 4071
3866, 4053, 4054, 4073, 4072
3867, 4054, 4055, 4074, 4073
3868, 4055, 4056, 4075, 4074
3869, 4056, 4057, 4076, 4075
3870, 4057, 4058, 4077, 4076
3871, 4058, 4059, 4078, 4077
3872, 4059, 4060, 4079, 4078
3873, 4060, 4061, 4080, 4079
3874, 4061, 4062, 4081, 4080
3875, 4062, 4063, 4082, 4081
3876, 4063, 4064, 4083, 4082
3877, 4064, 4065, 4084, 4083
3878, 4065, 4066, 4085, 4084
3879, 4066, 4067, 4086, 4085
3880, 4067,  411,  412, 4086
3881,   81, 4068, 4087,   82
3882, 4068, 4069, 4088, 4087
3883, 4069, 4070, 4089, 4088
3884, 4070, 4071, 4090, 4089
3885, 4071, 4072, 4091, 4090
3886, 4072, 4073, 4092, 4091
3887, 4073, 4074, 4093, 4092
3888, 4074, 4075, 4094, 4093
3889, 4075, 4076, 4095, 4094
3890, 4076, 4077, 4096, 4095
3891, 4077, 4078, 4097, 4096
3892, 4078, 4079, 4098, 4097
3893, 4079, 4080, 4099, 4098
3894, 4080, 4081, 4100, 4099
3895, 4081, 4082, 4101, 4100
3896, 4082, 4083, 4102, 4101
3897, 4083, 4084, 4103, 4102
3898, 4084, 4085, 4104, 4103
3899, 4085, 4086, 4105, 4104
3900, 4086,  412,  413, 4105
3901,   82, 4087, 4106,   83
3902, 4087, 4088, 4107, 4106
3903, 4088, 4089, 4108, 4107
3904, 4089, 4090, 4109, 4108
3905, 4090, 4091, 4110, 4109
3906, 4091, 4092, 4111, 4110
3907, 4092, 4093, 4112, 4111
3908, 4093, 4094, 4113, 4112
3909, 4094, 4095, 4114, 4113
3910, 4095, 4096, 4115, 4114
3911, 4096, 4097, 4116, 4115
3912, 4097, 4098, 4117, 4116
3913, 4098, 4099, 4118, 4117
3914, 4099, 4100, 4119, 4118
3915, 4100, 4101, 4120, 4119
3916, 4101, 4102, 4121, 4120
3917, 4102, 4103, 4122, 4121
3918, 4103, 4104, 4123, 4122
3919, 4104, 4105, 4124, 4123
3920, 4105,  413,  414, 4124
3921,   83, 4106, 4125,   84
3922, 4106, 4107, 4126, 4125
3923, 4107, 4108, 4127, 4126
3924, 4108, 4109, 4128, 4127
3925, 4109, 4110, 4129, 4128
3926, 4110, 4111, 4130, 4129
3927, 4111, 4112, 4131, 4130
3928, 4112, 4113, 4132, 4131
3929, 4113, 4114, 4133, 4132
3930, 4114, 4115, 4134, 4133
3931, 4115, 4116, 4135, 4134
3932, 4116, 4117, 4136, 4135
3933, 4117, 4118, 4137, 4136
3934, 4118, 4119, 4138, 4137
3935, 4119, 4120, 4139, 4138
3936, 4120, 4121, 4140, 4139
3937, 4121, 4122, 4141, 4140
3938, 4122, 4123, 4142, 4141
3939, 4123, 4124, 4143, 4142
3940, 4124,  414,  415, 4143
3941,   84, 4125, 4144,   85
3942, 4125, 4126, 4145, 4144
3943, 4126, 4127, 4146, 4145
3944, 4127, 4128, 4147, 4146
3945, 4128, 4129, 4148, 4147
3946, 4129, 4130, 4149, 4148
3947, 4130, 4131, 4150, 4149
3948, 4131, 4132, 4151, 4150
3949, 4132, 4133, 4152, 4151
3950, 4133, 4134, 4153, 4152
3951, 4134, 4135, 4154, 4153
3952, 4135, 4136, 4155, 4154
3953, 4136, 4137, 4156, 4155
3954, 4137, 4138, 4157, 4156
3955, 4138, 4139, 4158, 4157
3956, 4139, 4140, 4159, 4158
3957, 4140, 4141, 4160, 4159
3958, 4141, 4142, 4161, 4160
3959, 4142, 4143, 4162, 4161
3960, 4143,  415,  416, 4162
3961,   85, 4144, 4163,   86
3962, 4144, 4145, 4164, 4163
3963, 4145, 4146, 4165, 4164
3964, 4146, 4147, 4166, 4165
3965, 4147, 4148, 4167, 4166
3966, 4148, 4149, 4168, 4167
3967, 4149, 4150, 4169, 4168
3968, 4150, 4151, 4170, 4169
3969, 4151, 4152, 4171, 4170
3970, 4152, 4153, 4172, 4171
3971, 4153, 4154, 4173, 4172
3972, 4154, 4155, 4174, 4173
3973, 4155, 4156, 4175, 4174
3974, 4156, 4157, 4176, 4175
3975, 4157, 4158, 4177, 4176
3976, 4158, 4159, 4178, 4177
3977, 4159, 4160, 4179, 4178
3978, 4160, 4161, 4180, 4179
3979, 4161, 4162, 4181, 4180
3980, 4162,  416,  417, 4181
3981,   86, 4163, 4182,   87
3982, 4163, 4164, 4183, 4182
3983, 4164, 4165, 4184, 4183
3984, 4165, 4166, 4185, 4184
3985, 4166, 4167, 4186, 4185
3986, 4167, 4168, 4187, 4186
3987, 4168, 4169, 4188, 4187
3988, 4169, 4170, 4189, 4188
3989, 4170, 4171, 4190, 4189
3990, 4171, 4172, 4191, 4190
3991, 4172, 4173, 4192, 4191
3992, 4173, 4174, 4193, 4192
3993, 4174, 4175, 4194, 4193
3994, 4175, 4176, 4195, 4194
3995, 4176, 4177, 4196, 4195
3996, 4177, 4178, 4197, 4196
3997, 4178, 4179, 4198, 4197
3998, 4179, 4180, 4199, 4198
3999, 4180, 4181, 4200, 4199
4000, 4181,  417,  418, 4200
4001,   87, 4182, 4201,   88
4002, 4182, 4183, 4202, 4201
4003, 4183, 4184, 4203, 4202
4004, 4184, 4185, 4204, 4203
4005, 4185, 4186, 4205, 4204
4006, 4186, 4187, 4206, 4205
4007, 4187, 4188, 4207, 4206
4008, 4188, 4189, 4208, 4207
4009, 4189, 4190, 4209, 4208
4010, 4190, 4191, 4210, 4209
4011, 4191, 4192, 4211, 4210
4012, 4192, 4193, 4212, 4211
4013, 4193, 4194, 4213, 4212
4014, 4194, 4195, 4214, 4213
4015, 4195, 4196, 4215, 4214
4016, 4196, 4197, 4216, 4215
4017, 4197, 4198, 4217, 4216
4018, 4198, 4199, 4218, 4217
4019, 4199, 4200, 4219, 4218
4020, 4200,  418,  419, 4219
4021,   88, 4201, 4220,   89
4022, 4201, 4202, 4221, 4220
4023, 4202, 4203, 4222, 4221
4024, 4203, 4204, 4223, 4222
4025, 4204, 4205, 4224, 4223
4026, 4205, 4206, 4225, 4224
4027, 4206, 4207, 4226, 4225
4028, 4207, 4208, 4227, 4226
4029, 4208, 4209, 4228, 4227
4030, 4209, 4210, 4229, 4228
4031, 4210, 4211, 4230, 4229
4032, 4211, 4212, 4231, 4230
4033, 4212, 4213, 4232, 4231
4034, 4213, 4214, 4233, 4232
4035, 4214, 4215, 4234, 4233
4036, 4215, 4216, 4235, 4234
4037, 4216, 4217, 4236, 4235
4038, 4217, 4218, 4237, 4236
4039, 4218, 4219, 4238, 4237
4040, 4219,  419,  420, 4238
4041,   89, 4220, 4239,   90
4042, 4220, 4221, 4240, 4239
4043, 4221, 4222, 4241, 4240
4044, 4222, 4223, 4242, 4241
4045, 4223, 4224, 4243, 4242
4046, 4224, 4225, 4244, 4243
4047, 4225, 4226, 4245, 4244
4048, 4226, 4227, 4246, 4245
4049, 4227, 4228, 4247, 4246
4050, 4228, 4229, 4248, 4247
4051, 4229, 4230, 4249, 4248
4052, 4230, 4231, 4250, 4249
4053, 4231, 4232, 4251, 4250
4054, 4232, 4233, 4252, 4251
4055, 4233, 4234, 4253, 4252
4056, 4234, 4235, 4254, 4253
4057, 4235, 4236, 4255, 4254
4058, 4236, 4237, 4256, 4255
4059, 4237, 4238, 4257, 4256
4060, 4238,  420,  421, 4257
4061,   90, 4239, 4258,   91
4062, 4239, 4240, 4259, 4258
4063, 4240, 4241, 4260, 4259
4064, 4241, 4242, 4261, 4260
4065, 4242, 4243, 4262, 4261
4066, 4243, 4244, 4263, 4262
4067, 4244, 4245, 4264, 4263
4068, 4245, 4246, 4265, 4264
4069, 4246, 4247, 4266, 4265
4070, 4247, 4248, 4267, 4266
4071, 4248, 4249, 4268, 4267
4072, 4249, 4250, 4269, 4268
4073, 4250, 4251, 4270, 4269
4074, 4251, 4252, 4271, 4270
4075, 4252, 4253, 4272, 4271
4076, 4253, 4254, 4273, 4272
4077, 4254, 4255, 4274, 4273
4078, 4255, 4256, 4275, 4274
4079, 4256, 4257, 4276, 4275
4080, 4257,  421,  422, 4276
4081,   91, 4258, 4277,   92
4082, 4258, 4259, 4278, 4277
4083, 4259, 4260, 4279, 4278
4084, 4260, 4261, 4280, 4279
4085, 4261, 4262, 4281, 4280
4086, 4262, 4263, 4282, 4281
4087, 4263, 4264, 4283, 4282
4088, 4264, 4265, 4284, 4283
4089, 4265, 4266, 4285, 4284
4090, 4266, 4267, 4286, 4285
4091, 4267, 4268, 4287, 4286
4092, 4268, 4269, 4288, 4287
4093, 4269, 4270, 4289, 4288
4094, 4270, 4271, 4290, 4289
4095, 4271, 4272, 4291, 4290
4096, 4272, 4273, 4292, 4291
4097, 4273, 4274, 4293, 4292
4098, 4274, 4275, 4294, 4293
4099, 4275, 4276, 4295, 4294
4100, 4276,  422,  423, 4295
4101,   92, 4277, 4296,   93
4102, 4277, 4278, 4297, 4296
4103, 4278, 4279, 4298, 4297
4104, 4279, 4280, 4299, 4298
4105, 4280, 4281, 4300, 4299
4106, 4281, 4282, 4301, 4300
4107, 4282, 4283, 4302, 4301
4108, 4283, 4284, 4303, 4302
4109, 4284, 4285, 4304, 4303
4110, 4285, 4286, 4305, 4304
4111, 4286, 4287, 4306, 4305
4112, 4287, 4288, 4307, 4306
4113, 4288, 4289, 4308, 4307
4114, 4289, 4290, 4309, 4308
4115, 4290, 4291, 4310, 4309
4116, 4291, 4292, 4311, 4310
4117, 4292, 4293, 4312, 4311
4118, 4293, 4294, 4313, 4312
4119, 4294, 4295, 4314, 4313
4120, 4295,  423,  424, 4314
4121,   93, 4296, 4315,   94
4122, 4296, 4297, 4316, 4315
4123, 4297, 4298, 4317, 4316
4124, 4298, 4299, 4318, 4317
4125, 4299, 4300, 4319, 4318
4126, 4300, 4301, 4320, 4319
4127, 4301, 4302, 4321, 4320
4128, 4302, 4303, 4322, 4321
4129, 4303, 4304, 4323, 4322
4130, 4304, 4305, 4324, 4323
4131, 4305, 4306, 4325, 4324
4132, 4306, 4307, 4326, 4325
4133, 4307, 4308, 4327, 4326
4134, 4308, 4309, 4328, 4327
4135, 4309, 4310, 4329, 4328
4136, 4310, 4311, 4330, 4329
4137, 4311, 4312, 4331, 4330
4138, 4312, 4313, 4332, 4331
4139, 4313, 4314, 4333, 4332
4140, 4314,  424,  425, 4333
4141,   94, 4315, 4334,   95
4142, 4315, 4316, 4335, 4334
4143, 4316, 4317, 4336, 4335
4144, 4317, 4318, 4337, 4336
4145, 4318, 4319, 4338, 4337
4146, 4319, 4320, 4339, 4338
4147, 4320, 4321, 4340, 4339
4148, 4321, 4322, 4341, 4340
4149, 4322, 4323, 4342, 4341
4150, 4323, 4324, 4343, 4342
4151, 4324, 4325, 4344, 4343
4152, 4325, 4326, 4345, 4344
4153, 4326, 4327, 4346, 4345
4154, 4327, 4328, 4347, 4346
4155, 4328, 4329, 4348, 4347
4156, 4329, 4330, 4349, 4348
4157, 4330, 4331, 4350, 4349
4158, 4331, 4332, 4351, 4350
4159, 4332, 4333, 4352, 4351
4160, 4333,  425,  426, 4352
4161,   95, 4334, 4353,   96
4162, 4334, 4335, 4354, 4353
4163, 4335, 4336, 4355, 4354
4164, 4336, 4337, 4356, 4355
4165, 4337, 4338, 4357, 4356
4166, 4338, 4339, 4358, 4357
4167, 4339, 4340, 4359, 4358
4168, 4340, 4341, 4360, 4359
4169, 4341, 4342, 4361, 4360
4170, 4342, 4343, 4362, 4361
4171, 4343, 4344, 4363, 4362
4172, 4344, 4345, 4364, 4363
4173, 4345, 4346, 4365, 4364
4174, 4346, 4347, 4366, 4365
4175, 4347, 4348, 4367, 4366
4176, 4348, 4349, 4368, 4367
4177, 4349, 4350, 4369, 4368
4178, 4350, 4351, 4370, 4369
4179, 4351, 4352, 4371, 4370
4180, 4352,  426,  427, 4371
4181,   96, 4353, 4372,   97
4182, 4353, 4354, 4373, 4372
4183, 4354, 4355, 4374, 4373
4184, 4355, 4356, 4375, 4374
4185, 4356, 4357, 4376, 4375
4186, 4357, 4358, 4377, 4376
4187, 4358, 4359, 4378, 4377
4188, 4359, 4360, 4379, 4378
4189, 4360, 4361, 4380, 4379
4190, 4361, 4362, 4381, 4380
4191, 4362, 4363, 4382, 4381
4192, 4363, 4364, 4383, 4382
4193, 4364, 4365, 4384, 4383
4194, 4365, 4366, 4385, 4384
4195, 4366, 4367, 4386, 4385
4196, 4367, 4368, 4387, 4386
4197, 4368, 4369, 4388, 4387
4198, 4369, 4370, 4389, 4388
4199, 4370, 4371, 4390, 4389
4200, 4371,  427,  428, 4390
4201,   97, 4372, 4391,   98
4202, 4372, 4373, 4392, 4391
4203, 4373, 4374, 4393, 4392
4204, 4374, 4375, 4394, 4393
4205, 4375, 4376, 4395, 4394
4206, 4376, 4377, 4396, 4395
4207, 4377, 4378, 4397, 4396
4208, 4378, 4379, 4398, 4397
4209, 4379, 4380, 4399, 4398
4210, 4380, 4381, 4400, 4399
4211, 4381, 4382, 4401, 4400
4212, 4382, 4383, 4402, 4401
4213, 4383, 4384, 4403, 4402
4214, 4384, 4385, 4404, 4403
4215, 4385, 4386, 4405, 4404
4216, 4386, 4387, 4406, 4405
4217, 4387, 4388, 4407, 4406
4218, 4388, 4389, 4408, 4407
4219, 4389, 4390, 4409, 4408
4220, 4390,  428,  429, 4409
4221,   98, 4391, 4410,   99
4222, 4391, 4392, 4411, 4410
4223, 4392, 4393, 4412, 4411
4224, 4393, 4394, 4413, 4412
4225, 4394, 4395, 4414, 4413
4226, 4395, 4396, 4415, 4414
4227, 4396, 4397, 4416, 4415
4228, 4397, 4398, 4417, 4416
4229, 4398, 4399, 4418, 4417
4230, 4399, 4400, 4419, 4418
4231, 4400, 4401, 4420, 4419
4232, 4401, 4402, 4421, 4420
4233, 4402, 4403, 4422, 4421
4234, 4403, 4404, 4423, 4422
4235, 4404, 4405, 4424, 4423
4236, 4405, 4406, 4425, 4424
4237, 4406, 4407, 4426, 4425
4238, 4407, 4408, 4427, 4426
4239, 4408, 4409, 4428, 4427
4240, 4409,  429,  430, 4428
4241,   99, 4410, 4429,  100
4242, 4410, 4411, 4430, 4429
4243, 4411, 4412, 4431, 4430
4244, 4412, 4413, 4432, 4431
4245, 4413, 4414, 4433, 4432
4246, 4414, 4415, 4434, 4433
4247, 4415, 4416, 4435, 4434
4248, 4416, 4417, 4436, 4435
4249, 4417, 4418, 4437, 4436
4250, 4418, 4419, 4438, 4437
4251, 4419, 4420, 4439, 4438
4252, 4420, 4421, 4440, 4439
4253, 4421, 4422, 4441, 4440
4254, 4422, 4423, 4442, 4441
4255, 4423, 4424, 4443, 4442
4256, 4424, 4425, 4444, 4443
4257, 4425, 4426, 4445, 4444
4258, 4426, 4427, 4446, 4445
4259, 4427, 4428, 4447, 4446
4260, 4428,  430,  431, 4447
4261,  100, 4429, 4448,  101
4262, 4429, 4430, 4449, 4448
4263, 4430, 4431, 4450, 4449
4264, 4431, 4432, 4451, 4450
4265, 4432, 4433, 4452, 4451
4266, 4433, 4434, 4453, 4452
4267, 4434, 4435, 4454, 4453
4268, 4435, 4436, 4455, 4454
4269, 4436, 4437, 4456, 4455
4270, 4437, 4438, 4457, 4456
4271, 4438, 4439, 4458, 4457
4272, 4439, 4440, 4459, 4458
4273, 4440, 4441, 4460, 4459
4274, 4441, 4442, 4461, 4460
4275, 4442, 4443, 4462, 4461
4276, 4443, 4444, 4463, 4462
4277, 4444, 4445, 4464, 4463
4278, 4445, 4446, 4465, 4464
4279, 4446, 4447, 4466, 4465
4280, 4447,  431,  432, 4466
4281,  101, 4448, 4467,  102
4282, 4448, 4449, 4468, 4467
4283, 4449, 4450, 4469, 4468
4284, 4450, 4451, 4470, 4469
4285, 4451, 4452, 4471, 4470
4286, 4452, 4453, 4472, 4471
4287, 4453, 4454, 4473, 4472
4288, 4454, 4455, 4474, 4473
4289, 4455, 4456, 4475, 4474
4290, 4456, 4457, 4476, 4475
4291, 4457, 4458, 4477, 4476
4292, 4458, 4459, 4478, 4477
4293, 4459, 4460, 4479, 4478
4294, 4460, 4461, 4480, 4479
4295, 4461, 4462, 4481, 4480
4296, 4462, 4463, 4482, 4481
4297, 4463, 4464, 4483, 4482
4298, 4464, 4465, 4484, 4483
4299, 4465, 4466, 4485, 4484
4300, 4466,  432,  433, 4485
4301,  102, 4467, 4486,  103
4302, 4467, 4468, 4487, 4486
4303, 4468, 4469, 4488, 4487
4304, 4469, 4470, 4489, 4488
4305, 4470, 4471, 4490, 4489
4306, 4471, 4472, 4491, 4490
4307, 4472, 4473, 4492, 4491
4308, 4473, 4474, 4493, 4492
4309, 4474, 4475, 4494, 4493
4310, 4475, 4476, 4495, 4494
4311, 4476, 4477, 4496, 4495
4312, 4477, 4478, 4497, 4496
4313, 4478, 4479, 4498, 4497
4314, 4479, 4480, 4499, 4498
4315, 4480, 4481, 4500, 4499
4316, 4481, 4482, 4501, 4500
4317, 4482, 4483, 4502, 4501
4318, 4483, 4484, 4503, 4502
4319, 4484, 4485, 4504, 4503
4320, 4485,  433,  434, 4504
4321,  103, 4486, 4505,  104
4322, 4486, 4487, 4506, 4505
4323, 4487, 4488, 4507, 4506
4324, 4488, 4489, 4508, 4507
4325, 4489, 4490, 4509, 4508
4326, 4490, 4491, 4510, 4509
4327, 4491, 4492, 4511, 4510
4328, 4492, 4493, 4512, 4511
4329, 4493, 4494, 4513, 4512
4330, 4494, 4495, 4514, 4513
4331, 4495, 4496, 4515, 4514
4332, 4496, 4497, 4516, 4515
4333, 4497, 4498, 4517, 4516
4334, 4498, 4499, 4518, 4517
4335, 4499, 4500, 4519, 4518
4336, 4500, 4501, 4520, 4519
4337, 4501, 4502, 4521, 4520
4338, 4502, 4503, 4522, 4521
4339, 4503, 4504, 4523, 4522
4340, 4504,  434,  435, 4523
4341,  104, 4505, 4524,  105
4342, 4505, 4506, 4525, 4524
4343, 4506, 4507, 4526, 4525
4344, 4507, 4508, 4527, 4526
4345, 4508, 4509, 4528, 4527
4346, 4509, 4510, 4529, 4528
4347, 4510, 4511, 4530, 4529
4348, 4511, 4512, 4531, 4530
4349, 4512, 4513, 4532, 4531
4350, 4513, 4514, 4533, 4532
4351, 4514, 4515, 4534, 4533
4352, 4515, 4516, 4535, 4534
4353, 4516, 4517, 4536, 4535
4354, 4517, 4518, 4537, 4536
4355, 4518, 4519, 4538, 4537
4356, 4519, 4520, 4539, 4538
4357, 4520, 4521, 4540, 4539
4358, 4521, 4522, 4541, 4540
4359, 4522, 4523, 4542, 4541
4360, 4523,  435,  436, 4542
4361,  105, 4524, 4543,  106
4362, 4524, 4525, 4544, 4543
4363, 4525, 4526, 4545, 4544
4364, 4526, 4527, 4546, 4545
4365, 4527, 4528, 4547, 4546
4366, 4528, 4529, 4548, 4547
4367, 4529, 4530, 4549, 4548
4368, 4530, 4531, 4550, 4549
4369, 4531, 4532, 4551, 4550
4370, 4532, 4533, 4552, 4551
4371, 4533, 4534, 4553, 4552
4372, 4534, 4535, 4554, 4553
4373, 4535, 4536, 4555, 4554
4374, 4536, 4537, 4556, 4555
4375, 4537, 4538, 4557, 4556
4376, 4538, 4539, 4558, 4557
4377, 4539, 4540, 4559, 4558
4378, 4540, 4541, 4560, 4559
4379, 4541, 4542, 4561, 4560
4380, 4542,  436,  437, 4561
4381,  106, 4543, 4562,  107
4382, 4543, 4544, 4563, 4562
4383, 4544, 4545, 4564, 4563
4384, 4545, 4546, 4565, 4564
4385, 4546, 4547, 4566, 4565
4386, 4547, 4548, 4567, 4566
4387, 4548, 4549, 4568, 4567
4388, 4549, 4550, 4569, 4568
4389, 4550, 4551, 4570, 4569
4390, 4551, 4552, 4571, 4570
4391, 4552, 4553, 4572, 4571
4392, 4553, 4554, 4573, 4572
4393, 4554, 4555, 4574, 4573
4394, 4555, 4556, 4575, 4574
4395, 4556, 4557, 4576, 4575
4396, 4557, 4558, 4577, 4576
4397, 4558, 4559, 4578, 4577
4398, 4559, 4560, 4579, 4578
4399, 4560, 4561, 4580, 4579
4400, 4561,  437,  438, 4580
4401,  107, 4562, 4581,  108
4402, 4562, 4563, 4582, 4581
4403, 4563, 4564, 4583, 4582
4404, 4564, 4565, 4584, 4583
4405, 4565, 4566, 4585, 4584
4406, 4566, 4567, 4586, 4585
4407, 4567, 4568, 4587, 4586
4408, 4568, 4569, 4588, 4587
4409, 4569, 4570, 4589, 4588
4410, 4570, 4571, 4590, 4589
4411, 4571, 4572, 4591, 4590
4412, 4572, 4573, 4592, 4591
4413, 4573, 4574, 4593, 4592
4414, 4574, 4575, 4594, 4593
4415, 4575, 4576, 4595, 4594
4416, 4576, 4577, 4596, 4595
4417, 4577, 4578, 4597, 4596
4418, 4578, 4579, 4598, 4597
4419, 4579, 4580, 4599, 4598
4420, 4580,  438,  439, 4599
4421,  108, 4581, 4600,  109
4422, 4581, 4582, 4601, 4600
4423, 4582, 4583, 4602, 4601
4424, 4583, 4584, 4603, 4602
4425, 4584, 4585, 4604, 4603
4426, 4585, 4586, 4605, 4604
4427, 4586, 4587, 4606, 4605
4428, 4587, 4588, 4607, 4606
4429, 4588, 4589, 4608, 4607
4430, 4589, 4590, 4609, 4608
4431, 4590, 4591, 4610, 4609
4432, 4591, 4592, 4611, 4610
4433, 4592, 4593, 4612, 4611
4434, 4593, 4594, 4613, 4612
4435, 4594, 4595, 4614, 4613
4436, 4595, 4596, 4615, 4614
4437, 4596, 4597, 4616, 4615
4438, 4597, 4598, 4617, 4616
4439, 4598, 4599, 4618, 4617
4440, 4599,  439,  440, 4618
4441,  109, 4600, 4619,  110
4442, 4600, 4601, 4620, 4619
4443, 4601, 4602, 4621, 4620
4444, 4602, 4603, 4622, 4621
4445, 4603, 4604, 4623, 4622
4446, 4604, 4605, 4624, 4623
4447, 4605, 4606, 4625, 4624
4448, 4606, 4607, 4626, 4625
4449, 4607, 4608, 4627, 4626
4450, 4608, 4609, 4628, 4627
4451, 4609, 4610, 4629, 4628
4452, 4610, 4611, 4630, 4629
4453, 4611, 4612, 4631, 4630
4454, 4612, 4613, 4632, 4631
4455, 4613, 4614, 4633, 4632
4456, 4614, 4615, 4634, 4633
4457, 4615, 4616, 4635, 4634
4458, 4616, 4617, 4636, 4635
4459, 4617, 4618, 4637, 4636
4460, 4618,  440,  441, 4637
4461,  110, 4619, 4638,  111
4462, 4619, 4620, 4639, 4638
4463, 4620, 4621, 4640, 4639
4464, 4621, 4622, 4641, 4640
4465, 4622, 4623, 4642, 4641
4466, 4623, 4624, 4643, 4642
4467, 4624, 4625, 4644, 4643
4468, 4625, 4626, 4645, 4644
4469, 4626, 4627, 4646, 4645
4470, 4627, 4628, 4647, 4646
4471, 4628, 4629, 4648, 4647
4472, 4629, 4630, 4649, 4648
4473, 4630, 4631, 4650, 4649
4474, 4631, 4632, 4651, 4650
4475, 4632, 4633, 4652, 4651
4476, 4633, 4634, 4653, 4652
4477, 4634, 4635, 4654, 4653
4478, 4635, 4636, 4655, 4654
4479, 4636, 4637, 4656, 4655
4480, 4637,  441,  442, 4656
4481,  111, 4638, 4657,  112
4482, 4638, 4639, 4658, 4657
4483, 4639, 4640, 4659, 4658
4484, 4640, 4641, 4660, 4659
4485, 4641, 4642, 4661, 4660
4486, 4642, 4643, 4662, 4661
4487, 4643, 4644, 4663, 4662
4488, 4644, 4645, 4664, 4663
4489, 4645, 4646, 4665, 4664
4490, 4646, 4647, 4666, 4665
4491, 4647, 4648, 4667, 4666
4492, 4648, 4649, 4668, 4667
4493, 4649, 4650, 4669, 4668
4494, 4650, 4651, 4670, 4669
4495, 4651, 4652, 4671, 4670
4496, 4652, 4653, 4672, 4671
4497, 4653, 4654, 4673, 4672
4498, 4654, 4655, 4674, 4673
4499, 4655, 4656, 4675, 4674
4500, 4656,  442,  443, 4675
4501,  112, 4657, 4676,  113
4502, 4657, 4658, 4677, 4676
4503, 4658, 4659, 4678, 4677
4504, 4659, 4660, 4679, 4678
4505, 4660, 4661, 4680, 4679
4506, 4661, 4662, 4681, 4680
4507, 4662, 4663, 4682, 4681
4508, 4663, 4664, 4683, 4682
4509, 4664, 4665, 4684, 4683
4510, 4665, 4666, 4685, 4684
4511, 4666, 4667, 4686, 4685
4512, 4667, 4668, 4687, 4686
4513, 4668, 4669, 4688, 4687
4514, 4669, 4670, 4689, 4688
4515, 4670, 4671, 4690, 4689
4516, 4671, 4672, 4691, 4690
4517, 4672, 4673, 4692, 4691
4518, 4673, 4674, 4693, 4692
4519, 4674, 4675, 4694, 4693
4520, 4675,  443,  444, 4694
4521,  113, 4676, 4695,  114
4522, 4676, 4677, 4696, 4695
4523, 4677, 4678, 4697, 4696
4524, 4678, 4679, 4698, 4697
4525, 4679, 4680, 4699, 4698
4526, 4680, 4681, 4700, 4699
4527, 4681, 4682, 4701, 4700
4528, 4682, 4683, 4702, 4701
4529, 4683, 4684, 4703, 4702
4530, 4684, 4685, 4704, 4703
4531, 4685, 4686, 4705, 4704
4532, 4686, 4687, 4706, 4705
4533, 4687, 4688, 4707, 4706
4534, 4688, 4689, 4708, 4707
4535, 4689, 4690, 4709, 4708
4536, 4690, 4691, 4710, 4709
4537, 4691, 4692, 4711, 4710
4538, 4692, 4693, 4712, 4711
4539, 4693, 4694, 4713, 4712
4540, 4694,  444,  445, 4713
4541,  114, 4695, 4714,  115
4542, 4695, 4696, 4715, 4714
4543, 4696, 4697, 4716, 4715
4544, 4697, 4698, 4717, 4716
4545, 4698, 4699, 4718, 4717
4546, 4699, 4700, 4719, 4718
4547, 4700, 4701, 4720, 4719
4548, 4701, 4702, 4721, 4720
4549, 4702, 4703, 4722, 4721
4550, 4703, 4704, 4723, 4722
4551, 4704, 4705, 4724, 4723
4552, 4705, 4706, 4725, 4724
4553, 4706, 4707, 4726, 4725
4554, 4707, 4708, 4727, 4726
4555, 4708, 4709, 4728, 4727
4556, 4709, 4710, 4729, 4728
4557, 4710, 4711, 4730, 4729
4558, 4711, 4712, 4731, 4730
4559, 4712, 4713, 4732, 4731
4560, 4713,  445,  446, 4732
4561,  115, 4714, 4733,  116
4562, 4714, 4715, 4734, 4733
4563, 4715, 4716, 4735, 4734
4564, 4716, 4717, 4736, 4735
4565, 4717, 4718, 4737, 4736
4566, 4718, 4719, 4738, 4737
4567, 4719, 4720, 4739, 4738
4568, 4720, 4721, 4740, 4739
4569, 4721, 4722, 4741, 4740
4570, 4722, 4723, 4742, 4741
4571, 4723, 4724, 4743, 4742
4572, 4724, 4725, 4744, 4743
4573, 4725, 4726, 4745, 4744
4574, 4726, 4727, 4746, 4745
4575, 4727, 4728, 4747, 4746
4576, 4728, 4729, 4748, 4747
4577, 4729, 4730, 4749, 4748
4578, 4730, 4731, 4750, 4749
4579, 4731, 4732, 4751, 4750
4580, 4732,  446,  447, 4751
4581,  116, 4733, 4752,  117
4582, 4733, 4734, 4753, 4752
4583, 4734, 4735, 4754, 4753
4584, 4735, 4736, 4755, 4754
4585, 4736, 4737, 4756, 4755
4586, 4737, 4738, 4757, 4756
4587, 4738, 4739, 4758, 4757
4588, 4739, 4740, 4759, 4758
4589, 4740, 4741, 4760, 4759
4590, 4741, 4742, 4761, 4760
4591, 4742, 4743, 4762, 4761
4592, 4743, 4744, 4763, 4762
4593, 4744, 4745, 4764, 4763
4594, 4745, 4746, 4765, 4764
4595, 4746, 4747, 4766, 4765
4596, 4747, 4748, 4767, 4766
4597, 4748, 4749, 4768, 4767
4598, 4749, 4750, 4769, 4768
4599, 4750, 4751, 4770, 4769
4600, 4751,  447,  448, 4770
4601,  117, 4752, 4771,  118
4602, 4752, 4753, 4772, 4771
4603, 4753, 4754, 4773, 4772
4604, 4754, 4755, 4774, 4773
4605, 4755, 4756, 4775, 4774
4606, 4756, 4757, 4776, 4775
4607, 4757, 4758, 4777, 4776
4608, 4758, 4759, 4778, 4777
4609, 4759, 4760, 4779, 4778
4610, 4760, 4761, 4780, 4779
4611, 4761, 4762, 4781, 4780
4612, 4762, 4763, 4782, 4781
4613, 4763, 4764, 4783, 4782
4614, 4764, 4765, 4784, 4783
4615, 4765, 4766, 4785, 4784
4616, 4766, 4767, 4786, 4785
4617, 4767, 4768, 4787, 4786
4618, 4768, 4769, 4788, 4787
4619, 4769, 4770, 4789, 4788
4620, 4770,  448,  449, 4789
4621,  118, 4771, 4790,  119
4622, 4771, 4772, 4791, 4790
4623, 4772, 4773, 4792, 4791
4624, 4773, 4774, 4793, 4792
4625, 4774, 4775, 4794, 4793
4626, 4775, 4776, 4795, 4794
4627, 4776, 4777, 4796, 4795
4628, 4777, 4778, 4797, 4796
4629, 4778, 4779, 4798, 4797
4630, 4779, 4780, 4799, 4798
4631, 4780, 4781, 4800, 4799
4632, 4781, 4782, 4801, 4800
4633, 4782, 4783, 4802, 4801
4634, 4783, 4784, 4803, 4802
4635, 4784, 4785, 4804, 4803
4636, 4785, 4786, 4805, 4804
4637, 4786, 4787, 4806, 4805
4638, 4787, 4788, 4807, 4806
4639, 4788, 4789, 4808, 4807
4640, 4789,  449,  450, 4808
4641,  119, 4790, 4809,  120
4642, 4790, 4791, 4810, 4809
4643, 4791, 4792, 4811, 4810
4644, 4792, 4793, 4812, 4811
4645, 4793, 4794, 4813, 4812
4646, 4794, 4795, 4814, 4813
4647, 4795, 4796, 4815, 4814
4648, 4796, 4797, 4816, 4815
4649, 4797, 4798, 4817, 4816
4650, 4798, 4799, 4818, 4817
4651, 4799, 4800, 4819, 4818
4652, 4800, 4801, 4820, 4819
4653, 4801, 4802, 4821, 4820
4654, 4802, 4803, 4822, 4821
4655, 4803, 4804, 4823, 4822
4656, 4804, 4805, 4824, 4823
4657, 4805, 4806, 4825, 4824
4658, 4806, 4807, 4826, 4825
4659, 4807, 4808, 4827, 4826
4660, 4808,  450,  451, 4827
4661,  120, 4809, 4828,  121
4662, 4809, 4810, 4829, 4828
4663, 4810, 4811, 4830, 4829
4664, 4811, 4812, 4831, 4830
4665, 4812, 4813, 4832, 4831
4666, 4813, 4814, 4833, 4832
4667, 4814, 4815, 4834, 4833
4668, 4815, 4816, 4835, 4834
4669, 4816, 4817, 4836, 4835
4670, 4817, 4818, 4837, 4836
4671, 4818, 4819, 4838, 4837
4672, 4819, 4820, 4839, 4838
4673, 4820, 4821, 4840, 4839
4674, 4821, 4822, 4841, 4840
4675, 4822, 4823, 4842, 4841
4676, 4823, 4824, 4843, 4842
4677, 4824, 4825, 4844, 4843
4678, 4825, 4826, 4845, 4844
4679, 4826, 4827, 4846, 4845
4680, 4827,  451,  452, 4846
4681,  121, 4828, 4847,  122
4682, 4828, 4829, 4848, 4847
4683, 4829, 4830, 4849, 4848
4684, 4830, 4831, 4850, 4849
4685, 4831, 4832, 4851, 4850
4686, 4832, 4833, 4852, 4851
4687, 4833, 4834, 4853, 4852
4688, 4834, 4835, 4854, 4853
4689, 4835, 4836, 4855, 4854
4690, 4836, 4837, 4856, 4855
4691, 4837, 4838, 4857, 4856
4692, 4838, 4839, 4858, 4857
4693, 4839, 4840, 4859, 4858
4694, 4840, 4841, 4860, 4859
4695, 4841, 4842, 4861, 4860
4696, 4842, 4843, 4862, 4861
4697, 4843, 4844, 4863, 4862
4698, 4844, 4845, 4864, 4863
4699, 4845, 4846, 4865, 4864
4700, 4846,  452,  453, 4865
4701,  122, 4847, 4866,  123
4702, 4847, 4848, 4867, 4866
4703, 4848, 4849, 4868, 4867
4704, 4849, 4850, 4869, 4868
4705, 4850, 4851, 4870, 4869
4706, 4851, 4852, 4871, 4870
4707, 4852, 4853, 4872, 4871
4708, 4853, 4854, 4873, 4872
4709, 4854, 4855, 4874, 4873
4710, 4855, 4856, 4875, 4874
4711, 4856, 4857, 4876, 4875
4712, 4857, 4858, 4877, 4876
4713, 4858, 4859, 4878, 4877
4714, 4859, 4860, 4879, 4878
4715, 4860, 4861, 4880, 4879
4716, 4861, 4862, 4881, 4880
4717, 4862, 4863, 4882, 4881
4718, 4863, 4864, 4883, 4882
4719, 4864, 4865, 4884, 4883
4720, 4865,  453,  454, 4884
4721,  123, 4866, 4885,  124
4722, 4866, 4867, 4886, 4885
4723, 4867, 4868, 4887, 4886
4724, 4868, 4869, 4888, 4887
4725, 4869, 4870, 4889, 4888
4726, 4870, 4871, 4890, 4889
4727, 4871, 4872, 4891, 4890
4728, 4872, 4873, 4892, 4891
4729, 4873, 4874, 4893, 4892
4730, 4874, 4875, 4894, 4893
4731, 4875, 4876, 4895, 4894
4732, 4876, 4877, 4896, 4895
4733, 4877, 4878, 4897, 4896
4734, 4878, 4879, 4898, 4897
4735, 4879, 4880, 4899, 4898
4736, 4880, 4881, 4900, 4899
4737, 4881, 4882, 4901, 4900
4738, 4882, 4883, 4902, 4901
4739, 4883, 4884, 4903, 4902
4740, 4884,  454,  455, 4903
4741,  124, 4885, 4904,  125
4742, 4885, 4886, 4905, 4904
4743, 4886, 4887, 4906, 4905
4744, 4887, 4888, 4907, 4906
4745, 4888, 4889, 4908, 4907
4746, 4889, 4890, 4909, 4908
4747, 4890, 4891, 4910, 4909
4748, 4891, 4892, 4911, 4910
4749, 4892, 4893, 4912, 4911
4750, 4893, 4894, 4913, 4912
4751, 4894, 4895, 4914, 4913
4752, 4895, 4896, 4915, 4914
4753, 4896, 4897, 4916, 4915
4754, 4897, 4898, 4917, 4916
4755, 4898, 4899, 4918, 4917
4756, 4899, 4900, 4919, 4918
4757, 4900, 4901, 4920, 4919
4758, 4901, 4902, 4921, 4920
4759, 4902, 4903, 4922, 4921
4760, 4903,  455,  456, 4922
4761,  125, 4904, 4923,  126
4762, 4904, 4905, 4924, 4923
4763, 4905, 4906, 4925, 4924
4764, 4906, 4907, 4926, 4925
4765, 4907, 4908, 4927, 4926
4766, 4908, 4909, 4928, 4927
4767, 4909, 4910, 4929, 4928
4768, 4910, 4911, 4930, 4929
4769, 4911, 4912, 4931, 4930
4770, 4912, 4913, 4932, 4931
4771, 4913, 4914, 4933, 4932
4772, 4914, 4915, 4934, 4933
4773, 4915, 4916, 4935, 4934
4774, 4916, 4917, 4936, 4935
4775, 4917, 4918, 4937, 4936
4776, 4918, 4919, 4938, 4937
4777, 4919, 4920, 4939, 4938
4778, 4920, 4921, 4940, 4939
4779, 4921, 4922, 4941, 4940
4780, 4922,  456,  457, 4941
4781,  126, 4923,  245,    3
4782, 4923, 4924,  246,  245
4783, 4924, 4925,  247,  246
4784, 4925, 4926,  248,  247
4785, 4926, 4927,  249,  248
4786, 4927, 4928,  250,  249
4787, 4928, 4929,  251,  250
4788, 4929, 4930,  252,  251
4789, 4930, 4931,  253,  252
4790, 4931, 4932,  254,  253
4791, 4932, 4933,  255,  254
4792, 4933, 4934,  256,  255
4793, 4934, 4935,  257,  256
4794, 4935, 4936,  258,  257
4795, 4936, 4937,  259,  258
4796, 4937, 4938,  260,  259
4797, 4938, 4939,  261,  260
4798, 4939, 4940,  262,  261
4799, 4940, 4941,  263,  262
4800, 4941,  457,    5,  263
*Nset, nset=Set-8, generate
    1,  4941,     1
*Elset, elset=Set-8, generate
    1,  4800,     1
** Section: Material
*Solid Section, elset=Set-8, material=Material
,
*End Part
**  
*Part, name=FLAT
*Node
      1,           6.,          -6.
      2,          0.5, -0.200000003
      3,         -0.5, -0.200000003
      4,          -6.,          -6.
      5,         -0.5,           0.
      6,          -6.,           0.
      7,          0.5,           0.
      8,           6.,           0.
      9,   5.31125355,  -5.27368546
     10,   4.70111609,  -4.63026762
     11,   4.16061544,  -4.06028557
     12,   3.68180394,  -3.55535674
     13,    3.2576406,   -3.1080575
     14,   2.88188839,  -2.71180964
     15,    2.5490222,  -2.36078691
     16,   2.25414681,  -2.04982758
     17,   1.99292672,  -1.77435911
     18,    1.7615205,  -1.53033066
     19,   1.55652535,  -1.31415403
     20,   1.37492692,  -1.12265027
     21,   1.21405494, -0.953003407
     22,   1.07154381, -0.802718937
     23,  0.945297956, -0.669586897
     24,  0.833460927,  -0.55164969
     25,  0.734388173, -0.447172999
     26,  0.646622956, -0.354620546
     27,  0.568874657, -0.272631437
     28,   0.49000001, -0.200000003
     29,  0.479999989, -0.200000003
     30,  0.469999999, -0.200000003
     31,  0.460000008, -0.200000003
     32,  0.449999988, -0.200000003
     33,  0.439999998, -0.200000003
     34,  0.430000007, -0.200000003
     35,  0.419999987, -0.200000003
     36,  0.409999996, -0.200000003
     37,  0.400000006, -0.200000003
     38,  0.389999986, -0.200000003
     39,  0.379999995, -0.200000003
     40,  0.370000005, -0.200000003
     41,  0.360000014, -0.200000003
     42,  0.349999994, -0.200000003
     43,  0.340000004, -0.200000003
     44,  0.330000013, -0.200000003
     45,  0.319999993, -0.200000003
     46,  0.310000002, -0.200000003
     47,  0.300000012, -0.200000003
     48,  0.289999992, -0.200000003
     49,  0.280000001, -0.200000003
     50,  0.270000011, -0.200000003
     51,   0.25999999, -0.200000003
     52,         0.25, -0.200000003
     53,  0.239999995, -0.200000003
     54,  0.230000004, -0.200000003
     55,  0.219999999, -0.200000003
     56,  0.209999993, -0.200000003
     57,  0.200000003, -0.200000003
     58,  0.189999998, -0.200000003
     59,  0.180000007, -0.200000003
     60,  0.170000002, -0.200000003
     61,  0.159999996, -0.200000003
     62,  0.150000006, -0.200000003
     63,  0.140000001, -0.200000003
     64,  0.129999995, -0.200000003
     65,  0.119999997, -0.200000003
     66,  0.109999999, -0.200000003
     67,  0.100000001, -0.200000003
     68, 0.0900000036, -0.200000003
     69, 0.0799999982, -0.200000003
     70, 0.0700000003, -0.200000003
     71, 0.0599999987, -0.200000003
     72, 0.0500000007, -0.200000003
     73, 0.0399999991, -0.200000003
     74, 0.0299999993, -0.200000003
     75, 0.0199999996, -0.200000003
     76, 0.00999999978, -0.200000003
     77,           0., -0.200000003
     78, -0.00999999978, -0.200000003
     79, -0.0199999996, -0.200000003
     80, -0.0299999993, -0.200000003
     81, -0.0399999991, -0.200000003
     82, -0.0500000007, -0.200000003
     83, -0.0599999987, -0.200000003
     84, -0.0700000003, -0.200000003
     85, -0.0799999982, -0.200000003
     86, -0.0900000036, -0.200000003
     87, -0.100000001, -0.200000003
     88, -0.109999999, -0.200000003
     89, -0.119999997, -0.200000003
     90, -0.129999995, -0.200000003
     91, -0.140000001, -0.200000003
     92, -0.150000006, -0.200000003
     93, -0.159999996, -0.200000003
     94, -0.170000002, -0.200000003
     95, -0.180000007, -0.200000003
     96, -0.189999998, -0.200000003
     97, -0.200000003, -0.200000003
     98, -0.209999993, -0.200000003
     99, -0.219999999, -0.200000003
    100, -0.230000004, -0.200000003
    101, -0.239999995, -0.200000003
    102,        -0.25, -0.200000003
    103,  -0.25999999, -0.200000003
    104, -0.270000011, -0.200000003
    105, -0.280000001, -0.200000003
    106, -0.289999992, -0.200000003
    107, -0.300000012, -0.200000003
    108, -0.310000002, -0.200000003
    109, -0.319999993, -0.200000003
    110, -0.330000013, -0.200000003
    111, -0.340000004, -0.200000003
    112, -0.349999994, -0.200000003
    113, -0.360000014, -0.200000003
    114, -0.370000005, -0.200000003
    115, -0.379999995, -0.200000003
    116, -0.389999986, -0.200000003
    117, -0.400000006, -0.200000003
    118, -0.409999996, -0.200000003
    119, -0.419999987, -0.200000003
    120, -0.430000007, -0.200000003
    121, -0.439999998, -0.200000003
    122, -0.449999988, -0.200000003
    123, -0.460000008, -0.200000003
    124, -0.469999999, -0.200000003
    125, -0.479999989, -0.200000003
    126,  -0.49000001, -0.200000003
    127, -0.568874657, -0.272631437
    128, -0.646622956, -0.354620546
    129, -0.734388173, -0.447172999
    130, -0.833460927,  -0.55164969
    131, -0.945297956, -0.669586897
    132,  -1.07154381, -0.802718937
    133,  -1.21405494, -0.953003407
    134,  -1.37492692,  -1.12265027
    135,  -1.55652535,  -1.31415403
    136,   -1.7615205,  -1.53033066
    137,  -1.99292672,  -1.77435911
    138,  -2.25414681,  -2.04982758
    139,   -2.5490222,  -2.36078691
    140,  -2.88188839,  -2.71180964
    141,   -3.2576406,   -3.1080575
    142,  -3.68180394,  -3.55535674
    143,  -4.16061544,  -4.06028557
    144,  -4.70111609,  -4.63026762
    145,  -5.31125355,  -5.27368546
    146,  -5.88000011,          -6.
    147,  -5.76000023,          -6.
    148,  -5.63999987,          -6.
    149,  -5.51999998,          -6.
    150,   -5.4000001,          -6.
    151,  -5.28000021,          -6.
    152,  -5.15999985,          -6.
    153,  -5.03999996,          -6.
    154,  -4.92000008,          -6.
    155,  -4.80000019,          -6.
    156,  -4.67999983,          -6.
    157,  -4.55999994,          -6.
    158,  -4.44000006,          -6.
    159,  -4.32000017,          -6.
    160,  -4.19999981,          -6.
    161,  -4.07999992,          -6.
    162,  -3.96000004,          -6.
    163,  -3.83999991,          -6.
    164,  -3.72000003,          -6.
    165,   -3.5999999,          -6.
    166,  -3.48000002,          -6.
    167,   -3.3599999,          -6.
    168,  -3.24000001,          -6.
    169,  -3.11999989,          -6.
    170,          -3.,          -6.
    171,  -2.88000011,          -6.
    172,  -2.75999999,          -6.
    173,   -2.6400001,          -6.
    174,  -2.51999998,          -6.
    175,   -2.4000001,          -6.
    176,  -2.27999997,          -6.
    177,  -2.16000009,          -6.
    178,  -2.03999996,          -6.
    179,  -1.91999996,          -6.
    180,  -1.79999995,          -6.
    181,  -1.67999995,          -6.
    182,  -1.55999994,          -6.
    183,  -1.44000006,          -6.
    184,  -1.32000005,          -6.
    185,  -1.20000005,          -6.
    186,  -1.08000004,          -6.
    187, -0.959999979,          -6.
    188, -0.839999974,          -6.
    189, -0.720000029,          -6.
    190, -0.600000024,          -6.
    191, -0.479999989,          -6.
    192, -0.360000014,          -6.
    193, -0.239999995,          -6.
    194, -0.119999997,          -6.
    195,           0.,          -6.
    196,  0.119999997,          -6.
    197,  0.239999995,          -6.
    198,  0.360000014,          -6.
    199,  0.479999989,          -6.
    200,  0.600000024,          -6.
    201,  0.720000029,          -6.
    202,  0.839999974,          -6.
    203,  0.959999979,          -6.
    204,   1.08000004,          -6.
    205,   1.20000005,          -6.
    206,   1.32000005,          -6.
    207,   1.44000006,          -6.
    208,   1.55999994,          -6.
    209,   1.67999995,          -6.
    210,   1.79999995,          -6.
    211,   1.91999996,          -6.
    212,   2.03999996,          -6.
    213,   2.16000009,          -6.
    214,   2.27999997,          -6.
    215,    2.4000001,          -6.
    216,   2.51999998,          -6.
    217,    2.6400001,          -6.
    218,   2.75999999,          -6.
    219,   2.88000011,          -6.
    220,           3.,          -6.
    221,   3.11999989,          -6.
    222,   3.24000001,          -6.
    223,    3.3599999,          -6.
    224,   3.48000002,          -6.
    225,    3.5999999,          -6.
    226,   3.72000003,          -6.
    227,   3.83999991,          -6.
    228,   3.96000004,          -6.
    229,   4.07999992,          -6.
    230,   4.19999981,          -6.
    231,   4.32000017,          -6.
    232,   4.44000006,          -6.
    233,   4.55999994,          -6.
    234,   4.67999983,          -6.
    235,   4.80000019,          -6.
    236,   4.92000008,          -6.
    237,   5.03999996,          -6.
    238,   5.15999985,          -6.
    239,   5.28000021,          -6.
    240,    5.4000001,          -6.
    241,   5.51999998,          -6.
    242,   5.63999987,          -6.
    243,   5.76000023,          -6.
    244,   5.88000011,          -6.
    245,         -0.5, -0.189999998
    246,         -0.5, -0.180000007
    247,         -0.5, -0.170000002
    248,         -0.5, -0.159999996
    249,         -0.5, -0.150000006
    250,         -0.5, -0.140000001
    251,         -0.5, -0.129999995
    252,         -0.5, -0.119999997
    253,         -0.5, -0.109999999
    254,         -0.5, -0.100000001
    255,         -0.5, -0.0900000036
    256,         -0.5, -0.0799999982
    257,         -0.5, -0.0700000003
    258,         -0.5, -0.0599999987
    259,         -0.5, -0.0500000007
    260,         -0.5, -0.0399999991
    261,         -0.5, -0.0299999993
    262,         -0.5, -0.0199999996
    263,         -0.5, -0.00999999978
    264, -0.568874657,           0.
    265, -0.646622956,           0.
    266, -0.734388173,           0.
    267, -0.833460927,           0.
    268, -0.945297956,           0.
    269,  -1.07154381,           0.
    270,  -1.21405494,           0.
    271,  -1.37492692,           0.
    272,  -1.55652535,           0.
    273,   -1.7615205,           0.
    274,  -1.99292672,           0.
    275,  -2.25414681,           0.
    276,   -2.5490222,           0.
    277,  -2.88188839,           0.
    278,   -3.2576406,           0.
    279,  -3.68180394,           0.
    280,  -4.16061544,           0.
    281,  -4.70111609,           0.
    282,  -5.31125355,           0.
    283,          -6., -0.300000012
    284,          -6., -0.600000024
    285,          -6., -0.899999976
    286,          -6.,  -1.20000005
    287,          -6.,         -1.5
    288,          -6.,  -1.79999995
    289,          -6.,   -2.0999999
    290,          -6.,   -2.4000001
    291,          -6.,  -2.70000005
    292,          -6.,          -3.
    293,          -6.,  -3.29999995
    294,          -6.,   -3.5999999
    295,          -6.,   -3.9000001
    296,          -6.,  -4.19999981
    297,          -6.,         -4.5
    298,          -6.,  -4.80000019
    299,          -6.,   -5.0999999
    300,          -6.,   -5.4000001
    301,          -6.,  -5.69999981
    302,          0.5, -0.00999999978
    303,          0.5, -0.0199999996
    304,          0.5, -0.0299999993
    305,          0.5, -0.0399999991
    306,          0.5, -0.0500000007
    307,          0.5, -0.0599999987
    308,          0.5, -0.0700000003
    309,          0.5, -0.0799999982
    310,          0.5, -0.0900000036
    311,          0.5, -0.100000001
    312,          0.5, -0.109999999
    313,          0.5, -0.119999997
    314,          0.5, -0.129999995
    315,          0.5, -0.140000001
    316,          0.5, -0.150000006
    317,          0.5, -0.159999996
    318,          0.5, -0.170000002
    319,          0.5, -0.180000007
    320,          0.5, -0.189999998
    321,           6.,  -5.69999981
    322,           6.,   -5.4000001
    323,           6.,   -5.0999999
    324,           6.,  -4.80000019
    325,           6.,         -4.5
    326,           6.,  -4.19999981
    327,           6.,   -3.9000001
    328,           6.,   -3.5999999
    329,           6.,  -3.29999995
    330,           6.,          -3.
    331,           6.,  -2.70000005
    332,           6.,   -2.4000001
    333,           6.,   -2.0999999
    334,           6.,  -1.79999995
    335,           6.,         -1.5
    336,           6.,  -1.20000005
    337,           6., -0.899999976
    338,           6., -0.600000024
    339,           6., -0.300000012
    340,   5.31125355,           0.
    341,   4.70111609,           0.
    342,   4.16061544,           0.
    343,   3.68180394,           0.
    344,    3.2576406,           0.
    345,   2.88188839,           0.
    346,    2.5490222,           0.
    347,   2.25414681,           0.
    348,   1.99292672,           0.
    349,    1.7615205,           0.
    350,   1.55652535,           0.
    351,   1.37492692,           0.
    352,   1.21405494,           0.
    353,   1.07154381,           0.
    354,  0.945297956,           0.
    355,  0.833460927,           0.
    356,  0.734388173,           0.
    357,  0.646622956,           0.
    358,  0.568874657,           0.
    359,   0.49000001,           0.
    360,  0.479999989,           0.
    361,  0.469999999,           0.
    362,  0.460000008,           0.
    363,  0.449999988,           0.
    364,  0.439999998,           0.
    365,  0.430000007,           0.
    366,  0.419999987,           0.
    367,  0.409999996,           0.
    368,  0.400000006,           0.
    369,  0.389999986,           0.
    370,  0.379999995,           0.
    371,  0.370000005,           0.
    372,  0.360000014,           0.
    373,  0.349999994,           0.
    374,  0.340000004,           0.
    375,  0.330000013,           0.
    376,  0.319999993,           0.
    377,  0.310000002,           0.
    378,  0.300000012,           0.
    379,  0.289999992,           0.
    380,  0.280000001,           0.
    381,  0.270000011,           0.
    382,   0.25999999,           0.
    383,         0.25,           0.
    384,  0.239999995,           0.
    385,  0.230000004,           0.
    386,  0.219999999,           0.
    387,  0.209999993,           0.
    388,  0.200000003,           0.
    389,  0.189999998,           0.
    390,  0.180000007,           0.
    391,  0.170000002,           0.
    392,  0.159999996,           0.
    393,  0.150000006,           0.
    394,  0.140000001,           0.
    395,  0.129999995,           0.
    396,  0.119999997,           0.
    397,  0.109999999,           0.
    398,  0.100000001,           0.
    399, 0.0900000036,           0.
    400, 0.0799999982,           0.
    401, 0.0700000003,           0.
    402, 0.0599999987,           0.
    403, 0.0500000007,           0.
    404, 0.0399999991,           0.
    405, 0.0299999993,           0.
    406, 0.0199999996,           0.
    407, 0.00999999978,           0.
    408,           0.,           0.
    409, -0.00999999978,           0.
    410, -0.0199999996,           0.
    411, -0.0299999993,           0.
    412, -0.0399999991,           0.
    413, -0.0500000007,           0.
    414, -0.0599999987,           0.
    415, -0.0700000003,           0.
    416, -0.0799999982,           0.
    417, -0.0900000036,           0.
    418, -0.100000001,           0.
    419, -0.109999999,           0.
    420, -0.119999997,           0.
    421, -0.129999995,           0.
    422, -0.140000001,           0.
    423, -0.150000006,           0.
    424, -0.159999996,           0.
    425, -0.170000002,           0.
    426, -0.180000007,           0.
    427, -0.189999998,           0.
    428, -0.200000003,           0.
    429, -0.209999993,           0.
    430, -0.219999999,           0.
    431, -0.230000004,           0.
    432, -0.239999995,           0.
    433,        -0.25,           0.
    434,  -0.25999999,           0.
    435, -0.270000011,           0.
    436, -0.280000001,           0.
    437, -0.289999992,           0.
    438, -0.300000012,           0.
    439, -0.310000002,           0.
    440, -0.319999993,           0.
    441, -0.330000013,           0.
    442, -0.340000004,           0.
    443, -0.349999994,           0.
    444, -0.360000014,           0.
    445, -0.370000005,           0.
    446, -0.379999995,           0.
    447, -0.389999986,           0.
    448, -0.400000006,           0.
    449, -0.409999996,           0.
    450, -0.419999987,           0.
    451, -0.430000007,           0.
    452, -0.439999998,           0.
    453, -0.449999988,           0.
    454, -0.460000008,           0.
    455, -0.469999999,           0.
    456, -0.479999989,           0.
    457,  -0.49000001,           0.
    458,   5.20502853,  -5.27368546
    459,   4.60709381,  -4.63026762
    460,   4.07740307,  -4.06028557
    461,   3.60816789,  -3.55535674
    462,   3.19248772,   -3.1080575
    463,    2.8242507,  -2.71180964
    464,   2.49804163,  -2.36078691
    465,   2.20906401,  -2.04982758
    466,   1.95306826,  -1.77435911
    467,   1.72629011,  -1.53033066
    468,    1.5253948,  -1.31415403
    469,   1.34742844,  -1.12265027
    470,   1.18977392, -0.953003407
    471,   1.05011296, -0.802718937
    472,  0.926391959, -0.669586897
    473,  0.816791654,  -0.55164969
    474,  0.719700396, -0.447172999
    475,  0.633690476, -0.354620546
    476,  0.557497144, -0.272631437
    477,   5.09880352,  -5.27368546
    478,   4.51307154,  -4.63026762
    479,   3.99419069,  -4.06028557
    480,   3.53453159,  -3.55535674
    481,   3.12733507,   -3.1080575
    482,   2.76661301,  -2.71180964
    483,    2.4470613,  -2.36078691
    484,   2.16398096,  -2.04982758
    485,   1.91320968,  -1.77435911
    486,   1.69105959,  -1.53033066
    487,   1.49426436,  -1.31415403
    488,   1.31992984,  -1.12265027
    489,   1.16549277, -0.953003407
    490,   1.02868211, -0.802718937
    491,  0.907486022, -0.669586897
    492,   0.80012244,  -0.55164969
    493,  0.705012679, -0.447172999
    494,  0.620758057, -0.354620546
    495,   0.54611963, -0.272631437
    496,   4.99257851,  -5.27368546
    497,   4.41904926,  -4.63026762
    498,   3.91097856,  -4.06028557
    499,   3.46089554,  -3.55535674
    500,   3.06218219,   -3.1080575
    501,   2.70897508,  -2.71180964
    502,   2.39608073,  -2.36078691
    503,   2.11889815,  -2.04982758
    504,    1.8733511,  -1.77435911
    505,   1.65582919,  -1.53033066
    506,   1.46313381,  -1.31415403
    507,   1.29243135,  -1.12265027
    508,   1.14121163, -0.953003407
    509,   1.00725114, -0.802718937
    510,  0.888580084, -0.669586897
    511,  0.783453226,  -0.55164969
    512,  0.690324903, -0.447172999
    513,  0.607825577, -0.354620546
    514,  0.534742177, -0.272631437
    515,   4.88635349,  -5.27368546
    516,   4.32502651,  -4.63026762
    517,   3.82776618,  -4.06028557
    518,   3.38725948,  -3.55535674
    519,    2.9970293,   -3.1080575
    520,   2.65133739,  -2.71180964
    521,    2.3451004,  -2.36078691
    522,   2.07381511,  -2.04982758
    523,   1.83349264,  -1.77435911
    524,   1.62059879,  -1.53033066
    525,   1.43200326,  -1.31415403
    526,   1.26493275,  -1.12265027
    527,    1.1169306, -0.953003407
    528,  0.985820293, -0.802718937
    529,  0.869674087, -0.669586897
    530,  0.766784012,  -0.55164969
    531,  0.675637126, -0.447172999
    532,  0.594893098, -0.354620546
    533,  0.523364663, -0.272631437
    534,     4.780128,  -5.27368546
    535,   4.23100424,  -4.63026762
    536,    3.7445538,  -4.06028557
    537,   3.31362343,  -3.55535674
    538,   2.93187666,   -3.1080575
    539,   2.59369969,  -2.71180964
    540,   2.29411983,  -2.36078691
    541,    2.0287323,  -2.04982758
    542,   1.79363406,  -1.77435911
    543,   1.58536839,  -1.53033066
    544,   1.40087283,  -1.31415403
    545,   1.23743427,  -1.12265027
    546,   1.09264946, -0.953003407
    547,  0.964389443, -0.802718937
    548,  0.850768149, -0.669586897
    549,  0.750114799,  -0.55164969
    550,  0.660949349, -0.447172999
    551,  0.581960678, -0.354620546
    552,   0.51198715, -0.272631437
    553,   4.67390299,  -5.27368546
    554,   4.13698196,  -4.63026762
    555,   3.66134167,  -4.06028557
    556,   3.23998737,  -3.55535674
    557,   2.86672378,   -3.1080575
    558,   2.53606176,  -2.71180964
    559,   2.24313951,  -2.36078691
    560,   1.98364925,  -2.04982758
    561,   1.75377548,  -1.77435911
    562,     1.550138,  -1.53033066
    563,   1.36974227,  -1.31415403
    564,   1.20993567,  -1.12265027
    565,   1.06836832, -0.953003407
    566,  0.942958593, -0.802718937
    567,  0.831862211, -0.669586897
    568,  0.733445585,  -0.55164969
    569,  0.646261573, -0.447172999
    570,  0.569028199, -0.354620546
    571,  0.500609696, -0.272631437
    572,   4.56767797,  -5.27368546
    573,   4.04295969,  -4.63026762
    574,   3.57812929,  -4.06028557
    575,   3.16635132,  -3.55535674
    576,   2.80157089,   -3.1080575
    577,   2.47842407,  -2.71180964
    578,   2.19215894,  -2.36078691
    579,   1.93856633,  -2.04982758
    580,   1.71391702,  -1.77435911
    581,    1.5149076,  -1.53033066
    582,   1.33861184,  -1.31415403
    583,   1.18243718,  -1.12265027
    584,   1.04408729, -0.953003407
    585,  0.921527684, -0.802718937
    586,  0.812956214, -0.669586897
    587,  0.716776371,  -0.55164969
    588,  0.631573856, -0.447172999
    589,  0.556095719, -0.354620546
    590,  0.489232183, -0.272631437
    591,   4.46145296,  -5.27368546
    592,   3.94893742,  -4.63026762
    593,   3.49491692,  -4.06028557
    594,   3.09271526,  -3.55535674
    595,   2.73641801,   -3.1080575
    596,   2.42078638,  -2.71180964
    597,   2.14117861,  -2.36078691
    598,    1.8934834,  -2.04982758
    599,   1.67405844,  -1.77435911
    600,    1.4796772,  -1.53033066
    601,   1.30748129,  -1.31415403
    602,   1.15493858,  -1.12265027
    603,   1.01980615, -0.953003407
    604,  0.900096834, -0.802718937
    605,  0.794050276, -0.669586897
    606,  0.700107157,  -0.55164969
    607,  0.616886079, -0.447172999
    608,    0.5431633, -0.354620546
    609,  0.477854699, -0.272631437
    610,   4.35522795,  -5.27368546
    611,   3.85491514,  -4.63026762
    612,   3.41170454,  -4.06028557
    613,   3.01907921,  -3.55535674
    614,   2.67126536,   -3.1080575
    615,   2.36314845,  -2.71180964
    616,   2.09019828,  -2.36078691
    617,   1.84840047,  -2.04982758
    618,   1.63419998,  -1.77435911
    619,    1.4444468,  -1.53033066
    620,   1.27635074,  -1.31415403
    621,   1.12744009,  -1.12265027
    622,  0.995525062, -0.953003407
    623,  0.878665924, -0.802718937
    624,  0.775144279, -0.669586897
    625,  0.683437943,  -0.55164969
    626,  0.602198303, -0.447172999
    627,   0.53023082, -0.354620546
    628,  0.466477215, -0.272631437
    629,   4.24900293,  -5.27368546
    630,   3.76089287,  -4.63026762
    631,    3.3284924,  -4.06028557
    632,   2.94544315,  -3.55535674
    633,   2.60611248,   -3.1080575
    634,   2.30551076,  -2.71180964
    635,   2.03921771,  -2.36078691
    636,   1.80331755,  -2.04982758
    637,    1.5943414,  -1.77435911
    638,    1.4092164,  -1.53033066
    639,    1.2452203,  -1.31415403
    640,   1.09994161,  -1.12265027
    641,  0.971243978, -0.953003407
    642,  0.857235074, -0.802718937
    643,  0.756238341, -0.669586897
    644,   0.66676873,  -0.55164969
    645,  0.587510526, -0.447172999
    646,  0.517298341, -0.354620546
    647,  0.455099702, -0.272631437
    648,   4.14277792,  -5.27368546
    649,   3.66687059,  -4.63026762
    650,   3.24528003,  -4.06028557
    651,    2.8718071,  -3.55535674
    652,    2.5409596,   -3.1080575
    653,   2.24787307,  -2.71180964
    654,   1.98823726,  -2.36078691
    655,   1.75823462,  -2.04982758
    656,   1.55448282,  -1.77435911
    657,   1.37398601,  -1.53033066
    658,   1.21408975,  -1.31415403
    659,   1.07244301,  -1.12265027
    660,  0.946962893, -0.953003407
    661,  0.835804164, -0.802718937
    662,  0.737332404, -0.669586897
    663,  0.650099516,  -0.55164969
    664,   0.57282275, -0.447172999
    665,  0.504365921, -0.354620546
    666,  0.443722218, -0.272631437
    667,   4.03655291,  -5.27368546
    668,   3.57284808,  -4.63026762
    669,   3.16206765,  -4.06028557
    670,   2.79817104,  -3.55535674
    671,   2.47580695,   -3.1080575
    672,   2.19023514,  -2.71180964
    673,   1.93725681,  -2.36078691
    674,   1.71315169,  -2.04982758
    675,   1.51462436,  -1.77435911
    676,   1.33875561,  -1.53033066
    677,    1.1829592,  -1.31415403
    678,   1.04494452,  -1.12265027
    679,  0.922681749, -0.953003407
    680,  0.814373314, -0.802718937
    681,  0.718426406, -0.669586897
    682,  0.633430302,  -0.55164969
    683,  0.558135033, -0.447172999
    684,  0.491433442, -0.354620546
    685,  0.432344735, -0.272631437
    686,   3.93032765,  -5.27368546
    687,   3.47882581,  -4.63026762
    688,   3.07885551,  -4.06028557
    689,   2.72453475,  -3.55535674
    690,   2.41065407,   -3.1080575
    691,   2.13259745,  -2.71180964
    692,   1.88627636,  -2.36078691
    693,   1.66806877,  -2.04982758
    694,   1.47476578,  -1.77435911
    695,   1.30352509,  -1.53033066
    696,   1.15182877,  -1.31415403
    697,   1.01744592,  -1.12265027
    698,  0.898400664, -0.953003407
    699,  0.792942405, -0.802718937
    700,  0.699520469, -0.669586897
    701,  0.616761088,  -0.55164969
    702,  0.543447256, -0.447172999
    703,  0.478500992, -0.354620546
    704,  0.420967221, -0.272631437
    705,   3.82410264,  -5.27368546
    706,   3.38480353,  -4.63026762
    707,   2.99564314,  -4.06028557
    708,   2.65089869,  -3.55535674
    709,   2.34550118,   -3.1080575
    710,   2.07495975,  -2.71180964
    711,   1.83529592,  -2.36078691
    712,   1.62298584,  -2.04982758
    713,    1.4349072,  -1.77435911
    714,   1.26829469,  -1.53033066
    715,   1.12069821,  -1.31415403
    716,  0.989947379,  -1.12265027
    717,   0.87411958, -0.953003407
    718,  0.771511555, -0.802718937
    719,  0.680614531, -0.669586897
    720,  0.600091875,  -0.55164969
    721,   0.52875948, -0.447172999
    722,  0.465568513, -0.354620546
    723,  0.409589738, -0.272631437
    724,   3.71787763,  -5.27368546
    725,   3.29078126,  -4.63026762
    726,   2.91243076,  -4.06028557
    727,   2.57726264,  -3.55535674
    728,   2.28034854,   -3.1080575
    729,   2.01732183,  -2.71180964
    730,   1.78431547,  -2.36078691
    731,   1.57790279,  -2.04982758
    732,   1.39504874,  -1.77435911
    733,   1.23306429,  -1.53033066
    734,   1.08956778,  -1.31415403
    735,  0.962448835,  -1.12265027
    736,  0.849838495, -0.953003407
    737,  0.750080705, -0.802718937
    738,  0.661708534, -0.669586897
    739,  0.583422601,  -0.55164969
    740,  0.514071703, -0.447172999
    741,  0.452636063, -0.354620546
    742,  0.398212254, -0.272631437
    743,   3.61165237,  -5.27368546
    744,   3.19675899,  -4.63026762
    745,   2.82921839,  -4.06028557
    746,   2.50362659,  -3.55535674
    747,   2.21519566,   -3.1080575
    748,   1.95968413,  -2.71180964
    749,   1.73333502,  -2.36078691
    750,   1.53281987,  -2.04982758
    751,   1.35519016,  -1.77435911
    752,    1.1978339,  -1.53033066
    753,   1.05843723,  -1.31415403
    754,  0.934950352,  -1.12265027
    755,  0.825557351, -0.953003407
    756,  0.728649795, -0.802718937
    757,  0.642802596, -0.669586897
    758,  0.566753387,  -0.55164969
    759,  0.499383956, -0.447172999
    760,  0.439703614, -0.354620546
    761,   0.38683477, -0.272631437
    762,   3.50542736,  -5.27368546
    763,   3.10273647,  -4.63026762
    764,   2.74600625,  -4.06028557
    765,   2.42999053,  -3.55535674
    766,   2.15004277,   -3.1080575
    767,   1.90204644,  -2.71180964
    768,   1.68235457,  -2.36078691
    769,   1.48773694,  -2.04982758
    770,    1.3153317,  -1.77435911
    771,    1.1626035,  -1.53033066
    772,   1.02730668,  -1.31415403
    773,  0.907451808,  -1.12265027
    774,  0.801276267, -0.953003407
    775,  0.707218945, -0.802718937
    776,  0.623896658, -0.669586897
    777,  0.550084174,  -0.55164969
    778,  0.484696209, -0.447172999
    779,  0.426771134, -0.354620546
    780,  0.375457257, -0.272631437
    781,   3.39920235,  -5.27368546
    782,    3.0087142,  -4.63026762
    783,   2.66279387,  -4.06028557
    784,   2.35635448,  -3.55535674
    785,   2.08488989,   -3.1080575
    786,   1.84440863,  -2.71180964
    787,   1.63137412,  -2.36078691
    788,   1.44265401,  -2.04982758
    789,   1.27547312,  -1.77435911
    790,    1.1273731,  -1.53033066
    791,  0.996176183,  -1.31415403
    792,  0.879953265,  -1.12265027
    793,  0.776995182, -0.953003407
    794,  0.685788035, -0.802718937
    795,  0.604990661, -0.669586897
    796,   0.53341496,  -0.55164969
    797,  0.470008433, -0.447172999
    798,  0.413838685, -0.354620546
    799,  0.364079773, -0.272631437
    800,   3.29297733,  -5.27368546
    801,   2.91469193,  -4.63026762
    802,    2.5795815,  -4.06028557
    803,   2.28271842,  -3.55535674
    804,   2.01973724,   -3.1080575
    805,   1.78677082,  -2.71180964
    806,   1.58039379,  -2.36078691
    807,   1.39757109,  -2.04982758
    808,   1.23561454,  -1.77435911
    809,    1.0921427,  -1.53033066
    810,  0.965045691,  -1.31415403
    811,  0.852454722,  -1.12265027
    812,  0.752714097, -0.953003407
    813,  0.664357185, -0.802718937
    814,  0.586084723, -0.669586897
    815,  0.516745746,  -0.55164969
    816,  0.455320656, -0.447172999
    817,  0.400906235, -0.354620546
    818,   0.35270229, -0.272631437
    819,   3.18675208,  -5.27368546
    820,   2.82066965,  -4.63026762
    821,   2.49636936,  -4.06028557
    822,   2.20908237,  -3.55535674
    823,   1.95458436,   -3.1080575
    824,   1.72913313,  -2.71180964
    825,   1.52941334,  -2.36078691
    826,   1.35248816,  -2.04982758
    827,   1.19575608,  -1.77435911
    828,    1.0569123,  -1.53033066
    829,  0.933915198,  -1.31415403
    830,  0.824956179,  -1.12265027
    831,  0.728432953, -0.953003407
    832,  0.642926276, -0.802718937
    833,  0.567178786, -0.669586897
    834,  0.500076532,  -0.55164969
    835,   0.44063291, -0.447172999
    836,  0.387973756, -0.354620546
    837,  0.341324776, -0.272631437
    838,   3.08052707,  -5.27368546
    839,   2.72664738,  -4.63026762
    840,   2.41315699,  -4.06028557
    841,   2.13544631,  -3.55535674
    842,    1.8894316,   -3.1080575
    843,   1.67149532,  -2.71180964
    844,   1.47843289,  -2.36078691
    845,   1.30740523,  -2.04982758
    846,    1.1558975,  -1.77435911
    847,    1.0216819,  -1.53033066
    848,  0.902784705,  -1.31415403
    849,  0.797457635,  -1.12265027
    850,  0.704151869, -0.953003407
    851,  0.621495426, -0.802718937
    852,  0.548272789, -0.669586897
    853,  0.483407319,  -0.55164969
    854,  0.425945133, -0.447172999
    855,  0.375041306, -0.354620546
    856,  0.329947293, -0.272631437
    857,   2.97430205,  -5.27368546
    858,   2.63262486,  -4.63026762
    859,   2.32994461,  -4.06028557
    860,   2.06181026,  -3.55535674
    861,   1.82427871,   -3.1080575
    862,   1.61385751,  -2.71180964
    863,   1.42745245,  -2.36078691
    864,   1.26232231,  -2.04982758
    865,   1.11603892,  -1.77435911
    866,  0.986451447,  -1.53033066
    867,  0.871654212,  -1.31415403
    868,  0.769959092,  -1.12265027
    869,  0.679870784, -0.953003407
    870,  0.600064516, -0.802718937
    871,  0.529366851, -0.669586897
    872,  0.466738105,  -0.55164969
    873,  0.411257386, -0.447172999
    874,  0.362108856, -0.354620546
    875,  0.318569809, -0.272631437
    876,   2.86807704,  -5.27368546
    877,   2.53860259,  -4.63026762
    878,   2.24673223,  -4.06028557
    879,   1.98817408,  -3.55535674
    880,   1.75912595,   -3.1080575
    881,   1.55621982,  -2.71180964
    882,     1.376472,  -2.36078691
    883,   1.21723938,  -2.04982758
    884,   1.07618046,  -1.77435911
    885,  0.951221049,  -1.53033066
    886,   0.84052366,  -1.31415403
    887,  0.742460549,  -1.12265027
    888,    0.6555897, -0.953003407
    889,  0.578633666, -0.802718937
    890,  0.510460913, -0.669586897
    891,  0.450068891,  -0.55164969
    892,   0.39656961, -0.447172999
    893,  0.349176377, -0.354620546
    894,  0.307192296, -0.272631437
    895,   2.76185179,  -5.27368546
    896,   2.44458032,  -4.63026762
    897,    2.1635201,  -4.06028557
    898,   1.91453803,  -3.55535674
    899,   1.69397306,   -3.1080575
    900,   1.49858201,  -2.71180964
    901,   1.32549155,  -2.36078691
    902,   1.17215645,  -2.04982758
    903,   1.03632188,  -1.77435911
    904,  0.915990651,  -1.53033066
    905,  0.809393167,  -1.31415403
    906,  0.714962006,  -1.12265027
    907,  0.631308556, -0.953003407
    908,  0.557202816, -0.802718937
    909,  0.491554916, -0.669586897
    910,  0.433399677,  -0.55164969
    911,  0.381881863, -0.447172999
    912,  0.336243927, -0.354620546
    913,  0.295814812, -0.272631437
    914,   2.65562677,  -5.27368546
    915,   2.35055804,  -4.63026762
    916,   2.08030772,  -4.06028557
    917,   1.84090197,  -3.55535674
    918,    1.6288203,   -3.1080575
    919,   1.44094419,  -2.71180964
    920,    1.2745111,  -2.36078691
    921,   1.12707341,  -2.04982758
    922,  0.996463358,  -1.77435911
    923,  0.880760252,  -1.53033066
    924,  0.778262675,  -1.31415403
    925,  0.687463462,  -1.12265027
    926,  0.607027471, -0.953003407
    927,  0.535771906, -0.802718937
    928,  0.472648978, -0.669586897
    929,  0.416730464,  -0.55164969
    930,  0.367194086, -0.447172999
    931,  0.323311478, -0.354620546
    932,  0.284437329, -0.272631437
    933,   2.54940176,  -5.27368546
    934,   2.25653577,  -4.63026762
    935,   1.99709535,  -4.06028557
    936,    1.7672658,  -3.55535674
    937,   1.56366754,   -3.1080575
    938,    1.3833065,  -2.71180964
    939,   1.22353065,  -2.36078691
    940,   1.08199048,  -2.04982758
    941,  0.956604838,  -1.77435911
    942,  0.845529795,  -1.53033066
    943,  0.747132182,  -1.31415403
    944,  0.659964919,  -1.12265027
    945,  0.582746387, -0.953003407
    946,  0.514341056, -0.802718937
    947,  0.453743011, -0.669586897
    948,   0.40006122,  -0.55164969
    949,   0.35250634, -0.447172999
    950,  0.310379028, -0.354620546
    951,  0.273059815, -0.272631437
    952,   2.44317675,  -5.27368546
    953,   2.16251326,  -4.63026762
    954,   1.91388309,  -4.06028557
    955,   1.69362974,  -3.55535674
    956,   1.49851465,   -3.1080575
    957,   1.32566869,  -2.71180964
    958,    1.1725502,  -2.36078691
    959,   1.03690755,  -2.04982758
    960,  0.916746318,  -1.77435911
    961,  0.810299397,  -1.53033066
    962,   0.71600163,  -1.31415403
    963,  0.632466376,  -1.12265027
    964,  0.558465302, -0.953003407
    965,  0.492910147, -0.802718937
    966,  0.434837043, -0.669586897
    967,  0.383392006,  -0.55164969
    968,  0.337818563, -0.447172999
    969,  0.297446549, -0.354620546
    970,  0.261682332, -0.272631437
    971,   2.33695149,  -5.27368546
    972,   2.06849098,  -4.63026762
    973,   1.83067083,  -4.06028557
    974,   1.61999369,  -3.55535674
    975,   1.43336189,   -3.1080575
    976,   1.26803088,  -2.71180964
    977,   1.12156975,  -2.36078691
    978,  0.991824627,  -2.04982758
    979,  0.876887739,  -1.77435911
    980,  0.775068998,  -1.53033066
    981,  0.684871137,  -1.31415403
    982,  0.604967833,  -1.12265027
    983,  0.534184158, -0.953003407
    984,  0.471479297, -0.802718937
    985,  0.415931106, -0.669586897
    986,  0.366722792,  -0.55164969
    987,  0.323130786, -0.447172999
    988,  0.284514099, -0.354620546
    989,  0.250304848, -0.272631437
    990,   2.23072648,  -5.27368546
    991,   1.97446871,  -4.63026762
    992,   1.74745846,  -4.06028557
    993,   1.54635763,  -3.55535674
    994,     1.368209,   -3.1080575
    995,   1.21039319,  -2.71180964
    996,    1.0705893,  -2.36078691
    997,    0.9467417,  -2.04982758
    998,  0.837029219,  -1.77435911
    999,    0.7398386,  -1.53033066
   1000,  0.653740644,  -1.31415403
   1001,  0.577469289,  -1.12265027
   1002,  0.509903073, -0.953003407
   1003,  0.450048417, -0.802718937
   1004,  0.397025138, -0.669586897
   1005,  0.350053579,  -0.55164969
   1006,   0.30844304, -0.447172999
   1007,   0.27158165, -0.354620546
   1008,  0.238927349, -0.272631437
   1009,   2.12450147,  -5.27368546
   1010,   1.88044643,  -4.63026762
   1011,    1.6642462,  -4.06028557
   1012,   1.47272158,  -3.55535674
   1013,   1.30305624,   -3.1080575
   1014,   1.15275538,  -2.71180964
   1015,   1.01960886,  -2.36078691
   1016,  0.901658773,  -2.04982758
   1017,  0.797170699,  -1.77435911
   1018,  0.704608202,  -1.53033066
   1019,  0.622610152,  -1.31415403
   1020,  0.549970806,  -1.12265027
   1021,  0.485621989, -0.953003407
   1022,  0.428617537, -0.802718937
   1023,  0.378119171, -0.669586897
   1024,  0.333384365,  -0.55164969
   1025,  0.293755263, -0.447172999
   1026,   0.25864917, -0.354620546
   1027,  0.227549851, -0.272631437
   1028,   2.01827645,  -5.27368546
   1029,   1.78642404,  -4.63026762
   1030,   1.58103383,  -4.06028557
   1031,   1.39908552,  -3.55535674
   1032,   1.23790348,   -3.1080575
   1033,   1.09511757,  -2.71180964
   1034,  0.968628407,  -2.36078691
   1035,  0.856575847,  -2.04982758
   1036,  0.757312179,  -1.77435911
   1037,  0.669377804,  -1.53033066
   1038,  0.591479599,  -1.31415403
   1039,  0.522472262,  -1.12265027
   1040,  0.461340874, -0.953003407
   1041,  0.407186657, -0.802718937
   1042,  0.359213203, -0.669586897
   1043,  0.316715151,  -0.55164969
   1044,  0.279067516, -0.447172999
   1045,  0.245716721, -0.354620546
   1046,  0.216172367, -0.272631437
   1047,   1.91205132,  -5.27368546
   1048,   1.69240177,  -4.63026762
   1049,   1.49782157,  -4.06028557
   1050,   1.32544935,  -3.55535674
   1051,   1.17275059,   -3.1080575
   1052,   1.03747988,  -2.71180964
   1053,  0.917647958,  -2.36078691
   1054,   0.81149292,  -2.04982758
   1055,  0.717453599,  -1.77435911
   1056,  0.634147346,  -1.53033066
   1057,  0.560349107,  -1.31415403
   1058,  0.494973689,  -1.12265027
   1059,   0.43705979, -0.953003407
   1060,  0.385755777, -0.802718937
   1061,  0.340307266, -0.669586897
   1062,  0.300045937,  -0.55164969
   1063,   0.26437974, -0.447172999
   1064,  0.232784256, -0.354620546
   1065,  0.204794869, -0.272631437
   1066,   1.80582619,  -5.27368546
   1067,   1.59837949,  -4.63026762
   1068,   1.41460919,  -4.06028557
   1069,   1.25181329,  -3.55535674
   1070,   1.10759783,   -3.1080575
   1071,  0.979842067,  -2.71180964
   1072,  0.866667509,  -2.36078691
   1073,  0.766409934,  -2.04982758
   1074,  0.677595079,  -1.77435911
   1075,  0.598916948,  -1.53033066
   1076,  0.529218614,  -1.31415403
   1077,  0.467475176,  -1.12265027
   1078,  0.412778676, -0.953003407
   1079,  0.364324898, -0.802718937
   1080,  0.321401298, -0.669586897
   1081,  0.283376694,  -0.55164969
   1082,  0.249691978, -0.447172999
   1083,  0.219851807, -0.354620546
   1084,  0.193417385, -0.272631437
   1085,   1.69960117,  -5.27368546
   1086,    1.5043571,  -4.63026762
   1087,   1.33139694,  -4.06028557
   1088,   1.17817724,  -3.55535674
   1089,   1.04244494,   -3.1080575
   1090,  0.922204316,  -2.71180964
   1091,   0.81568706,  -2.36078691
   1092,  0.721327007,  -2.04982758
   1093,  0.637736559,  -1.77435911
   1094,   0.56368655,  -1.53033066
   1095,  0.498088092,  -1.31415403
   1096,  0.439976633,  -1.12265027
   1097,  0.388497591, -0.953003407
   1098,  0.342894018, -0.802718937
   1099,  0.302495331, -0.669586897
   1100,   0.26670748,  -0.55164969
   1101,  0.235004216, -0.447172999
   1102,  0.206919342, -0.354620546
   1103,  0.182039887, -0.272631437
   1104,   1.59337604,  -5.27368546
   1105,   1.41033483,  -4.63026762
   1106,   1.24818468,  -4.06028557
   1107,   1.10454118,  -3.55535674
   1108,   0.97729218,   -3.1080575
   1109,  0.864566565,  -2.71180964
   1110,  0.764706671,  -2.36078691
   1111,   0.67624408,  -2.04982758
   1112,  0.597878039,  -1.77435911
   1113,  0.528456151,  -1.53033066
   1114,  0.466957599,  -1.31415403
   1115,  0.412478089,  -1.12265027
   1116,  0.364216477, -0.953003407
   1117,  0.321463138, -0.802718937
   1118,  0.283589393, -0.669586897
   1119,  0.250038266,  -0.55164969
   1120,  0.220316455, -0.447172999
   1121,  0.193986878, -0.354620546
   1122,  0.170662388, -0.272631437
   1123,   1.48715103,  -5.27368546
   1124,   1.31631243,  -4.63026762
   1125,   1.16497231,  -4.06028557
   1126,   1.03090513,  -3.55535674
   1127,  0.912139356,   -3.1080575
   1128,  0.806928754,  -2.71180964
   1129,  0.713726223,  -2.36078691
   1130,  0.631161153,  -2.04982758
   1131,  0.558019459,  -1.77435911
   1132,  0.493225724,  -1.53033066
   1133,  0.435827106,  -1.31415403
   1134,  0.384979546,  -1.12265027
   1135,  0.339935392, -0.953003407
   1136,  0.300032258, -0.802718937
   1137,  0.264683425, -0.669586897
   1138,  0.233369052,  -0.55164969
   1139,  0.205628693, -0.447172999
   1140,  0.181054428, -0.354620546
   1141,  0.159284905, -0.272631437
   1142,   1.38092589,  -5.27368546
   1143,   1.22229016,  -4.63026762
   1144,   1.08176005,  -4.06028557
   1145,  0.957269013,  -3.55535674
   1146,  0.846986532,   -3.1080575
   1147,  0.749291003,  -2.71180964
   1148,  0.662745774,  -2.36078691
   1149,  0.586078227,  -2.04982758
   1150,  0.518160939,  -1.77435911
   1151,  0.457995325,  -1.53033066
   1152,  0.404696584,  -1.31415403
   1153,  0.357481003,  -1.12265027
   1154,  0.315654278, -0.953003407
   1155,  0.278601408, -0.802718937
   1156,  0.245777458, -0.669586897
   1157,  0.216699839,  -0.55164969
   1158,  0.190940931, -0.447172999
   1159,  0.168121964, -0.354620546
   1160,  0.147907406, -0.272631437
   1161,   1.27470088,  -5.27368546
   1162,   1.12826788,  -4.63026762
   1163,  0.998547673,  -4.06028557
   1164,  0.883632898,  -3.55535674
   1165,  0.781833768,   -3.1080575
   1166,  0.691653252,  -2.71180964
   1167,  0.611765325,  -2.36078691
   1168,   0.54099524,  -2.04982758
   1169,  0.478302419,  -1.77435911
   1170,  0.422764897,  -1.53033066
   1171,  0.373566091,  -1.31415403
   1172,   0.32998246,  -1.12265027
   1173,  0.291373193, -0.953003407
   1174,  0.257170528, -0.802718937
   1175,  0.226871505, -0.669586897
   1176,   0.20003061,  -0.55164969
   1177,   0.17625317, -0.447172999
   1178,  0.155189514, -0.354620546
   1179,  0.136529908, -0.272631437
   1180,   1.16847575,  -5.27368546
   1181,   1.03424549,  -4.63026762
   1182,  0.915335417,  -4.06028557
   1183,  0.809996843,  -3.55535674
   1184,  0.716680944,   -3.1080575
   1185,  0.634015441,  -2.71180964
   1186,  0.560784876,  -2.36078691
   1187,  0.495912313,  -2.04982758
   1188,  0.438443869,  -1.77435911
   1189,  0.387534499,  -1.53033066
   1190,  0.342435569,  -1.31415403
   1191,  0.302483916,  -1.12265027
   1192,  0.267092079, -0.953003407
   1193,  0.235739648, -0.802718937
   1194,  0.207965553, -0.669586897
   1195,  0.183361396,  -0.55164969
   1196,  0.161565393, -0.447172999
   1197,   0.14225705, -0.354620546
   1198,  0.125152424, -0.272631437
   1199,   1.06225073,  -5.27368546
   1200,  0.940223217,  -4.63026762
   1201,  0.832123101,  -4.06028557
   1202,  0.736360788,  -3.55535674
   1203,   0.65152812,   -3.1080575
   1204,   0.57637769,  -2.71180964
   1205,  0.509804428,  -2.36078691
   1206,  0.450829387,  -2.04982758
   1207,  0.398585349,  -1.77435911
   1208,  0.352304101,  -1.53033066
   1209,  0.311305076,  -1.31415403
   1210,  0.274985403,  -1.12265027
   1211,  0.242810994, -0.953003407
   1212,  0.214308769, -0.802718937
   1213,  0.189059585, -0.669586897
   1214,  0.166692182,  -0.55164969
   1215,  0.146877632, -0.447172999
   1216,  0.129324585, -0.354620546
   1217,  0.113774925, -0.272631437
   1218,   0.95602566,  -5.27368546
   1219,  0.846200883,  -4.63026762
   1220,  0.748910785,  -4.06028557
   1221,  0.662724674,  -3.55535674
   1222,  0.586375296,   -3.1080575
   1223,  0.518739939,  -2.71180964
   1224,  0.458823979,  -2.36078691
   1225,   0.40574646,  -2.04982758
   1226,  0.358726799,  -1.77435911
   1227,  0.317073673,  -1.53033066
   1228,  0.280174553,  -1.31415403
   1229,  0.247486845,  -1.12265027
   1230,  0.218529895, -0.953003407
   1231,  0.192877889, -0.802718937
   1232,  0.170153633, -0.669586897
   1233,  0.150022969,  -0.55164969
   1234,   0.13218987, -0.447172999
   1235,  0.116392128, -0.354620546
   1236,  0.102397434, -0.272631437
   1237,  0.849800587,  -5.27368546
   1238,   0.75217855,  -4.63026762
   1239,  0.665698469,  -4.06028557
   1240,  0.589088619,  -3.55535674
   1241,  0.521222472,   -3.1080575
   1242,  0.461102158,  -2.71180964
   1243,   0.40784353,  -2.36078691
   1244,  0.360663503,  -2.04982758
   1245,  0.318868279,  -1.77435911
   1246,  0.281843275,  -1.53033066
   1247,  0.249044046,  -1.31415403
   1248,  0.219988316,  -1.12265027
   1249,  0.194248796, -0.953003407
   1250,  0.171447009, -0.802718937
   1251,  0.151247665, -0.669586897
   1252,   0.13335374,  -0.55164969
   1253,  0.117502108, -0.447172999
   1254,  0.103459671, -0.354620546
   1255, 0.0910199434, -0.272631437
   1256,  0.743575513,  -5.27368546
   1257,  0.658156216,  -4.63026762
   1258,  0.582486153,  -4.06028557
   1259,  0.515452564,  -3.55535674
   1260,  0.456069678,   -3.1080575
   1261,  0.403464377,  -2.71180964
   1262,  0.356863111,  -2.36078691
   1263,  0.315580577,  -2.04982758
   1264,   0.27900973,  -1.77435911
   1265,  0.246612862,  -1.53033066
   1266,  0.217913553,  -1.31415403
   1267,  0.192489773,  -1.12265027
   1268,  0.169967696, -0.953003407
   1269,  0.150016129, -0.802718937
   1270,  0.132341713, -0.669586897
   1271,  0.116684526,  -0.55164969
   1272,  0.102814347, -0.447172999
   1273, 0.0905272141, -0.354620546
   1274, 0.0796424523, -0.272631437
   1275,   0.63735044,  -5.27368546
   1276,  0.564133942,  -4.63026762
   1277,  0.499273837,  -4.06028557
   1278,  0.441816449,  -3.55535674
   1279,  0.390916884,   -3.1080575
   1280,  0.345826626,  -2.71180964
   1281,  0.305882663,  -2.36078691
   1282,   0.27049762,  -2.04982758
   1283,   0.23915121,  -1.77435911
   1284,  0.211382449,  -1.53033066
   1285,  0.186783046,  -1.31415403
   1286,   0.16499123,  -1.12265027
   1287,  0.145686597, -0.953003407
   1288,  0.128585264, -0.802718937
   1289,  0.113435753, -0.669586897
   1290,  0.100015305,  -0.55164969
   1291, 0.0881265849, -0.447172999
   1292, 0.0775947571, -0.354620546
   1293, 0.0682649538, -0.272631437
   1294,  0.531125367,  -5.27368546
   1295,  0.470111609,  -4.63026762
   1296,   0.41606155,  -4.06028557
   1297,  0.368180394,  -3.55535674
   1298,   0.32576406,   -3.1080575
   1299,  0.288188845,  -2.71180964
   1300,  0.254902214,  -2.36078691
   1301,  0.225414693,  -2.04982758
   1302,  0.199292675,  -1.77435911
   1303,   0.17615205,  -1.53033066
   1304,  0.155652538,  -1.31415403
   1305,  0.137492701,  -1.12265027
   1306,  0.121405497, -0.953003407
   1307,  0.107154384, -0.802718937
   1308, 0.0945297927, -0.669586897
   1309, 0.0833460912,  -0.55164969
   1310, 0.0734388158, -0.447172999
   1311, 0.0646622926, -0.354620546
   1312, 0.0568874627, -0.272631437
   1313,  0.424900293,  -5.27368546
   1314,  0.376089275,  -4.63026762
   1315,  0.332849234,  -4.06028557
   1316,  0.294544309,  -3.55535674
   1317,  0.260611236,   -3.1080575
   1318,  0.230551079,  -2.71180964
   1319,  0.203921765,  -2.36078691
   1320,  0.180331752,  -2.04982758
   1321,   0.15943414,  -1.77435911
   1322,  0.140921637,  -1.53033066
   1323,  0.124522023,  -1.31415403
   1324,  0.109994158,  -1.12265027
   1325, 0.0971243978, -0.953003407
   1326, 0.0857235044, -0.802718937
   1327, 0.0756238326, -0.669586897
   1328,   0.06667687,  -0.55164969
   1329, 0.0587510541, -0.447172999
   1330, 0.0517298356, -0.354620546
   1331, 0.0455099717, -0.272631437
   1332,   0.31867522,  -5.27368546
   1333,  0.282066971,  -4.63026762
   1334,  0.249636918,  -4.06028557
   1335,  0.220908225,  -3.55535674
   1336,  0.195458442,   -3.1080575
   1337,  0.172913313,  -2.71180964
   1338,  0.152941331,  -2.36078691
   1339,   0.13524881,  -2.04982758
   1340,  0.119575605,  -1.77435911
   1341,  0.105691224,  -1.53033066
   1342, 0.0933915228,  -1.31415403
   1343, 0.0824956149,  -1.12265027
   1344, 0.0728432983, -0.953003407
   1345,  0.064292632, -0.802718937
   1346, 0.0567178763, -0.669586897
   1347, 0.0500076525,  -0.55164969
   1348, 0.0440632924, -0.447172999
   1349, 0.0387973785, -0.354620546
   1350, 0.0341324769, -0.272631437
   1351,  0.212450147,  -5.27368546
   1352,  0.188044637,  -4.63026762
   1353,  0.166424617,  -4.06028557
   1354,  0.147272155,  -3.55535674
   1355,  0.130305618,   -3.1080575
   1356,  0.115275539,  -2.71180964
   1357,  0.101960883,  -2.36078691
   1358, 0.0901658759,  -2.04982758
   1359, 0.0797170699,  -1.77435911
   1360, 0.0704608187,  -1.53033066
   1361, 0.0622610115,  -1.31415403
   1362, 0.0549970791,  -1.12265027
   1363, 0.0485621989, -0.953003407
   1364, 0.0428617522, -0.802718937
   1365, 0.0378119163, -0.669586897
   1366,  0.033338435,  -0.55164969
   1367, 0.0293755271, -0.447172999
   1368, 0.0258649178, -0.354620546
   1369, 0.0227549858, -0.272631437
   1370,  0.106225073,  -5.27368546
   1371, 0.0940223187,  -4.63026762
   1372, 0.0832123086,  -4.06028557
   1373, 0.0736360773,  -3.55535674
   1374,  0.065152809,   -3.1080575
   1375, 0.0576377697,  -2.71180964
   1376, 0.0509804413,  -2.36078691
   1377, 0.0450829379,  -2.04982758
   1378, 0.0398585349,  -1.77435911
   1379, 0.0352304094,  -1.53033066
   1380, 0.0311305057,  -1.31415403
   1381, 0.0274985395,  -1.12265027
   1382, 0.0242810994, -0.953003407
   1383, 0.0214308761, -0.802718937
   1384, 0.0189059582, -0.669586897
   1385, 0.0166692175,  -0.55164969
   1386, 0.0146877635, -0.447172999
   1387, 0.0129324589, -0.354620546
   1388, 0.0113774929, -0.272631437
   1389,           0.,  -5.27368546
   1390,           0.,  -4.63026762
   1391,           0.,  -4.06028557
   1392,           0.,  -3.55535674
   1393,           0.,   -3.1080575
   1394,           0.,  -2.71180964
   1395,           0.,  -2.36078691
   1396,           0.,  -2.04982758
   1397,           0.,  -1.77435911
   1398,           0.,  -1.53033066
   1399,           0.,  -1.31415403
   1400,           0.,  -1.12265027
   1401,           0., -0.953003407
   1402,           0., -0.802718937
   1403,           0., -0.669586897
   1404,           0.,  -0.55164969
   1405,           0., -0.447172999
   1406,           0., -0.354620546
   1407,           0., -0.272631437
   1408, -0.106225073,  -5.27368546
   1409, -0.0940223187,  -4.63026762
   1410, -0.0832123086,  -4.06028557
   1411, -0.0736360773,  -3.55535674
   1412, -0.065152809,   -3.1080575
   1413, -0.0576377697,  -2.71180964
   1414, -0.0509804413,  -2.36078691
   1415, -0.0450829379,  -2.04982758
   1416, -0.0398585349,  -1.77435911
   1417, -0.0352304094,  -1.53033066
   1418, -0.0311305057,  -1.31415403
   1419, -0.0274985395,  -1.12265027
   1420, -0.0242810994, -0.953003407
   1421, -0.0214308761, -0.802718937
   1422, -0.0189059582, -0.669586897
   1423, -0.0166692175,  -0.55164969
   1424, -0.0146877635, -0.447172999
   1425, -0.0129324589, -0.354620546
   1426, -0.0113774929, -0.272631437
   1427, -0.212450147,  -5.27368546
   1428, -0.188044637,  -4.63026762
   1429, -0.166424617,  -4.06028557
   1430, -0.147272155,  -3.55535674
   1431, -0.130305618,   -3.1080575
   1432, -0.115275539,  -2.71180964
   1433, -0.101960883,  -2.36078691
   1434, -0.0901658759,  -2.04982758
   1435, -0.0797170699,  -1.77435911
   1436, -0.0704608187,  -1.53033066
   1437, -0.0622610115,  -1.31415403
   1438, -0.0549970791,  -1.12265027
   1439, -0.0485621989, -0.953003407
   1440, -0.0428617522, -0.802718937
   1441, -0.0378119163, -0.669586897
   1442, -0.033338435,  -0.55164969
   1443, -0.0293755271, -0.447172999
   1444, -0.0258649178, -0.354620546
   1445, -0.0227549858, -0.272631437
   1446,  -0.31867522,  -5.27368546
   1447, -0.282066971,  -4.63026762
   1448, -0.249636918,  -4.06028557
   1449, -0.220908225,  -3.55535674
   1450, -0.195458442,   -3.1080575
   1451, -0.172913313,  -2.71180964
   1452, -0.152941331,  -2.36078691
   1453,  -0.13524881,  -2.04982758
   1454, -0.119575605,  -1.77435911
   1455, -0.105691224,  -1.53033066
   1456, -0.0933915228,  -1.31415403
   1457, -0.0824956149,  -1.12265027
   1458, -0.0728432983, -0.953003407
   1459, -0.064292632, -0.802718937
   1460, -0.0567178763, -0.669586897
   1461, -0.0500076525,  -0.55164969
   1462, -0.0440632924, -0.447172999
   1463, -0.0387973785, -0.354620546
   1464, -0.0341324769, -0.272631437
   1465, -0.424900293,  -5.27368546
   1466, -0.376089275,  -4.63026762
   1467, -0.332849234,  -4.06028557
   1468, -0.294544309,  -3.55535674
   1469, -0.260611236,   -3.1080575
   1470, -0.230551079,  -2.71180964
   1471, -0.203921765,  -2.36078691
   1472, -0.180331752,  -2.04982758
   1473,  -0.15943414,  -1.77435911
   1474, -0.140921637,  -1.53033066
   1475, -0.124522023,  -1.31415403
   1476, -0.109994158,  -1.12265027
   1477, -0.0971243978, -0.953003407
   1478, -0.0857235044, -0.802718937
   1479, -0.0756238326, -0.669586897
   1480,  -0.06667687,  -0.55164969
   1481, -0.0587510541, -0.447172999
   1482, -0.0517298356, -0.354620546
   1483, -0.0455099717, -0.272631437
   1484, -0.531125367,  -5.27368546
   1485, -0.470111609,  -4.63026762
   1486,  -0.41606155,  -4.06028557
   1487, -0.368180394,  -3.55535674
   1488,  -0.32576406,   -3.1080575
   1489, -0.288188845,  -2.71180964
   1490, -0.254902214,  -2.36078691
   1491, -0.225414693,  -2.04982758
   1492, -0.199292675,  -1.77435911
   1493,  -0.17615205,  -1.53033066
   1494, -0.155652538,  -1.31415403
   1495, -0.137492701,  -1.12265027
   1496, -0.121405497, -0.953003407
   1497, -0.107154384, -0.802718937
   1498, -0.0945297927, -0.669586897
   1499, -0.0833460912,  -0.55164969
   1500, -0.0734388158, -0.447172999
   1501, -0.0646622926, -0.354620546
   1502, -0.0568874627, -0.272631437
   1503,  -0.63735044,  -5.27368546
   1504, -0.564133942,  -4.63026762
   1505, -0.499273837,  -4.06028557
   1506, -0.441816449,  -3.55535674
   1507, -0.390916884,   -3.1080575
   1508, -0.345826626,  -2.71180964
   1509, -0.305882663,  -2.36078691
   1510,  -0.27049762,  -2.04982758
   1511,  -0.23915121,  -1.77435911
   1512, -0.211382449,  -1.53033066
   1513, -0.186783046,  -1.31415403
   1514,  -0.16499123,  -1.12265027
   1515, -0.145686597, -0.953003407
   1516, -0.128585264, -0.802718937
   1517, -0.113435753, -0.669586897
   1518, -0.100015305,  -0.55164969
   1519, -0.0881265849, -0.447172999
   1520, -0.0775947571, -0.354620546
   1521, -0.0682649538, -0.272631437
   1522, -0.743575513,  -5.27368546
   1523, -0.658156216,  -4.63026762
   1524, -0.582486153,  -4.06028557
   1525, -0.515452564,  -3.55535674
   1526, -0.456069678,   -3.1080575
   1527, -0.403464377,  -2.71180964
   1528, -0.356863111,  -2.36078691
   1529, -0.315580577,  -2.04982758
   1530,  -0.27900973,  -1.77435911
   1531, -0.246612862,  -1.53033066
   1532, -0.217913553,  -1.31415403
   1533, -0.192489773,  -1.12265027
   1534, -0.169967696, -0.953003407
   1535, -0.150016129, -0.802718937
   1536, -0.132341713, -0.669586897
   1537, -0.116684526,  -0.55164969
   1538, -0.102814347, -0.447172999
   1539, -0.0905272141, -0.354620546
   1540, -0.0796424523, -0.272631437
   1541, -0.849800587,  -5.27368546
   1542,  -0.75217855,  -4.63026762
   1543, -0.665698469,  -4.06028557
   1544, -0.589088619,  -3.55535674
   1545, -0.521222472,   -3.1080575
   1546, -0.461102158,  -2.71180964
   1547,  -0.40784353,  -2.36078691
   1548, -0.360663503,  -2.04982758
   1549, -0.318868279,  -1.77435911
   1550, -0.281843275,  -1.53033066
   1551, -0.249044046,  -1.31415403
   1552, -0.219988316,  -1.12265027
   1553, -0.194248796, -0.953003407
   1554, -0.171447009, -0.802718937
   1555, -0.151247665, -0.669586897
   1556,  -0.13335374,  -0.55164969
   1557, -0.117502108, -0.447172999
   1558, -0.103459671, -0.354620546
   1559, -0.0910199434, -0.272631437
   1560,  -0.95602566,  -5.27368546
   1561, -0.846200883,  -4.63026762
   1562, -0.748910785,  -4.06028557
   1563, -0.662724674,  -3.55535674
   1564, -0.586375296,   -3.1080575
   1565, -0.518739939,  -2.71180964
   1566, -0.458823979,  -2.36078691
   1567,  -0.40574646,  -2.04982758
   1568, -0.358726799,  -1.77435911
   1569, -0.317073673,  -1.53033066
   1570, -0.280174553,  -1.31415403
   1571, -0.247486845,  -1.12265027
   1572, -0.218529895, -0.953003407
   1573, -0.192877889, -0.802718937
   1574, -0.170153633, -0.669586897
   1575, -0.150022969,  -0.55164969
   1576,  -0.13218987, -0.447172999
   1577, -0.116392128, -0.354620546
   1578, -0.102397434, -0.272631437
   1579,  -1.06225073,  -5.27368546
   1580, -0.940223217,  -4.63026762
   1581, -0.832123101,  -4.06028557
   1582, -0.736360788,  -3.55535674
   1583,  -0.65152812,   -3.1080575
   1584,  -0.57637769,  -2.71180964
   1585, -0.509804428,  -2.36078691
   1586, -0.450829387,  -2.04982758
   1587, -0.398585349,  -1.77435911
   1588, -0.352304101,  -1.53033066
   1589, -0.311305076,  -1.31415403
   1590, -0.274985403,  -1.12265027
   1591, -0.242810994, -0.953003407
   1592, -0.214308769, -0.802718937
   1593, -0.189059585, -0.669586897
   1594, -0.166692182,  -0.55164969
   1595, -0.146877632, -0.447172999
   1596, -0.129324585, -0.354620546
   1597, -0.113774925, -0.272631437
   1598,  -1.16847575,  -5.27368546
   1599,  -1.03424549,  -4.63026762
   1600, -0.915335417,  -4.06028557
   1601, -0.809996843,  -3.55535674
   1602, -0.716680944,   -3.1080575
   1603, -0.634015441,  -2.71180964
   1604, -0.560784876,  -2.36078691
   1605, -0.495912313,  -2.04982758
   1606, -0.438443869,  -1.77435911
   1607, -0.387534499,  -1.53033066
   1608, -0.342435569,  -1.31415403
   1609, -0.302483916,  -1.12265027
   1610, -0.267092079, -0.953003407
   1611, -0.235739648, -0.802718937
   1612, -0.207965553, -0.669586897
   1613, -0.183361396,  -0.55164969
   1614, -0.161565393, -0.447172999
   1615,  -0.14225705, -0.354620546
   1616, -0.125152424, -0.272631437
   1617,  -1.27470088,  -5.27368546
   1618,  -1.12826788,  -4.63026762
   1619, -0.998547673,  -4.06028557
   1620, -0.883632898,  -3.55535674
   1621, -0.781833768,   -3.1080575
   1622, -0.691653252,  -2.71180964
   1623, -0.611765325,  -2.36078691
   1624,  -0.54099524,  -2.04982758
   1625, -0.478302419,  -1.77435911
   1626, -0.422764897,  -1.53033066
   1627, -0.373566091,  -1.31415403
   1628,  -0.32998246,  -1.12265027
   1629, -0.291373193, -0.953003407
   1630, -0.257170528, -0.802718937
   1631, -0.226871505, -0.669586897
   1632,  -0.20003061,  -0.55164969
   1633,  -0.17625317, -0.447172999
   1634, -0.155189514, -0.354620546
   1635, -0.136529908, -0.272631437
   1636,  -1.38092589,  -5.27368546
   1637,  -1.22229016,  -4.63026762
   1638,  -1.08176005,  -4.06028557
   1639, -0.957269013,  -3.55535674
   1640, -0.846986532,   -3.1080575
   1641, -0.749291003,  -2.71180964
   1642, -0.662745774,  -2.36078691
   1643, -0.586078227,  -2.04982758
   1644, -0.518160939,  -1.77435911
   1645, -0.457995325,  -1.53033066
   1646, -0.404696584,  -1.31415403
   1647, -0.357481003,  -1.12265027
   1648, -0.315654278, -0.953003407
   1649, -0.278601408, -0.802718937
   1650, -0.245777458, -0.669586897
   1651, -0.216699839,  -0.55164969
   1652, -0.190940931, -0.447172999
   1653, -0.168121964, -0.354620546
   1654, -0.147907406, -0.272631437
   1655,  -1.48715103,  -5.27368546
   1656,  -1.31631243,  -4.63026762
   1657,  -1.16497231,  -4.06028557
   1658,  -1.03090513,  -3.55535674
   1659, -0.912139356,   -3.1080575
   1660, -0.806928754,  -2.71180964
   1661, -0.713726223,  -2.36078691
   1662, -0.631161153,  -2.04982758
   1663, -0.558019459,  -1.77435911
   1664, -0.493225724,  -1.53033066
   1665, -0.435827106,  -1.31415403
   1666, -0.384979546,  -1.12265027
   1667, -0.339935392, -0.953003407
   1668, -0.300032258, -0.802718937
   1669, -0.264683425, -0.669586897
   1670, -0.233369052,  -0.55164969
   1671, -0.205628693, -0.447172999
   1672, -0.181054428, -0.354620546
   1673, -0.159284905, -0.272631437
   1674,  -1.59337604,  -5.27368546
   1675,  -1.41033483,  -4.63026762
   1676,  -1.24818468,  -4.06028557
   1677,  -1.10454118,  -3.55535674
   1678,  -0.97729218,   -3.1080575
   1679, -0.864566565,  -2.71180964
   1680, -0.764706671,  -2.36078691
   1681,  -0.67624408,  -2.04982758
   1682, -0.597878039,  -1.77435911
   1683, -0.528456151,  -1.53033066
   1684, -0.466957599,  -1.31415403
   1685, -0.412478089,  -1.12265027
   1686, -0.364216477, -0.953003407
   1687, -0.321463138, -0.802718937
   1688, -0.283589393, -0.669586897
   1689, -0.250038266,  -0.55164969
   1690, -0.220316455, -0.447172999
   1691, -0.193986878, -0.354620546
   1692, -0.170662388, -0.272631437
   1693,  -1.69960117,  -5.27368546
   1694,   -1.5043571,  -4.63026762
   1695,  -1.33139694,  -4.06028557
   1696,  -1.17817724,  -3.55535674
   1697,  -1.04244494,   -3.1080575
   1698, -0.922204316,  -2.71180964
   1699,  -0.81568706,  -2.36078691
   1700, -0.721327007,  -2.04982758
   1701, -0.637736559,  -1.77435911
   1702,  -0.56368655,  -1.53033066
   1703, -0.498088092,  -1.31415403
   1704, -0.439976633,  -1.12265027
   1705, -0.388497591, -0.953003407
   1706, -0.342894018, -0.802718937
   1707, -0.302495331, -0.669586897
   1708,  -0.26670748,  -0.55164969
   1709, -0.235004216, -0.447172999
   1710, -0.206919342, -0.354620546
   1711, -0.182039887, -0.272631437
   1712,  -1.80582619,  -5.27368546
   1713,  -1.59837949,  -4.63026762
   1714,  -1.41460919,  -4.06028557
   1715,  -1.25181329,  -3.55535674
   1716,  -1.10759783,   -3.1080575
   1717, -0.979842067,  -2.71180964
   1718, -0.866667509,  -2.36078691
   1719, -0.766409934,  -2.04982758
   1720, -0.677595079,  -1.77435911
   1721, -0.598916948,  -1.53033066
   1722, -0.529218614,  -1.31415403
   1723, -0.467475176,  -1.12265027
   1724, -0.412778676, -0.953003407
   1725, -0.364324898, -0.802718937
   1726, -0.321401298, -0.669586897
   1727, -0.283376694,  -0.55164969
   1728, -0.249691978, -0.447172999
   1729, -0.219851807, -0.354620546
   1730, -0.193417385, -0.272631437
   1731,  -1.91205132,  -5.27368546
   1732,  -1.69240177,  -4.63026762
   1733,  -1.49782157,  -4.06028557
   1734,  -1.32544935,  -3.55535674
   1735,  -1.17275059,   -3.1080575
   1736,  -1.03747988,  -2.71180964
   1737, -0.917647958,  -2.36078691
   1738,  -0.81149292,  -2.04982758
   1739, -0.717453599,  -1.77435911
   1740, -0.634147346,  -1.53033066
   1741, -0.560349107,  -1.31415403
   1742, -0.494973689,  -1.12265027
   1743,  -0.43705979, -0.953003407
   1744, -0.385755777, -0.802718937
   1745, -0.340307266, -0.669586897
   1746, -0.300045937,  -0.55164969
   1747,  -0.26437974, -0.447172999
   1748, -0.232784256, -0.354620546
   1749, -0.204794869, -0.272631437
   1750,  -2.01827645,  -5.27368546
   1751,  -1.78642404,  -4.63026762
   1752,  -1.58103383,  -4.06028557
   1753,  -1.39908552,  -3.55535674
   1754,  -1.23790348,   -3.1080575
   1755,  -1.09511757,  -2.71180964
   1756, -0.968628407,  -2.36078691
   1757, -0.856575847,  -2.04982758
   1758, -0.757312179,  -1.77435911
   1759, -0.669377804,  -1.53033066
   1760, -0.591479599,  -1.31415403
   1761, -0.522472262,  -1.12265027
   1762, -0.461340874, -0.953003407
   1763, -0.407186657, -0.802718937
   1764, -0.359213203, -0.669586897
   1765, -0.316715151,  -0.55164969
   1766, -0.279067516, -0.447172999
   1767, -0.245716721, -0.354620546
   1768, -0.216172367, -0.272631437
   1769,  -2.12450147,  -5.27368546
   1770,  -1.88044643,  -4.63026762
   1771,   -1.6642462,  -4.06028557
   1772,  -1.47272158,  -3.55535674
   1773,  -1.30305624,   -3.1080575
   1774,  -1.15275538,  -2.71180964
   1775,  -1.01960886,  -2.36078691
   1776, -0.901658773,  -2.04982758
   1777, -0.797170699,  -1.77435911
   1778, -0.704608202,  -1.53033066
   1779, -0.622610152,  -1.31415403
   1780, -0.549970806,  -1.12265027
   1781, -0.485621989, -0.953003407
   1782, -0.428617537, -0.802718937
   1783, -0.378119171, -0.669586897
   1784, -0.333384365,  -0.55164969
   1785, -0.293755263, -0.447172999
   1786,  -0.25864917, -0.354620546
   1787, -0.227549851, -0.272631437
   1788,  -2.23072648,  -5.27368546
   1789,  -1.97446871,  -4.63026762
   1790,  -1.74745846,  -4.06028557
   1791,  -1.54635763,  -3.55535674
   1792,    -1.368209,   -3.1080575
   1793,  -1.21039319,  -2.71180964
   1794,   -1.0705893,  -2.36078691
   1795,   -0.9467417,  -2.04982758
   1796, -0.837029219,  -1.77435911
   1797,   -0.7398386,  -1.53033066
   1798, -0.653740644,  -1.31415403
   1799, -0.577469289,  -1.12265027
   1800, -0.509903073, -0.953003407
   1801, -0.450048417, -0.802718937
   1802, -0.397025138, -0.669586897
   1803, -0.350053579,  -0.55164969
   1804,  -0.30844304, -0.447172999
   1805,  -0.27158165, -0.354620546
   1806, -0.238927349, -0.272631437
   1807,  -2.33695149,  -5.27368546
   1808,  -2.06849098,  -4.63026762
   1809,  -1.83067083,  -4.06028557
   1810,  -1.61999369,  -3.55535674
   1811,  -1.43336189,   -3.1080575
   1812,  -1.26803088,  -2.71180964
   1813,  -1.12156975,  -2.36078691
   1814, -0.991824627,  -2.04982758
   1815, -0.876887739,  -1.77435911
   1816, -0.775068998,  -1.53033066
   1817, -0.684871137,  -1.31415403
   1818, -0.604967833,  -1.12265027
   1819, -0.534184158, -0.953003407
   1820, -0.471479297, -0.802718937
   1821, -0.415931106, -0.669586897
   1822, -0.366722792,  -0.55164969
   1823, -0.323130786, -0.447172999
   1824, -0.284514099, -0.354620546
   1825, -0.250304848, -0.272631437
   1826,  -2.44317675,  -5.27368546
   1827,  -2.16251326,  -4.63026762
   1828,  -1.91388309,  -4.06028557
   1829,  -1.69362974,  -3.55535674
   1830,  -1.49851465,   -3.1080575
   1831,  -1.32566869,  -2.71180964
   1832,   -1.1725502,  -2.36078691
   1833,  -1.03690755,  -2.04982758
   1834, -0.916746318,  -1.77435911
   1835, -0.810299397,  -1.53033066
   1836,  -0.71600163,  -1.31415403
   1837, -0.632466376,  -1.12265027
   1838, -0.558465302, -0.953003407
   1839, -0.492910147, -0.802718937
   1840, -0.434837043, -0.669586897
   1841, -0.383392006,  -0.55164969
   1842, -0.337818563, -0.447172999
   1843, -0.297446549, -0.354620546
   1844, -0.261682332, -0.272631437
   1845,  -2.54940176,  -5.27368546
   1846,  -2.25653577,  -4.63026762
   1847,  -1.99709535,  -4.06028557
   1848,   -1.7672658,  -3.55535674
   1849,  -1.56366754,   -3.1080575
   1850,   -1.3833065,  -2.71180964
   1851,  -1.22353065,  -2.36078691
   1852,  -1.08199048,  -2.04982758
   1853, -0.956604838,  -1.77435911
   1854, -0.845529795,  -1.53033066
   1855, -0.747132182,  -1.31415403
   1856, -0.659964919,  -1.12265027
   1857, -0.582746387, -0.953003407
   1858, -0.514341056, -0.802718937
   1859, -0.453743011, -0.669586897
   1860,  -0.40006122,  -0.55164969
   1861,  -0.35250634, -0.447172999
   1862, -0.310379028, -0.354620546
   1863, -0.273059815, -0.272631437
   1864,  -2.65562677,  -5.27368546
   1865,  -2.35055804,  -4.63026762
   1866,  -2.08030772,  -4.06028557
   1867,  -1.84090197,  -3.55535674
   1868,   -1.6288203,   -3.1080575
   1869,  -1.44094419,  -2.71180964
   1870,   -1.2745111,  -2.36078691
   1871,  -1.12707341,  -2.04982758
   1872, -0.996463358,  -1.77435911
   1873, -0.880760252,  -1.53033066
   1874, -0.778262675,  -1.31415403
   1875, -0.687463462,  -1.12265027
   1876, -0.607027471, -0.953003407
   1877, -0.535771906, -0.802718937
   1878, -0.472648978, -0.669586897
   1879, -0.416730464,  -0.55164969
   1880, -0.367194086, -0.447172999
   1881, -0.323311478, -0.354620546
   1882, -0.284437329, -0.272631437
   1883,  -2.76185179,  -5.27368546
   1884,  -2.44458032,  -4.63026762
   1885,   -2.1635201,  -4.06028557
   1886,  -1.91453803,  -3.55535674
   1887,  -1.69397306,   -3.1080575
   1888,  -1.49858201,  -2.71180964
   1889,  -1.32549155,  -2.36078691
   1890,  -1.17215645,  -2.04982758
   1891,  -1.03632188,  -1.77435911
   1892, -0.915990651,  -1.53033066
   1893, -0.809393167,  -1.31415403
   1894, -0.714962006,  -1.12265027
   1895, -0.631308556, -0.953003407
   1896, -0.557202816, -0.802718937
   1897, -0.491554916, -0.669586897
   1898, -0.433399677,  -0.55164969
   1899, -0.381881863, -0.447172999
   1900, -0.336243927, -0.354620546
   1901, -0.295814812, -0.272631437
   1902,  -2.86807704,  -5.27368546
   1903,  -2.53860259,  -4.63026762
   1904,  -2.24673223,  -4.06028557
   1905,  -1.98817408,  -3.55535674
   1906,  -1.75912595,   -3.1080575
   1907,  -1.55621982,  -2.71180964
   1908,    -1.376472,  -2.36078691
   1909,  -1.21723938,  -2.04982758
   1910,  -1.07618046,  -1.77435911
   1911, -0.951221049,  -1.53033066
   1912,  -0.84052366,  -1.31415403
   1913, -0.742460549,  -1.12265027
   1914,   -0.6555897, -0.953003407
   1915, -0.578633666, -0.802718937
   1916, -0.510460913, -0.669586897
   1917, -0.450068891,  -0.55164969
   1918,  -0.39656961, -0.447172999
   1919, -0.349176377, -0.354620546
   1920, -0.307192296, -0.272631437
   1921,  -2.97430205,  -5.27368546
   1922,  -2.63262486,  -4.63026762
   1923,  -2.32994461,  -4.06028557
   1924,  -2.06181026,  -3.55535674
   1925,  -1.82427871,   -3.1080575
   1926,  -1.61385751,  -2.71180964
   1927,  -1.42745245,  -2.36078691
   1928,  -1.26232231,  -2.04982758
   1929,  -1.11603892,  -1.77435911
   1930, -0.986451447,  -1.53033066
   1931, -0.871654212,  -1.31415403
   1932, -0.769959092,  -1.12265027
   1933, -0.679870784, -0.953003407
   1934, -0.600064516, -0.802718937
   1935, -0.529366851, -0.669586897
   1936, -0.466738105,  -0.55164969
   1937, -0.411257386, -0.447172999
   1938, -0.362108856, -0.354620546
   1939, -0.318569809, -0.272631437
   1940,  -3.08052707,  -5.27368546
   1941,  -2.72664738,  -4.63026762
   1942,  -2.41315699,  -4.06028557
   1943,  -2.13544631,  -3.55535674
   1944,   -1.8894316,   -3.1080575
   1945,  -1.67149532,  -2.71180964
   1946,  -1.47843289,  -2.36078691
   1947,  -1.30740523,  -2.04982758
   1948,   -1.1558975,  -1.77435911
   1949,   -1.0216819,  -1.53033066
   1950, -0.902784705,  -1.31415403
   1951, -0.797457635,  -1.12265027
   1952, -0.704151869, -0.953003407
   1953, -0.621495426, -0.802718937
   1954, -0.548272789, -0.669586897
   1955, -0.483407319,  -0.55164969
   1956, -0.425945133, -0.447172999
   1957, -0.375041306, -0.354620546
   1958, -0.329947293, -0.272631437
   1959,  -3.18675208,  -5.27368546
   1960,  -2.82066965,  -4.63026762
   1961,  -2.49636936,  -4.06028557
   1962,  -2.20908237,  -3.55535674
   1963,  -1.95458436,   -3.1080575
   1964,  -1.72913313,  -2.71180964
   1965,  -1.52941334,  -2.36078691
   1966,  -1.35248816,  -2.04982758
   1967,  -1.19575608,  -1.77435911
   1968,   -1.0569123,  -1.53033066
   1969, -0.933915198,  -1.31415403
   1970, -0.824956179,  -1.12265027
   1971, -0.728432953, -0.953003407
   1972, -0.642926276, -0.802718937
   1973, -0.567178786, -0.669586897
   1974, -0.500076532,  -0.55164969
   1975,  -0.44063291, -0.447172999
   1976, -0.387973756, -0.354620546
   1977, -0.341324776, -0.272631437
   1978,  -3.29297733,  -5.27368546
   1979,  -2.91469193,  -4.63026762
   1980,   -2.5795815,  -4.06028557
   1981,  -2.28271842,  -3.55535674
   1982,  -2.01973724,   -3.1080575
   1983,  -1.78677082,  -2.71180964
   1984,  -1.58039379,  -2.36078691
   1985,  -1.39757109,  -2.04982758
   1986,  -1.23561454,  -1.77435911
   1987,   -1.0921427,  -1.53033066
   1988, -0.965045691,  -1.31415403
   1989, -0.852454722,  -1.12265027
   1990, -0.752714097, -0.953003407
   1991, -0.664357185, -0.802718937
   1992, -0.586084723, -0.669586897
   1993, -0.516745746,  -0.55164969
   1994, -0.455320656, -0.447172999
   1995, -0.400906235, -0.354620546
   1996,  -0.35270229, -0.272631437
   1997,  -3.39920235,  -5.27368546
   1998,   -3.0087142,  -4.63026762
   1999,  -2.66279387,  -4.06028557
   2000,  -2.35635448,  -3.55535674
   2001,  -2.08488989,   -3.1080575
   2002,  -1.84440863,  -2.71180964
   2003,  -1.63137412,  -2.36078691
   2004,  -1.44265401,  -2.04982758
   2005,  -1.27547312,  -1.77435911
   2006,   -1.1273731,  -1.53033066
   2007, -0.996176183,  -1.31415403
   2008, -0.879953265,  -1.12265027
   2009, -0.776995182, -0.953003407
   2010, -0.685788035, -0.802718937
   2011, -0.604990661, -0.669586897
   2012,  -0.53341496,  -0.55164969
   2013, -0.470008433, -0.447172999
   2014, -0.413838685, -0.354620546
   2015, -0.364079773, -0.272631437
   2016,  -3.50542736,  -5.27368546
   2017,  -3.10273647,  -4.63026762
   2018,  -2.74600625,  -4.06028557
   2019,  -2.42999053,  -3.55535674
   2020,  -2.15004277,   -3.1080575
   2021,  -1.90204644,  -2.71180964
   2022,  -1.68235457,  -2.36078691
   2023,  -1.48773694,  -2.04982758
   2024,   -1.3153317,  -1.77435911
   2025,   -1.1626035,  -1.53033066
   2026,  -1.02730668,  -1.31415403
   2027, -0.907451808,  -1.12265027
   2028, -0.801276267, -0.953003407
   2029, -0.707218945, -0.802718937
   2030, -0.623896658, -0.669586897
   2031, -0.550084174,  -0.55164969
   2032, -0.484696209, -0.447172999
   2033, -0.426771134, -0.354620546
   2034, -0.375457257, -0.272631437
   2035,  -3.61165237,  -5.27368546
   2036,  -3.19675899,  -4.63026762
   2037,  -2.82921839,  -4.06028557
   2038,  -2.50362659,  -3.55535674
   2039,  -2.21519566,   -3.1080575
   2040,  -1.95968413,  -2.71180964
   2041,  -1.73333502,  -2.36078691
   2042,  -1.53281987,  -2.04982758
   2043,  -1.35519016,  -1.77435911
   2044,   -1.1978339,  -1.53033066
   2045,  -1.05843723,  -1.31415403
   2046, -0.934950352,  -1.12265027
   2047, -0.825557351, -0.953003407
   2048, -0.728649795, -0.802718937
   2049, -0.642802596, -0.669586897
   2050, -0.566753387,  -0.55164969
   2051, -0.499383956, -0.447172999
   2052, -0.439703614, -0.354620546
   2053,  -0.38683477, -0.272631437
   2054,  -3.71787763,  -5.27368546
   2055,  -3.29078126,  -4.63026762
   2056,  -2.91243076,  -4.06028557
   2057,  -2.57726264,  -3.55535674
   2058,  -2.28034854,   -3.1080575
   2059,  -2.01732183,  -2.71180964
   2060,  -1.78431547,  -2.36078691
   2061,  -1.57790279,  -2.04982758
   2062,  -1.39504874,  -1.77435911
   2063,  -1.23306429,  -1.53033066
   2064,  -1.08956778,  -1.31415403
   2065, -0.962448835,  -1.12265027
   2066, -0.849838495, -0.953003407
   2067, -0.750080705, -0.802718937
   2068, -0.661708534, -0.669586897
   2069, -0.583422601,  -0.55164969
   2070, -0.514071703, -0.447172999
   2071, -0.452636063, -0.354620546
   2072, -0.398212254, -0.272631437
   2073,  -3.82410264,  -5.27368546
   2074,  -3.38480353,  -4.63026762
   2075,  -2.99564314,  -4.06028557
   2076,  -2.65089869,  -3.55535674
   2077,  -2.34550118,   -3.1080575
   2078,  -2.07495975,  -2.71180964
   2079,  -1.83529592,  -2.36078691
   2080,  -1.62298584,  -2.04982758
   2081,   -1.4349072,  -1.77435911
   2082,  -1.26829469,  -1.53033066
   2083,  -1.12069821,  -1.31415403
   2084, -0.989947379,  -1.12265027
   2085,  -0.87411958, -0.953003407
   2086, -0.771511555, -0.802718937
   2087, -0.680614531, -0.669586897
   2088, -0.600091875,  -0.55164969
   2089,  -0.52875948, -0.447172999
   2090, -0.465568513, -0.354620546
   2091, -0.409589738, -0.272631437
   2092,  -3.93032765,  -5.27368546
   2093,  -3.47882581,  -4.63026762
   2094,  -3.07885551,  -4.06028557
   2095,  -2.72453475,  -3.55535674
   2096,  -2.41065407,   -3.1080575
   2097,  -2.13259745,  -2.71180964
   2098,  -1.88627636,  -2.36078691
   2099,  -1.66806877,  -2.04982758
   2100,  -1.47476578,  -1.77435911
   2101,  -1.30352509,  -1.53033066
   2102,  -1.15182877,  -1.31415403
   2103,  -1.01744592,  -1.12265027
   2104, -0.898400664, -0.953003407
   2105, -0.792942405, -0.802718937
   2106, -0.699520469, -0.669586897
   2107, -0.616761088,  -0.55164969
   2108, -0.543447256, -0.447172999
   2109, -0.478500992, -0.354620546
   2110, -0.420967221, -0.272631437
   2111,  -4.03655291,  -5.27368546
   2112,  -3.57284808,  -4.63026762
   2113,  -3.16206765,  -4.06028557
   2114,  -2.79817104,  -3.55535674
   2115,  -2.47580695,   -3.1080575
   2116,  -2.19023514,  -2.71180964
   2117,  -1.93725681,  -2.36078691
   2118,  -1.71315169,  -2.04982758
   2119,  -1.51462436,  -1.77435911
   2120,  -1.33875561,  -1.53033066
   2121,   -1.1829592,  -1.31415403
   2122,  -1.04494452,  -1.12265027
   2123, -0.922681749, -0.953003407
   2124, -0.814373314, -0.802718937
   2125, -0.718426406, -0.669586897
   2126, -0.633430302,  -0.55164969
   2127, -0.558135033, -0.447172999
   2128, -0.491433442, -0.354620546
   2129, -0.432344735, -0.272631437
   2130,  -4.14277792,  -5.27368546
   2131,  -3.66687059,  -4.63026762
   2132,  -3.24528003,  -4.06028557
   2133,   -2.8718071,  -3.55535674
   2134,   -2.5409596,   -3.1080575
   2135,  -2.24787307,  -2.71180964
   2136,  -1.98823726,  -2.36078691
   2137,  -1.75823462,  -2.04982758
   2138,  -1.55448282,  -1.77435911
   2139,  -1.37398601,  -1.53033066
   2140,  -1.21408975,  -1.31415403
   2141,  -1.07244301,  -1.12265027
   2142, -0.946962893, -0.953003407
   2143, -0.835804164, -0.802718937
   2144, -0.737332404, -0.669586897
   2145, -0.650099516,  -0.55164969
   2146,  -0.57282275, -0.447172999
   2147, -0.504365921, -0.354620546
   2148, -0.443722218, -0.272631437
   2149,  -4.24900293,  -5.27368546
   2150,  -3.76089287,  -4.63026762
   2151,   -3.3284924,  -4.06028557
   2152,  -2.94544315,  -3.55535674
   2153,  -2.60611248,   -3.1080575
   2154,  -2.30551076,  -2.71180964
   2155,  -2.03921771,  -2.36078691
   2156,  -1.80331755,  -2.04982758
   2157,   -1.5943414,  -1.77435911
   2158,   -1.4092164,  -1.53033066
   2159,   -1.2452203,  -1.31415403
   2160,  -1.09994161,  -1.12265027
   2161, -0.971243978, -0.953003407
   2162, -0.857235074, -0.802718937
   2163, -0.756238341, -0.669586897
   2164,  -0.66676873,  -0.55164969
   2165, -0.587510526, -0.447172999
   2166, -0.517298341, -0.354620546
   2167, -0.455099702, -0.272631437
   2168,  -4.35522795,  -5.27368546
   2169,  -3.85491514,  -4.63026762
   2170,  -3.41170454,  -4.06028557
   2171,  -3.01907921,  -3.55535674
   2172,  -2.67126536,   -3.1080575
   2173,  -2.36314845,  -2.71180964
   2174,  -2.09019828,  -2.36078691
   2175,  -1.84840047,  -2.04982758
   2176,  -1.63419998,  -1.77435911
   2177,   -1.4444468,  -1.53033066
   2178,  -1.27635074,  -1.31415403
   2179,  -1.12744009,  -1.12265027
   2180, -0.995525062, -0.953003407
   2181, -0.878665924, -0.802718937
   2182, -0.775144279, -0.669586897
   2183, -0.683437943,  -0.55164969
   2184, -0.602198303, -0.447172999
   2185,  -0.53023082, -0.354620546
   2186, -0.466477215, -0.272631437
   2187,  -4.46145296,  -5.27368546
   2188,  -3.94893742,  -4.63026762
   2189,  -3.49491692,  -4.06028557
   2190,  -3.09271526,  -3.55535674
   2191,  -2.73641801,   -3.1080575
   2192,  -2.42078638,  -2.71180964
   2193,  -2.14117861,  -2.36078691
   2194,   -1.8934834,  -2.04982758
   2195,  -1.67405844,  -1.77435911
   2196,   -1.4796772,  -1.53033066
   2197,  -1.30748129,  -1.31415403
   2198,  -1.15493858,  -1.12265027
   2199,  -1.01980615, -0.953003407
   2200, -0.900096834, -0.802718937
   2201, -0.794050276, -0.669586897
   2202, -0.700107157,  -0.55164969
   2203, -0.616886079, -0.447172999
   2204,   -0.5431633, -0.354620546
   2205, -0.477854699, -0.272631437
   2206,  -4.56767797,  -5.27368546
   2207,  -4.04295969,  -4.63026762
   2208,  -3.57812929,  -4.06028557
   2209,  -3.16635132,  -3.55535674
   2210,  -2.80157089,   -3.1080575
   2211,  -2.47842407,  -2.71180964
   2212,  -2.19215894,  -2.36078691
   2213,  -1.93856633,  -2.04982758
   2214,  -1.71391702,  -1.77435911
   2215,   -1.5149076,  -1.53033066
   2216,  -1.33861184,  -1.31415403
   2217,  -1.18243718,  -1.12265027
   2218,  -1.04408729, -0.953003407
   2219, -0.921527684, -0.802718937
   2220, -0.812956214, -0.669586897
   2221, -0.716776371,  -0.55164969
   2222, -0.631573856, -0.447172999
   2223, -0.556095719, -0.354620546
   2224, -0.489232183, -0.272631437
   2225,  -4.67390299,  -5.27368546
   2226,  -4.13698196,  -4.63026762
   2227,  -3.66134167,  -4.06028557
   2228,  -3.23998737,  -3.55535674
   2229,  -2.86672378,   -3.1080575
   2230,  -2.53606176,  -2.71180964
   2231,  -2.24313951,  -2.36078691
   2232,  -1.98364925,  -2.04982758
   2233,  -1.75377548,  -1.77435911
   2234,    -1.550138,  -1.53033066
   2235,  -1.36974227,  -1.31415403
   2236,  -1.20993567,  -1.12265027
   2237,  -1.06836832, -0.953003407
   2238, -0.942958593, -0.802718937
   2239, -0.831862211, -0.669586897
   2240, -0.733445585,  -0.55164969
   2241, -0.646261573, -0.447172999
   2242, -0.569028199, -0.354620546
   2243, -0.500609696, -0.272631437
   2244,    -4.780128,  -5.27368546
   2245,  -4.23100424,  -4.63026762
   2246,   -3.7445538,  -4.06028557
   2247,  -3.31362343,  -3.55535674
   2248,  -2.93187666,   -3.1080575
   2249,  -2.59369969,  -2.71180964
   2250,  -2.29411983,  -2.36078691
   2251,   -2.0287323,  -2.04982758
   2252,  -1.79363406,  -1.77435911
   2253,  -1.58536839,  -1.53033066
   2254,  -1.40087283,  -1.31415403
   2255,  -1.23743427,  -1.12265027
   2256,  -1.09264946, -0.953003407
   2257, -0.964389443, -0.802718937
   2258, -0.850768149, -0.669586897
   2259, -0.750114799,  -0.55164969
   2260, -0.660949349, -0.447172999
   2261, -0.581960678, -0.354620546
   2262,  -0.51198715, -0.272631437
   2263,  -4.88635349,  -5.27368546
   2264,  -4.32502651,  -4.63026762
   2265,  -3.82776618,  -4.06028557
   2266,  -3.38725948,  -3.55535674
   2267,   -2.9970293,   -3.1080575
   2268,  -2.65133739,  -2.71180964
   2269,   -2.3451004,  -2.36078691
   2270,  -2.07381511,  -2.04982758
   2271,  -1.83349264,  -1.77435911
   2272,  -1.62059879,  -1.53033066
   2273,  -1.43200326,  -1.31415403
   2274,  -1.26493275,  -1.12265027
   2275,   -1.1169306, -0.953003407
   2276, -0.985820293, -0.802718937
   2277, -0.869674087, -0.669586897
   2278, -0.766784012,  -0.55164969
   2279, -0.675637126, -0.447172999
   2280, -0.594893098, -0.354620546
   2281, -0.523364663, -0.272631437
   2282,  -4.99257851,  -5.27368546
   2283,  -4.41904926,  -4.63026762
   2284,  -3.91097856,  -4.06028557
   2285,  -3.46089554,  -3.55535674
   2286,  -3.06218219,   -3.1080575
   2287,  -2.70897508,  -2.71180964
   2288,  -2.39608073,  -2.36078691
   2289,  -2.11889815,  -2.04982758
   2290,   -1.8733511,  -1.77435911
   2291,  -1.65582919,  -1.53033066
   2292,  -1.46313381,  -1.31415403
   2293,  -1.29243135,  -1.12265027
   2294,  -1.14121163, -0.953003407
   2295,  -1.00725114, -0.802718937
   2296, -0.888580084, -0.669586897
   2297, -0.783453226,  -0.55164969
   2298, -0.690324903, -0.447172999
   2299, -0.607825577, -0.354620546
   2300, -0.534742177, -0.272631437
   2301,  -5.09880352,  -5.27368546
   2302,  -4.51307154,  -4.63026762
   2303,  -3.99419069,  -4.06028557
   2304,  -3.53453159,  -3.55535674
   2305,  -3.12733507,   -3.1080575
   2306,  -2.76661301,  -2.71180964
   2307,   -2.4470613,  -2.36078691
   2308,  -2.16398096,  -2.04982758
   2309,  -1.91320968,  -1.77435911
   2310,  -1.69105959,  -1.53033066
   2311,  -1.49426436,  -1.31415403
   2312,  -1.31992984,  -1.12265027
   2313,  -1.16549277, -0.953003407
   2314,  -1.02868211, -0.802718937
   2315, -0.907486022, -0.669586897
   2316,  -0.80012244,  -0.55164969
   2317, -0.705012679, -0.447172999
   2318, -0.620758057, -0.354620546
   2319,  -0.54611963, -0.272631437
   2320,  -5.20502853,  -5.27368546
   2321,  -4.60709381,  -4.63026762
   2322,  -4.07740307,  -4.06028557
   2323,  -3.60816789,  -3.55535674
   2324,  -3.19248772,   -3.1080575
   2325,   -2.8242507,  -2.71180964
   2326,  -2.49804163,  -2.36078691
   2327,  -2.20906401,  -2.04982758
   2328,  -1.95306826,  -1.77435911
   2329,  -1.72629011,  -1.53033066
   2330,   -1.5253948,  -1.31415403
   2331,  -1.34742844,  -1.12265027
   2332,  -1.18977392, -0.953003407
   2333,  -1.05011296, -0.802718937
   2334, -0.926391959, -0.669586897
   2335, -0.816791654,  -0.55164969
   2336, -0.719700396, -0.447172999
   2337, -0.633690476, -0.354620546
   2338, -0.557497144, -0.272631437
   2339,  -5.31125355,  -5.01000118
   2340,  -4.70111609,   -4.3987546
   2341,  -4.16061544,  -3.85727096
   2342,  -3.68180394,  -3.37758899
   2343,   -3.2576406,   -2.9526546
   2344,  -2.88188839,  -2.57621908
   2345,   -2.5490222,  -2.24274755
   2346,  -2.25414681,  -1.94733632
   2347,  -1.99292672,  -1.68564117
   2348,   -1.7615205,  -1.45381415
   2349,  -1.55652535,  -1.24844623
   2350,  -1.37492692,  -1.06651771
   2351,  -1.21405494, -0.905353248
   2352,  -1.07154381, -0.762583017
   2353, -0.945297956, -0.636107564
   2354, -0.833460927, -0.524067163
   2355, -0.734388173, -0.424814343
   2356, -0.646622956, -0.336889535
   2357, -0.568874657, -0.258999854
   2358,  -5.31125355,  -4.74631691
   2359,  -4.70111609,   -4.1672411
   2360,  -4.16061544,  -3.65425682
   2361,  -3.68180394,  -3.19982123
   2362,   -3.2576406,   -2.7972517
   2363,  -2.88188839,  -2.44062877
   2364,   -2.5490222,  -2.12470841
   2365,  -2.25414681,  -1.84484494
   2366,  -1.99292672,  -1.59692323
   2367,   -1.7615205,  -1.37729764
   2368,  -1.55652535,  -1.18273854
   2369,  -1.37492692,  -1.01038516
   2370,  -1.21405494,  -0.85770309
   2371,  -1.07154381, -0.722447038
   2372, -0.945297956, -0.602628231
   2373, -0.833460927, -0.496484697
   2374, -0.734388173, -0.402455688
   2375, -0.646622956, -0.319158494
   2376, -0.568874657, -0.245368302
   2377,  -5.31125355,  -4.48263264
   2378,  -4.70111609,   -3.9357276
   2379,  -4.16061544,  -3.45124245
   2380,  -3.68180394,  -3.02205324
   2381,   -3.2576406,   -2.6418488
   2382,  -2.88188839,  -2.30503821
   2383,   -2.5490222,  -2.00666904
   2384,  -2.25414681,  -1.74235356
   2385,  -1.99292672,  -1.50820529
   2386,   -1.7615205,  -1.30078113
   2387,  -1.55652535,  -1.11703086
   2388,  -1.37492692,  -0.95425272
   2389,  -1.21405494, -0.810052931
   2390,  -1.07154381, -0.682311118
   2391, -0.945297956, -0.569148898
   2392, -0.833460927,  -0.46890223
   2393, -0.734388173, -0.380097032
   2394, -0.646622956, -0.301427484
   2395, -0.568874657,  -0.23173672
   2396,  -5.31125355,  -4.21894836
   2397,  -4.70111609,  -3.70421433
   2398,  -4.16061544,  -3.24822831
   2399,  -3.68180394,  -2.84428549
   2400,   -3.2576406,   -2.4864459
   2401,  -2.88188839,  -2.16944766
   2402,   -2.5490222,  -1.88862956
   2403,  -2.25414681,  -1.63986218
   2404,  -1.99292672,  -1.41948724
   2405,   -1.7615205,   -1.2242645
   2406,  -1.55652535,  -1.05132318
   2407,  -1.37492692, -0.898120165
   2408,  -1.21405494, -0.762402713
   2409,  -1.07154381, -0.642175138
   2410, -0.945297956, -0.535669506
   2411, -0.833460927, -0.441319734
   2412, -0.734388173, -0.357738376
   2413, -0.646622956, -0.283696443
   2414, -0.568874657, -0.218105152
   2415,  -5.31125355,  -3.95526409
   2416,  -4.70111609,  -3.47270083
   2417,  -4.16061544,  -3.04521394
   2418,  -3.68180394,   -2.6665175
   2419,   -3.2576406,    -2.331043
   2420,  -2.88188839,  -2.03385735
   2421,   -2.5490222,  -1.77059031
   2422,  -2.25414681,   -1.5373708
   2423,  -1.99292672,   -1.3307693
   2424,   -1.7615205,  -1.14774799
   2425,  -1.55652535, -0.985615492
   2426,  -1.37492692, -0.841987669
   2427,  -1.21405494, -0.714752555
   2428,  -1.07154381, -0.602039218
   2429, -0.945297956, -0.502190173
   2430, -0.833460927, -0.413737267
   2431, -0.734388173,  -0.33537975
   2432, -0.646622956, -0.265965432
   2433, -0.568874657, -0.204473585
   2434,  -5.31125355,  -3.69157982
   2435,  -4.70111609,  -3.24118757
   2436,  -4.16061544,   -2.8421998
   2437,  -3.68180394,  -2.48874974
   2438,   -3.2576406,  -2.17564011
   2439,  -2.88188839,  -1.89826679
   2440,   -2.5490222,  -1.65255094
   2441,  -2.25414681,  -1.43487942
   2442,  -1.99292672,  -1.24205136
   2443,   -1.7615205,  -1.07123148
   2444,  -1.55652535, -0.919907808
   2445,  -1.37492692, -0.785855174
   2446,  -1.21405494, -0.667102396
   2447,  -1.07154381, -0.561903238
   2448, -0.945297956,  -0.46871084
   2449, -0.833460927, -0.386154771
   2450, -0.734388173, -0.313021094
   2451, -0.646622956, -0.248234391
   2452, -0.568874657, -0.190842003
   2453,  -5.31125355,  -3.42789555
   2454,  -4.70111609,  -3.00967407
   2455,  -4.16061544,  -2.63918543
   2456,  -3.68180394,  -2.31098199
   2457,   -3.2576406,  -2.02023721
   2458,  -2.88188839,  -1.76267624
   2459,   -2.5490222,  -1.53451157
   2460,  -2.25414681,  -1.33238792
   2461,  -1.99292672,  -1.15333343
   2462,   -1.7615205, -0.994714916
   2463,  -1.55652535, -0.854200065
   2464,  -1.37492692, -0.729722679
   2465,  -1.21405494, -0.619452238
   2466,  -1.07154381, -0.521767318
   2467, -0.945297956, -0.435231507
   2468, -0.833460927, -0.358572274
   2469, -0.734388173, -0.290662438
   2470, -0.646622956, -0.230503365
   2471, -0.568874657, -0.177210435
   2472,  -5.31125355,  -3.16421127
   2473,  -4.70111609,  -2.77816057
   2474,  -4.16061544,  -2.43617129
   2475,  -3.68180394,    -2.133214
   2476,   -3.2576406,  -1.86483443
   2477,  -2.88188839,   -1.6270858
   2478,   -2.5490222,   -1.4164722
   2479,  -2.25414681,  -1.22989655
   2480,  -1.99292672,  -1.06461549
   2481,   -1.7615205, -0.918198407
   2482,  -1.55652535, -0.788492382
   2483,  -1.37492692, -0.673590124
   2484,  -1.21405494,  -0.57180208
   2485,  -1.07154381, -0.481631368
   2486, -0.945297956, -0.401752144
   2487, -0.833460927, -0.330989808
   2488, -0.734388173, -0.268303782
   2489, -0.646622956,  -0.21277234
   2490, -0.568874657, -0.163578868
   2491,  -5.31125355,    -2.900527
   2492,  -4.70111609,  -2.54664731
   2493,  -4.16061544,  -2.23315692
   2494,  -3.68180394,  -1.95544624
   2495,   -3.2576406,  -1.70943153
   2496,  -2.88188839,  -1.49149537
   2497,   -2.5490222,  -1.29843283
   2498,  -2.25414681,  -1.12740517
   2499,  -1.99292672, -0.975897491
   2500,   -1.7615205, -0.841681898
   2501,  -1.55652535, -0.722784698
   2502,  -1.37492692, -0.617457628
   2503,  -1.21405494, -0.524151862
   2504,  -1.07154381, -0.441495419
   2505, -0.945297956, -0.368272811
   2506, -0.833460927, -0.303407311
   2507, -0.734388173, -0.245945141
   2508, -0.646622956, -0.195041314
   2509, -0.568874657, -0.149947286
   2510,  -5.31125355,  -2.63684273
   2511,  -4.70111609,  -2.31513381
   2512,  -4.16061544,  -2.03014278
   2513,  -3.68180394,  -1.77767837
   2514,   -3.2576406,  -1.55402875
   2515,  -2.88188839,  -1.35590482
   2516,   -2.5490222,  -1.18039346
   2517,  -2.25414681,  -1.02491379
   2518,  -1.99292672, -0.887179554
   2519,   -1.7615205, -0.765165329
   2520,  -1.55652535, -0.657077014
   2521,  -1.37492692, -0.561325133
   2522,  -1.21405494, -0.476501703
   2523,  -1.07154381, -0.401359469
   2524, -0.945297956, -0.334793448
   2525, -0.833460927, -0.275824845
   2526, -0.734388173,   -0.2235865
   2527, -0.646622956, -0.177310273
   2528, -0.568874657, -0.136315718
   2529,  -5.31125355,  -2.37315845
   2530,  -4.70111609,  -2.08362055
   2531,  -4.16061544,  -1.82712841
   2532,  -3.68180394,  -1.59991062
   2533,   -3.2576406,  -1.39862585
   2534,  -2.88188839,  -1.22031438
   2535,   -2.5490222,  -1.06235421
   2536,  -2.25414681, -0.922422469
   2537,  -1.99292672, -0.798461616
   2538,   -1.7615205,  -0.68864882
   2539,  -1.55652535, -0.591369271
   2540,  -1.37492692, -0.505192578
   2541,  -1.21405494, -0.428851545
   2542,  -1.07154381, -0.361223519
   2543, -0.945297956, -0.301314116
   2544, -0.833460927, -0.248242348
   2545, -0.734388173, -0.201227844
   2546, -0.646622956, -0.159579247
   2547, -0.568874657, -0.122684151
   2548,  -5.31125355,  -2.10947418
   2549,  -4.70111609,  -1.85210717
   2550,  -4.16061544,  -1.62411416
   2551,  -3.68180394,  -1.42214274
   2552,   -3.2576406,  -1.24322295
   2553,  -2.88188839,  -1.08472383
   2554,   -2.5490222, -0.944314778
   2555,  -2.25414681,  -0.81993109
   2556,  -1.99292672, -0.709743619
   2557,   -1.7615205, -0.612132251
   2558,  -1.55652535, -0.525661588
   2559,  -1.37492692, -0.449060082
   2560,  -1.21405494, -0.381201357
   2561,  -1.07154381, -0.321087569
   2562, -0.945297956, -0.267834753
   2563, -0.833460927, -0.220659867
   2564, -0.734388173, -0.178869188
   2565, -0.646622956, -0.141848221
   2566, -0.568874657, -0.109052576
   2567,  -5.31125355,  -1.84578991
   2568,  -4.70111609,  -1.62059379
   2569,  -4.16061544,   -1.4210999
   2570,  -3.68180394,  -1.24437487
   2571,   -3.2576406,  -1.08782005
   2572,  -2.88188839, -0.949133396
   2573,   -2.5490222, -0.826275468
   2574,  -2.25414681, -0.717439711
   2575,  -1.99292672, -0.621025681
   2576,   -1.7615205, -0.535615742
   2577,  -1.55652535, -0.459953904
   2578,  -1.37492692, -0.392927587
   2579,  -1.21405494, -0.333551198
   2580,  -1.07154381, -0.280951619
   2581, -0.945297956,  -0.23435542
   2582, -0.833460927, -0.193077385
   2583, -0.734388173, -0.156510547
   2584, -0.646622956, -0.124117196
   2585, -0.568874657, -0.0954210013
   2586,  -5.31125355,  -1.58210564
   2587,  -4.70111609,  -1.38908029
   2588,  -4.16061544,  -1.21808565
   2589,  -3.68180394,    -1.066607
   2590,   -3.2576406, -0.932417214
   2591,  -2.88188839, -0.813542902
   2592,   -2.5490222, -0.708236098
   2593,  -2.25414681, -0.614948273
   2594,  -1.99292672, -0.532307744
   2595,   -1.7615205, -0.459099203
   2596,  -1.55652535, -0.394246191
   2597,  -1.37492692, -0.336795062
   2598,  -1.21405494,  -0.28590104
   2599,  -1.07154381, -0.240815684
   2600, -0.945297956, -0.200876072
   2601, -0.833460927, -0.165494904
   2602, -0.734388173, -0.134151891
   2603, -0.646622956,  -0.10638617
   2604, -0.568874657, -0.081789434
   2605,  -5.31125355,  -1.31842136
   2606,  -4.70111609,  -1.15756691
   2607,  -4.16061544,  -1.01507139
   2608,  -3.68180394, -0.888839185
   2609,   -3.2576406, -0.777014375
   2610,  -2.88188839, -0.677952409
   2611,   -2.5490222, -0.590196729
   2612,  -2.25414681, -0.512456894
   2613,  -1.99292672, -0.443589777
   2614,   -1.7615205, -0.382582664
   2615,  -1.55652535, -0.328538507
   2616,  -1.37492692, -0.280662566
   2617,  -1.21405494, -0.238250852
   2618,  -1.07154381, -0.200679734
   2619, -0.945297956, -0.167396724
   2620, -0.833460927, -0.137912422
   2621, -0.734388173,  -0.11179325
   2622, -0.646622956, -0.0886551365
   2623, -0.568874657, -0.0681578591
   2624,  -5.31125355,  -1.05473709
   2625,  -4.70111609, -0.926053584
   2626,  -4.16061544, -0.812057078
   2627,  -3.68180394, -0.711071372
   2628,   -3.2576406, -0.621611476
   2629,  -2.88188839, -0.542361915
   2630,   -2.5490222, -0.472157389
   2631,  -2.25414681, -0.409965545
   2632,  -1.99292672, -0.354871809
   2633,   -1.7615205, -0.306066126
   2634,  -1.55652535, -0.262830794
   2635,  -1.37492692, -0.224530041
   2636,  -1.21405494, -0.190600678
   2637,  -1.07154381, -0.160543784
   2638, -0.945297956, -0.133917376
   2639, -0.833460927, -0.110329933
   2640, -0.734388173, -0.0894345939
   2641, -0.646622956, -0.0709241107
   2642, -0.568874657, -0.0545262881
   2643,  -5.31125355, -0.791052818
   2644,  -4.70111609, -0.694540143
   2645,  -4.16061544, -0.609042823
   2646,  -3.68180394, -0.533303499
   2647,   -3.2576406, -0.466208607
   2648,  -2.88188839, -0.406771451
   2649,   -2.5490222, -0.354118049
   2650,  -2.25414681, -0.307474136
   2651,  -1.99292672, -0.266153872
   2652,   -1.7615205, -0.229549602
   2653,  -1.55652535, -0.197123095
   2654,  -1.37492692, -0.168397531
   2655,  -1.21405494,  -0.14295052
   2656,  -1.07154381, -0.120407842
   2657, -0.945297956, -0.100438036
   2658, -0.833460927, -0.082747452
   2659, -0.734388173, -0.0670759454
   2660, -0.646622956, -0.0531930849
   2661, -0.568874657, -0.040894717
   2662,  -5.31125355, -0.527368546
   2663,  -4.70111609, -0.463026792
   2664,  -4.16061544, -0.406028539
   2665,  -3.68180394, -0.355535686
   2666,   -3.2576406, -0.310805738
   2667,  -2.88188839, -0.271180958
   2668,   -2.5490222, -0.236078694
   2669,  -2.25414681, -0.204982772
   2670,  -1.99292672, -0.177435905
   2671,   -1.7615205, -0.153033063
   2672,  -1.55652535, -0.131415397
   2673,  -1.37492692, -0.112265021
   2674,  -1.21405494, -0.0953003392
   2675,  -1.07154381, -0.0802718922
   2676, -0.945297956, -0.0669586882
   2677, -0.833460927, -0.0551649667
   2678, -0.734388173, -0.044717297
   2679, -0.646622956, -0.0354620554
   2680, -0.568874657, -0.027263144
   2681,  -5.31125355, -0.263684273
   2682,  -4.70111609, -0.231513396
   2683,  -4.16061544, -0.203014269
   2684,  -3.68180394, -0.177767843
   2685,   -3.2576406, -0.155402869
   2686,  -2.88188839, -0.135590479
   2687,   -2.5490222, -0.118039347
   2688,  -2.25414681, -0.102491386
   2689,  -1.99292672, -0.0887179524
   2690,   -1.7615205, -0.0765165314
   2691,  -1.55652535, -0.0657076985
   2692,  -1.37492692, -0.0561325103
   2693,  -1.21405494, -0.0476501696
   2694,  -1.07154381, -0.0401359461
   2695, -0.945297956, -0.0334793441
   2696, -0.833460927, -0.0275824834
   2697, -0.734388173, -0.0223586485
   2698, -0.646622956, -0.0177310277
   2699, -0.568874657, -0.013631572
   2700,  0.568874657, -0.013631572
   2701,  0.568874657, -0.027263144
   2702,  0.568874657, -0.040894717
   2703,  0.568874657, -0.0545262881
   2704,  0.568874657, -0.0681578591
   2705,  0.568874657, -0.081789434
   2706,  0.568874657, -0.0954210013
   2707,  0.568874657, -0.109052576
   2708,  0.568874657, -0.122684151
   2709,  0.568874657, -0.136315718
   2710,  0.568874657, -0.149947286
   2711,  0.568874657, -0.163578868
   2712,  0.568874657, -0.177210435
   2713,  0.568874657, -0.190842003
   2714,  0.568874657, -0.204473585
   2715,  0.568874657, -0.218105152
   2716,  0.568874657,  -0.23173672
   2717,  0.568874657, -0.245368302
   2718,  0.568874657, -0.258999854
   2719,  0.646622956, -0.0177310277
   2720,  0.646622956, -0.0354620554
   2721,  0.646622956, -0.0531930849
   2722,  0.646622956, -0.0709241107
   2723,  0.646622956, -0.0886551365
   2724,  0.646622956,  -0.10638617
   2725,  0.646622956, -0.124117196
   2726,  0.646622956, -0.141848221
   2727,  0.646622956, -0.159579247
   2728,  0.646622956, -0.177310273
   2729,  0.646622956, -0.195041314
   2730,  0.646622956,  -0.21277234
   2731,  0.646622956, -0.230503365
   2732,  0.646622956, -0.248234391
   2733,  0.646622956, -0.265965432
   2734,  0.646622956, -0.283696443
   2735,  0.646622956, -0.301427484
   2736,  0.646622956, -0.319158494
   2737,  0.646622956, -0.336889535
   2738,  0.734388173, -0.0223586485
   2739,  0.734388173, -0.044717297
   2740,  0.734388173, -0.0670759454
   2741,  0.734388173, -0.0894345939
   2742,  0.734388173,  -0.11179325
   2743,  0.734388173, -0.134151891
   2744,  0.734388173, -0.156510547
   2745,  0.734388173, -0.178869188
   2746,  0.734388173, -0.201227844
   2747,  0.734388173,   -0.2235865
   2748,  0.734388173, -0.245945141
   2749,  0.734388173, -0.268303782
   2750,  0.734388173, -0.290662438
   2751,  0.734388173, -0.313021094
   2752,  0.734388173,  -0.33537975
   2753,  0.734388173, -0.357738376
   2754,  0.734388173, -0.380097032
   2755,  0.734388173, -0.402455688
   2756,  0.734388173, -0.424814343
   2757,  0.833460927, -0.0275824834
   2758,  0.833460927, -0.0551649667
   2759,  0.833460927, -0.082747452
   2760,  0.833460927, -0.110329933
   2761,  0.833460927, -0.137912422
   2762,  0.833460927, -0.165494904
   2763,  0.833460927, -0.193077385
   2764,  0.833460927, -0.220659867
   2765,  0.833460927, -0.248242348
   2766,  0.833460927, -0.275824845
   2767,  0.833460927, -0.303407311
   2768,  0.833460927, -0.330989808
   2769,  0.833460927, -0.358572274
   2770,  0.833460927, -0.386154771
   2771,  0.833460927, -0.413737267
   2772,  0.833460927, -0.441319734
   2773,  0.833460927,  -0.46890223
   2774,  0.833460927, -0.496484697
   2775,  0.833460927, -0.524067163
   2776,  0.945297956, -0.0334793441
   2777,  0.945297956, -0.0669586882
   2778,  0.945297956, -0.100438036
   2779,  0.945297956, -0.133917376
   2780,  0.945297956, -0.167396724
   2781,  0.945297956, -0.200876072
   2782,  0.945297956,  -0.23435542
   2783,  0.945297956, -0.267834753
   2784,  0.945297956, -0.301314116
   2785,  0.945297956, -0.334793448
   2786,  0.945297956, -0.368272811
   2787,  0.945297956, -0.401752144
   2788,  0.945297956, -0.435231507
   2789,  0.945297956,  -0.46871084
   2790,  0.945297956, -0.502190173
   2791,  0.945297956, -0.535669506
   2792,  0.945297956, -0.569148898
   2793,  0.945297956, -0.602628231
   2794,  0.945297956, -0.636107564
   2795,   1.07154381, -0.0401359461
   2796,   1.07154381, -0.0802718922
   2797,   1.07154381, -0.120407842
   2798,   1.07154381, -0.160543784
   2799,   1.07154381, -0.200679734
   2800,   1.07154381, -0.240815684
   2801,   1.07154381, -0.280951619
   2802,   1.07154381, -0.321087569
   2803,   1.07154381, -0.361223519
   2804,   1.07154381, -0.401359469
   2805,   1.07154381, -0.441495419
   2806,   1.07154381, -0.481631368
   2807,   1.07154381, -0.521767318
   2808,   1.07154381, -0.561903238
   2809,   1.07154381, -0.602039218
   2810,   1.07154381, -0.642175138
   2811,   1.07154381, -0.682311118
   2812,   1.07154381, -0.722447038
   2813,   1.07154381, -0.762583017
   2814,   1.21405494, -0.0476501696
   2815,   1.21405494, -0.0953003392
   2816,   1.21405494,  -0.14295052
   2817,   1.21405494, -0.190600678
   2818,   1.21405494, -0.238250852
   2819,   1.21405494,  -0.28590104
   2820,   1.21405494, -0.333551198
   2821,   1.21405494, -0.381201357
   2822,   1.21405494, -0.428851545
   2823,   1.21405494, -0.476501703
   2824,   1.21405494, -0.524151862
   2825,   1.21405494,  -0.57180208
   2826,   1.21405494, -0.619452238
   2827,   1.21405494, -0.667102396
   2828,   1.21405494, -0.714752555
   2829,   1.21405494, -0.762402713
   2830,   1.21405494, -0.810052931
   2831,   1.21405494,  -0.85770309
   2832,   1.21405494, -0.905353248
   2833,   1.37492692, -0.0561325103
   2834,   1.37492692, -0.112265021
   2835,   1.37492692, -0.168397531
   2836,   1.37492692, -0.224530041
   2837,   1.37492692, -0.280662566
   2838,   1.37492692, -0.336795062
   2839,   1.37492692, -0.392927587
   2840,   1.37492692, -0.449060082
   2841,   1.37492692, -0.505192578
   2842,   1.37492692, -0.561325133
   2843,   1.37492692, -0.617457628
   2844,   1.37492692, -0.673590124
   2845,   1.37492692, -0.729722679
   2846,   1.37492692, -0.785855174
   2847,   1.37492692, -0.841987669
   2848,   1.37492692, -0.898120165
   2849,   1.37492692,  -0.95425272
   2850,   1.37492692,  -1.01038516
   2851,   1.37492692,  -1.06651771
   2852,   1.55652535, -0.0657076985
   2853,   1.55652535, -0.131415397
   2854,   1.55652535, -0.197123095
   2855,   1.55652535, -0.262830794
   2856,   1.55652535, -0.328538507
   2857,   1.55652535, -0.394246191
   2858,   1.55652535, -0.459953904
   2859,   1.55652535, -0.525661588
   2860,   1.55652535, -0.591369271
   2861,   1.55652535, -0.657077014
   2862,   1.55652535, -0.722784698
   2863,   1.55652535, -0.788492382
   2864,   1.55652535, -0.854200065
   2865,   1.55652535, -0.919907808
   2866,   1.55652535, -0.985615492
   2867,   1.55652535,  -1.05132318
   2868,   1.55652535,  -1.11703086
   2869,   1.55652535,  -1.18273854
   2870,   1.55652535,  -1.24844623
   2871,    1.7615205, -0.0765165314
   2872,    1.7615205, -0.153033063
   2873,    1.7615205, -0.229549602
   2874,    1.7615205, -0.306066126
   2875,    1.7615205, -0.382582664
   2876,    1.7615205, -0.459099203
   2877,    1.7615205, -0.535615742
   2878,    1.7615205, -0.612132251
   2879,    1.7615205,  -0.68864882
   2880,    1.7615205, -0.765165329
   2881,    1.7615205, -0.841681898
   2882,    1.7615205, -0.918198407
   2883,    1.7615205, -0.994714916
   2884,    1.7615205,  -1.07123148
   2885,    1.7615205,  -1.14774799
   2886,    1.7615205,   -1.2242645
   2887,    1.7615205,  -1.30078113
   2888,    1.7615205,  -1.37729764
   2889,    1.7615205,  -1.45381415
   2890,   1.99292672, -0.0887179524
   2891,   1.99292672, -0.177435905
   2892,   1.99292672, -0.266153872
   2893,   1.99292672, -0.354871809
   2894,   1.99292672, -0.443589777
   2895,   1.99292672, -0.532307744
   2896,   1.99292672, -0.621025681
   2897,   1.99292672, -0.709743619
   2898,   1.99292672, -0.798461616
   2899,   1.99292672, -0.887179554
   2900,   1.99292672, -0.975897491
   2901,   1.99292672,  -1.06461549
   2902,   1.99292672,  -1.15333343
   2903,   1.99292672,  -1.24205136
   2904,   1.99292672,   -1.3307693
   2905,   1.99292672,  -1.41948724
   2906,   1.99292672,  -1.50820529
   2907,   1.99292672,  -1.59692323
   2908,   1.99292672,  -1.68564117
   2909,   2.25414681, -0.102491386
   2910,   2.25414681, -0.204982772
   2911,   2.25414681, -0.307474136
   2912,   2.25414681, -0.409965545
   2913,   2.25414681, -0.512456894
   2914,   2.25414681, -0.614948273
   2915,   2.25414681, -0.717439711
   2916,   2.25414681,  -0.81993109
   2917,   2.25414681, -0.922422469
   2918,   2.25414681,  -1.02491379
   2919,   2.25414681,  -1.12740517
   2920,   2.25414681,  -1.22989655
   2921,   2.25414681,  -1.33238792
   2922,   2.25414681,  -1.43487942
   2923,   2.25414681,   -1.5373708
   2924,   2.25414681,  -1.63986218
   2925,   2.25414681,  -1.74235356
   2926,   2.25414681,  -1.84484494
   2927,   2.25414681,  -1.94733632
   2928,    2.5490222, -0.118039347
   2929,    2.5490222, -0.236078694
   2930,    2.5490222, -0.354118049
   2931,    2.5490222, -0.472157389
   2932,    2.5490222, -0.590196729
   2933,    2.5490222, -0.708236098
   2934,    2.5490222, -0.826275468
   2935,    2.5490222, -0.944314778
   2936,    2.5490222,  -1.06235421
   2937,    2.5490222,  -1.18039346
   2938,    2.5490222,  -1.29843283
   2939,    2.5490222,   -1.4164722
   2940,    2.5490222,  -1.53451157
   2941,    2.5490222,  -1.65255094
   2942,    2.5490222,  -1.77059031
   2943,    2.5490222,  -1.88862956
   2944,    2.5490222,  -2.00666904
   2945,    2.5490222,  -2.12470841
   2946,    2.5490222,  -2.24274755
   2947,   2.88188839, -0.135590479
   2948,   2.88188839, -0.271180958
   2949,   2.88188839, -0.406771451
   2950,   2.88188839, -0.542361915
   2951,   2.88188839, -0.677952409
   2952,   2.88188839, -0.813542902
   2953,   2.88188839, -0.949133396
   2954,   2.88188839,  -1.08472383
   2955,   2.88188839,  -1.22031438
   2956,   2.88188839,  -1.35590482
   2957,   2.88188839,  -1.49149537
   2958,   2.88188839,   -1.6270858
   2959,   2.88188839,  -1.76267624
   2960,   2.88188839,  -1.89826679
   2961,   2.88188839,  -2.03385735
   2962,   2.88188839,  -2.16944766
   2963,   2.88188839,  -2.30503821
   2964,   2.88188839,  -2.44062877
   2965,   2.88188839,  -2.57621908
   2966,    3.2576406, -0.155402869
   2967,    3.2576406, -0.310805738
   2968,    3.2576406, -0.466208607
   2969,    3.2576406, -0.621611476
   2970,    3.2576406, -0.777014375
   2971,    3.2576406, -0.932417214
   2972,    3.2576406,  -1.08782005
   2973,    3.2576406,  -1.24322295
   2974,    3.2576406,  -1.39862585
   2975,    3.2576406,  -1.55402875
   2976,    3.2576406,  -1.70943153
   2977,    3.2576406,  -1.86483443
   2978,    3.2576406,  -2.02023721
   2979,    3.2576406,  -2.17564011
   2980,    3.2576406,    -2.331043
   2981,    3.2576406,   -2.4864459
   2982,    3.2576406,   -2.6418488
   2983,    3.2576406,   -2.7972517
   2984,    3.2576406,   -2.9526546
   2985,   3.68180394, -0.177767843
   2986,   3.68180394, -0.355535686
   2987,   3.68180394, -0.533303499
   2988,   3.68180394, -0.711071372
   2989,   3.68180394, -0.888839185
   2990,   3.68180394,    -1.066607
   2991,   3.68180394,  -1.24437487
   2992,   3.68180394,  -1.42214274
   2993,   3.68180394,  -1.59991062
   2994,   3.68180394,  -1.77767837
   2995,   3.68180394,  -1.95544624
   2996,   3.68180394,    -2.133214
   2997,   3.68180394,  -2.31098199
   2998,   3.68180394,  -2.48874974
   2999,   3.68180394,   -2.6665175
   3000,   3.68180394,  -2.84428549
   3001,   3.68180394,  -3.02205324
   3002,   3.68180394,  -3.19982123
   3003,   3.68180394,  -3.37758899
   3004,   4.16061544, -0.203014269
   3005,   4.16061544, -0.406028539
   3006,   4.16061544, -0.609042823
   3007,   4.16061544, -0.812057078
   3008,   4.16061544,  -1.01507139
   3009,   4.16061544,  -1.21808565
   3010,   4.16061544,   -1.4210999
   3011,   4.16061544,  -1.62411416
   3012,   4.16061544,  -1.82712841
   3013,   4.16061544,  -2.03014278
   3014,   4.16061544,  -2.23315692
   3015,   4.16061544,  -2.43617129
   3016,   4.16061544,  -2.63918543
   3017,   4.16061544,   -2.8421998
   3018,   4.16061544,  -3.04521394
   3019,   4.16061544,  -3.24822831
   3020,   4.16061544,  -3.45124245
   3021,   4.16061544,  -3.65425682
   3022,   4.16061544,  -3.85727096
   3023,   4.70111609, -0.231513396
   3024,   4.70111609, -0.463026792
   3025,   4.70111609, -0.694540143
   3026,   4.70111609, -0.926053584
   3027,   4.70111609,  -1.15756691
   3028,   4.70111609,  -1.38908029
   3029,   4.70111609,  -1.62059379
   3030,   4.70111609,  -1.85210717
   3031,   4.70111609,  -2.08362055
   3032,   4.70111609,  -2.31513381
   3033,   4.70111609,  -2.54664731
   3034,   4.70111609,  -2.77816057
   3035,   4.70111609,  -3.00967407
   3036,   4.70111609,  -3.24118757
   3037,   4.70111609,  -3.47270083
   3038,   4.70111609,  -3.70421433
   3039,   4.70111609,   -3.9357276
   3040,   4.70111609,   -4.1672411
   3041,   4.70111609,   -4.3987546
   3042,   5.31125355, -0.263684273
   3043,   5.31125355, -0.527368546
   3044,   5.31125355, -0.791052818
   3045,   5.31125355,  -1.05473709
   3046,   5.31125355,  -1.31842136
   3047,   5.31125355,  -1.58210564
   3048,   5.31125355,  -1.84578991
   3049,   5.31125355,  -2.10947418
   3050,   5.31125355,  -2.37315845
   3051,   5.31125355,  -2.63684273
   3052,   5.31125355,    -2.900527
   3053,   5.31125355,  -3.16421127
   3054,   5.31125355,  -3.42789555
   3055,   5.31125355,  -3.69157982
   3056,   5.31125355,  -3.95526409
   3057,   5.31125355,  -4.21894836
   3058,   5.31125355,  -4.48263264
   3059,   5.31125355,  -4.74631691
   3060,   5.31125355,  -5.01000118
   3061,   0.49000001, -0.189999998
   3062,   0.49000001, -0.180000007
   3063,   0.49000001, -0.170000002
   3064,   0.49000001, -0.159999996
   3065,   0.49000001, -0.150000006
   3066,   0.49000001, -0.140000001
   3067,   0.49000001, -0.129999995
   3068,   0.49000001, -0.119999997
   3069,   0.49000001, -0.109999999
   3070,   0.49000001, -0.100000001
   3071,   0.49000001, -0.0900000036
   3072,   0.49000001, -0.0799999982
   3073,   0.49000001, -0.0700000003
   3074,   0.49000001, -0.0599999987
   3075,   0.49000001, -0.0500000007
   3076,   0.49000001, -0.0399999991
   3077,   0.49000001, -0.0299999993
   3078,   0.49000001, -0.0199999996
   3079,   0.49000001, -0.00999999978
   3080,  0.479999989, -0.189999998
   3081,  0.479999989, -0.180000007
   3082,  0.479999989, -0.170000002
   3083,  0.479999989, -0.159999996
   3084,  0.479999989, -0.150000006
   3085,  0.479999989, -0.140000001
   3086,  0.479999989, -0.129999995
   3087,  0.479999989, -0.119999997
   3088,  0.479999989, -0.109999999
   3089,  0.479999989, -0.100000001
   3090,  0.479999989, -0.0900000036
   3091,  0.479999989, -0.0799999982
   3092,  0.479999989, -0.0700000003
   3093,  0.479999989, -0.0599999987
   3094,  0.479999989, -0.0500000007
   3095,  0.479999989, -0.0399999991
   3096,  0.479999989, -0.0299999993
   3097,  0.479999989, -0.0199999996
   3098,  0.479999989, -0.00999999978
   3099,  0.469999999, -0.189999998
   3100,  0.469999999, -0.180000007
   3101,  0.469999999, -0.170000002
   3102,  0.469999999, -0.159999996
   3103,  0.469999999, -0.150000006
   3104,  0.469999999, -0.140000001
   3105,  0.469999999, -0.129999995
   3106,  0.469999999, -0.119999997
   3107,  0.469999999, -0.109999999
   3108,  0.469999999, -0.100000001
   3109,  0.469999999, -0.0900000036
   3110,  0.469999999, -0.0799999982
   3111,  0.469999999, -0.0700000003
   3112,  0.469999999, -0.0599999987
   3113,  0.469999999, -0.0500000007
   3114,  0.469999999, -0.0399999991
   3115,  0.469999999, -0.0299999993
   3116,  0.469999999, -0.0199999996
   3117,  0.469999999, -0.00999999978
   3118,  0.460000008, -0.189999998
   3119,  0.460000008, -0.180000007
   3120,  0.460000008, -0.170000002
   3121,  0.460000008, -0.159999996
   3122,  0.460000008, -0.150000006
   3123,  0.460000008, -0.140000001
   3124,  0.460000008, -0.129999995
   3125,  0.460000008, -0.119999997
   3126,  0.460000008, -0.109999999
   3127,  0.460000008, -0.100000001
   3128,  0.460000008, -0.0900000036
   3129,  0.460000008, -0.0799999982
   3130,  0.460000008, -0.0700000003
   3131,  0.460000008, -0.0599999987
   3132,  0.460000008, -0.0500000007
   3133,  0.460000008, -0.0399999991
   3134,  0.460000008, -0.0299999993
   3135,  0.460000008, -0.0199999996
   3136,  0.460000008, -0.00999999978
   3137,  0.449999988, -0.189999998
   3138,  0.449999988, -0.180000007
   3139,  0.449999988, -0.170000002
   3140,  0.449999988, -0.159999996
   3141,  0.449999988, -0.150000006
   3142,  0.449999988, -0.140000001
   3143,  0.449999988, -0.129999995
   3144,  0.449999988, -0.119999997
   3145,  0.449999988, -0.109999999
   3146,  0.449999988, -0.100000001
   3147,  0.449999988, -0.0900000036
   3148,  0.449999988, -0.0799999982
   3149,  0.449999988, -0.0700000003
   3150,  0.449999988, -0.0599999987
   3151,  0.449999988, -0.0500000007
   3152,  0.449999988, -0.0399999991
   3153,  0.449999988, -0.0299999993
   3154,  0.449999988, -0.0199999996
   3155,  0.449999988, -0.00999999978
   3156,  0.439999998, -0.189999998
   3157,  0.439999998, -0.180000007
   3158,  0.439999998, -0.170000002
   3159,  0.439999998, -0.159999996
   3160,  0.439999998, -0.150000006
   3161,  0.439999998, -0.140000001
   3162,  0.439999998, -0.129999995
   3163,  0.439999998, -0.119999997
   3164,  0.439999998, -0.109999999
   3165,  0.439999998, -0.100000001
   3166,  0.439999998, -0.0900000036
   3167,  0.439999998, -0.0799999982
   3168,  0.439999998, -0.0700000003
   3169,  0.439999998, -0.0599999987
   3170,  0.439999998, -0.0500000007
   3171,  0.439999998, -0.0399999991
   3172,  0.439999998, -0.0299999993
   3173,  0.439999998, -0.0199999996
   3174,  0.439999998, -0.00999999978
   3175,  0.430000007, -0.189999998
   3176,  0.430000007, -0.180000007
   3177,  0.430000007, -0.170000002
   3178,  0.430000007, -0.159999996
   3179,  0.430000007, -0.150000006
   3180,  0.430000007, -0.140000001
   3181,  0.430000007, -0.129999995
   3182,  0.430000007, -0.119999997
   3183,  0.430000007, -0.109999999
   3184,  0.430000007, -0.100000001
   3185,  0.430000007, -0.0900000036
   3186,  0.430000007, -0.0799999982
   3187,  0.430000007, -0.0700000003
   3188,  0.430000007, -0.0599999987
   3189,  0.430000007, -0.0500000007
   3190,  0.430000007, -0.0399999991
   3191,  0.430000007, -0.0299999993
   3192,  0.430000007, -0.0199999996
   3193,  0.430000007, -0.00999999978
   3194,  0.419999987, -0.189999998
   3195,  0.419999987, -0.180000007
   3196,  0.419999987, -0.170000002
   3197,  0.419999987, -0.159999996
   3198,  0.419999987, -0.150000006
   3199,  0.419999987, -0.140000001
   3200,  0.419999987, -0.129999995
   3201,  0.419999987, -0.119999997
   3202,  0.419999987, -0.109999999
   3203,  0.419999987, -0.100000001
   3204,  0.419999987, -0.0900000036
   3205,  0.419999987, -0.0799999982
   3206,  0.419999987, -0.0700000003
   3207,  0.419999987, -0.0599999987
   3208,  0.419999987, -0.0500000007
   3209,  0.419999987, -0.0399999991
   3210,  0.419999987, -0.0299999993
   3211,  0.419999987, -0.0199999996
   3212,  0.419999987, -0.00999999978
   3213,  0.409999996, -0.189999998
   3214,  0.409999996, -0.180000007
   3215,  0.409999996, -0.170000002
   3216,  0.409999996, -0.159999996
   3217,  0.409999996, -0.150000006
   3218,  0.409999996, -0.140000001
   3219,  0.409999996, -0.129999995
   3220,  0.409999996, -0.119999997
   3221,  0.409999996, -0.109999999
   3222,  0.409999996, -0.100000001
   3223,  0.409999996, -0.0900000036
   3224,  0.409999996, -0.0799999982
   3225,  0.409999996, -0.0700000003
   3226,  0.409999996, -0.0599999987
   3227,  0.409999996, -0.0500000007
   3228,  0.409999996, -0.0399999991
   3229,  0.409999996, -0.0299999993
   3230,  0.409999996, -0.0199999996
   3231,  0.409999996, -0.00999999978
   3232,  0.400000006, -0.189999998
   3233,  0.400000006, -0.180000007
   3234,  0.400000006, -0.170000002
   3235,  0.400000006, -0.159999996
   3236,  0.400000006, -0.150000006
   3237,  0.400000006, -0.140000001
   3238,  0.400000006, -0.129999995
   3239,  0.400000006, -0.119999997
   3240,  0.400000006, -0.109999999
   3241,  0.400000006, -0.100000001
   3242,  0.400000006, -0.0900000036
   3243,  0.400000006, -0.0799999982
   3244,  0.400000006, -0.0700000003
   3245,  0.400000006, -0.0599999987
   3246,  0.400000006, -0.0500000007
   3247,  0.400000006, -0.0399999991
   3248,  0.400000006, -0.0299999993
   3249,  0.400000006, -0.0199999996
   3250,  0.400000006, -0.00999999978
   3251,  0.389999986, -0.189999998
   3252,  0.389999986, -0.180000007
   3253,  0.389999986, -0.170000002
   3254,  0.389999986, -0.159999996
   3255,  0.389999986, -0.150000006
   3256,  0.389999986, -0.140000001
   3257,  0.389999986, -0.129999995
   3258,  0.389999986, -0.119999997
   3259,  0.389999986, -0.109999999
   3260,  0.389999986, -0.100000001
   3261,  0.389999986, -0.0900000036
   3262,  0.389999986, -0.0799999982
   3263,  0.389999986, -0.0700000003
   3264,  0.389999986, -0.0599999987
   3265,  0.389999986, -0.0500000007
   3266,  0.389999986, -0.0399999991
   3267,  0.389999986, -0.0299999993
   3268,  0.389999986, -0.0199999996
   3269,  0.389999986, -0.00999999978
   3270,  0.379999995, -0.189999998
   3271,  0.379999995, -0.180000007
   3272,  0.379999995, -0.170000002
   3273,  0.379999995, -0.159999996
   3274,  0.379999995, -0.150000006
   3275,  0.379999995, -0.140000001
   3276,  0.379999995, -0.129999995
   3277,  0.379999995, -0.119999997
   3278,  0.379999995, -0.109999999
   3279,  0.379999995, -0.100000001
   3280,  0.379999995, -0.0900000036
   3281,  0.379999995, -0.0799999982
   3282,  0.379999995, -0.0700000003
   3283,  0.379999995, -0.0599999987
   3284,  0.379999995, -0.0500000007
   3285,  0.379999995, -0.0399999991
   3286,  0.379999995, -0.0299999993
   3287,  0.379999995, -0.0199999996
   3288,  0.379999995, -0.00999999978
   3289,  0.370000005, -0.189999998
   3290,  0.370000005, -0.180000007
   3291,  0.370000005, -0.170000002
   3292,  0.370000005, -0.159999996
   3293,  0.370000005, -0.150000006
   3294,  0.370000005, -0.140000001
   3295,  0.370000005, -0.129999995
   3296,  0.370000005, -0.119999997
   3297,  0.370000005, -0.109999999
   3298,  0.370000005, -0.100000001
   3299,  0.370000005, -0.0900000036
   3300,  0.370000005, -0.0799999982
   3301,  0.370000005, -0.0700000003
   3302,  0.370000005, -0.0599999987
   3303,  0.370000005, -0.0500000007
   3304,  0.370000005, -0.0399999991
   3305,  0.370000005, -0.0299999993
   3306,  0.370000005, -0.0199999996
   3307,  0.370000005, -0.00999999978
   3308,  0.360000014, -0.189999998
   3309,  0.360000014, -0.180000007
   3310,  0.360000014, -0.170000002
   3311,  0.360000014, -0.159999996
   3312,  0.360000014, -0.150000006
   3313,  0.360000014, -0.140000001
   3314,  0.360000014, -0.129999995
   3315,  0.360000014, -0.119999997
   3316,  0.360000014, -0.109999999
   3317,  0.360000014, -0.100000001
   3318,  0.360000014, -0.0900000036
   3319,  0.360000014, -0.0799999982
   3320,  0.360000014, -0.0700000003
   3321,  0.360000014, -0.0599999987
   3322,  0.360000014, -0.0500000007
   3323,  0.360000014, -0.0399999991
   3324,  0.360000014, -0.0299999993
   3325,  0.360000014, -0.0199999996
   3326,  0.360000014, -0.00999999978
   3327,  0.349999994, -0.189999998
   3328,  0.349999994, -0.180000007
   3329,  0.349999994, -0.170000002
   3330,  0.349999994, -0.159999996
   3331,  0.349999994, -0.150000006
   3332,  0.349999994, -0.140000001
   3333,  0.349999994, -0.129999995
   3334,  0.349999994, -0.119999997
   3335,  0.349999994, -0.109999999
   3336,  0.349999994, -0.100000001
   3337,  0.349999994, -0.0900000036
   3338,  0.349999994, -0.0799999982
   3339,  0.349999994, -0.0700000003
   3340,  0.349999994, -0.0599999987
   3341,  0.349999994, -0.0500000007
   3342,  0.349999994, -0.0399999991
   3343,  0.349999994, -0.0299999993
   3344,  0.349999994, -0.0199999996
   3345,  0.349999994, -0.00999999978
   3346,  0.340000004, -0.189999998
   3347,  0.340000004, -0.180000007
   3348,  0.340000004, -0.170000002
   3349,  0.340000004, -0.159999996
   3350,  0.340000004, -0.150000006
   3351,  0.340000004, -0.140000001
   3352,  0.340000004, -0.129999995
   3353,  0.340000004, -0.119999997
   3354,  0.340000004, -0.109999999
   3355,  0.340000004, -0.100000001
   3356,  0.340000004, -0.0900000036
   3357,  0.340000004, -0.0799999982
   3358,  0.340000004, -0.0700000003
   3359,  0.340000004, -0.0599999987
   3360,  0.340000004, -0.0500000007
   3361,  0.340000004, -0.0399999991
   3362,  0.340000004, -0.0299999993
   3363,  0.340000004, -0.0199999996
   3364,  0.340000004, -0.00999999978
   3365,  0.330000013, -0.189999998
   3366,  0.330000013, -0.180000007
   3367,  0.330000013, -0.170000002
   3368,  0.330000013, -0.159999996
   3369,  0.330000013, -0.150000006
   3370,  0.330000013, -0.140000001
   3371,  0.330000013, -0.129999995
   3372,  0.330000013, -0.119999997
   3373,  0.330000013, -0.109999999
   3374,  0.330000013, -0.100000001
   3375,  0.330000013, -0.0900000036
   3376,  0.330000013, -0.0799999982
   3377,  0.330000013, -0.0700000003
   3378,  0.330000013, -0.0599999987
   3379,  0.330000013, -0.0500000007
   3380,  0.330000013, -0.0399999991
   3381,  0.330000013, -0.0299999993
   3382,  0.330000013, -0.0199999996
   3383,  0.330000013, -0.00999999978
   3384,  0.319999993, -0.189999998
   3385,  0.319999993, -0.180000007
   3386,  0.319999993, -0.170000002
   3387,  0.319999993, -0.159999996
   3388,  0.319999993, -0.150000006
   3389,  0.319999993, -0.140000001
   3390,  0.319999993, -0.129999995
   3391,  0.319999993, -0.119999997
   3392,  0.319999993, -0.109999999
   3393,  0.319999993, -0.100000001
   3394,  0.319999993, -0.0900000036
   3395,  0.319999993, -0.0799999982
   3396,  0.319999993, -0.0700000003
   3397,  0.319999993, -0.0599999987
   3398,  0.319999993, -0.0500000007
   3399,  0.319999993, -0.0399999991
   3400,  0.319999993, -0.0299999993
   3401,  0.319999993, -0.0199999996
   3402,  0.319999993, -0.00999999978
   3403,  0.310000002, -0.189999998
   3404,  0.310000002, -0.180000007
   3405,  0.310000002, -0.170000002
   3406,  0.310000002, -0.159999996
   3407,  0.310000002, -0.150000006
   3408,  0.310000002, -0.140000001
   3409,  0.310000002, -0.129999995
   3410,  0.310000002, -0.119999997
   3411,  0.310000002, -0.109999999
   3412,  0.310000002, -0.100000001
   3413,  0.310000002, -0.0900000036
   3414,  0.310000002, -0.0799999982
   3415,  0.310000002, -0.0700000003
   3416,  0.310000002, -0.0599999987
   3417,  0.310000002, -0.0500000007
   3418,  0.310000002, -0.0399999991
   3419,  0.310000002, -0.0299999993
   3420,  0.310000002, -0.0199999996
   3421,  0.310000002, -0.00999999978
   3422,  0.300000012, -0.189999998
   3423,  0.300000012, -0.180000007
   3424,  0.300000012, -0.170000002
   3425,  0.300000012, -0.159999996
   3426,  0.300000012, -0.150000006
   3427,  0.300000012, -0.140000001
   3428,  0.300000012, -0.129999995
   3429,  0.300000012, -0.119999997
   3430,  0.300000012, -0.109999999
   3431,  0.300000012, -0.100000001
   3432,  0.300000012, -0.0900000036
   3433,  0.300000012, -0.0799999982
   3434,  0.300000012, -0.0700000003
   3435,  0.300000012, -0.0599999987
   3436,  0.300000012, -0.0500000007
   3437,  0.300000012, -0.0399999991
   3438,  0.300000012, -0.0299999993
   3439,  0.300000012, -0.0199999996
   3440,  0.300000012, -0.00999999978
   3441,  0.289999992, -0.189999998
   3442,  0.289999992, -0.180000007
   3443,  0.289999992, -0.170000002
   3444,  0.289999992, -0.159999996
   3445,  0.289999992, -0.150000006
   3446,  0.289999992, -0.140000001
   3447,  0.289999992, -0.129999995
   3448,  0.289999992, -0.119999997
   3449,  0.289999992, -0.109999999
   3450,  0.289999992, -0.100000001
   3451,  0.289999992, -0.0900000036
   3452,  0.289999992, -0.0799999982
   3453,  0.289999992, -0.0700000003
   3454,  0.289999992, -0.0599999987
   3455,  0.289999992, -0.0500000007
   3456,  0.289999992, -0.0399999991
   3457,  0.289999992, -0.0299999993
   3458,  0.289999992, -0.0199999996
   3459,  0.289999992, -0.00999999978
   3460,  0.280000001, -0.189999998
   3461,  0.280000001, -0.180000007
   3462,  0.280000001, -0.170000002
   3463,  0.280000001, -0.159999996
   3464,  0.280000001, -0.150000006
   3465,  0.280000001, -0.140000001
   3466,  0.280000001, -0.129999995
   3467,  0.280000001, -0.119999997
   3468,  0.280000001, -0.109999999
   3469,  0.280000001, -0.100000001
   3470,  0.280000001, -0.0900000036
   3471,  0.280000001, -0.0799999982
   3472,  0.280000001, -0.0700000003
   3473,  0.280000001, -0.0599999987
   3474,  0.280000001, -0.0500000007
   3475,  0.280000001, -0.0399999991
   3476,  0.280000001, -0.0299999993
   3477,  0.280000001, -0.0199999996
   3478,  0.280000001, -0.00999999978
   3479,  0.270000011, -0.189999998
   3480,  0.270000011, -0.180000007
   3481,  0.270000011, -0.170000002
   3482,  0.270000011, -0.159999996
   3483,  0.270000011, -0.150000006
   3484,  0.270000011, -0.140000001
   3485,  0.270000011, -0.129999995
   3486,  0.270000011, -0.119999997
   3487,  0.270000011, -0.109999999
   3488,  0.270000011, -0.100000001
   3489,  0.270000011, -0.0900000036
   3490,  0.270000011, -0.0799999982
   3491,  0.270000011, -0.0700000003
   3492,  0.270000011, -0.0599999987
   3493,  0.270000011, -0.0500000007
   3494,  0.270000011, -0.0399999991
   3495,  0.270000011, -0.0299999993
   3496,  0.270000011, -0.0199999996
   3497,  0.270000011, -0.00999999978
   3498,   0.25999999, -0.189999998
   3499,   0.25999999, -0.180000007
   3500,   0.25999999, -0.170000002
   3501,   0.25999999, -0.159999996
   3502,   0.25999999, -0.150000006
   3503,   0.25999999, -0.140000001
   3504,   0.25999999, -0.129999995
   3505,   0.25999999, -0.119999997
   3506,   0.25999999, -0.109999999
   3507,   0.25999999, -0.100000001
   3508,   0.25999999, -0.0900000036
   3509,   0.25999999, -0.0799999982
   3510,   0.25999999, -0.0700000003
   3511,   0.25999999, -0.0599999987
   3512,   0.25999999, -0.0500000007
   3513,   0.25999999, -0.0399999991
   3514,   0.25999999, -0.0299999993
   3515,   0.25999999, -0.0199999996
   3516,   0.25999999, -0.00999999978
   3517,         0.25, -0.189999998
   3518,         0.25, -0.180000007
   3519,         0.25, -0.170000002
   3520,         0.25, -0.159999996
   3521,         0.25, -0.150000006
   3522,         0.25, -0.140000001
   3523,         0.25, -0.129999995
   3524,         0.25, -0.119999997
   3525,         0.25, -0.109999999
   3526,         0.25, -0.100000001
   3527,         0.25, -0.0900000036
   3528,         0.25, -0.0799999982
   3529,         0.25, -0.0700000003
   3530,         0.25, -0.0599999987
   3531,         0.25, -0.0500000007
   3532,         0.25, -0.0399999991
   3533,         0.25, -0.0299999993
   3534,         0.25, -0.0199999996
   3535,         0.25, -0.00999999978
   3536,  0.239999995, -0.189999998
   3537,  0.239999995, -0.180000007
   3538,  0.239999995, -0.170000002
   3539,  0.239999995, -0.159999996
   3540,  0.239999995, -0.150000006
   3541,  0.239999995, -0.140000001
   3542,  0.239999995, -0.129999995
   3543,  0.239999995, -0.119999997
   3544,  0.239999995, -0.109999999
   3545,  0.239999995, -0.100000001
   3546,  0.239999995, -0.0900000036
   3547,  0.239999995, -0.0799999982
   3548,  0.239999995, -0.0700000003
   3549,  0.239999995, -0.0599999987
   3550,  0.239999995, -0.0500000007
   3551,  0.239999995, -0.0399999991
   3552,  0.239999995, -0.0299999993
   3553,  0.239999995, -0.0199999996
   3554,  0.239999995, -0.00999999978
   3555,  0.230000004, -0.189999998
   3556,  0.230000004, -0.180000007
   3557,  0.230000004, -0.170000002
   3558,  0.230000004, -0.159999996
   3559,  0.230000004, -0.150000006
   3560,  0.230000004, -0.140000001
   3561,  0.230000004, -0.129999995
   3562,  0.230000004, -0.119999997
   3563,  0.230000004, -0.109999999
   3564,  0.230000004, -0.100000001
   3565,  0.230000004, -0.0900000036
   3566,  0.230000004, -0.0799999982
   3567,  0.230000004, -0.0700000003
   3568,  0.230000004, -0.0599999987
   3569,  0.230000004, -0.0500000007
   3570,  0.230000004, -0.0399999991
   3571,  0.230000004, -0.0299999993
   3572,  0.230000004, -0.0199999996
   3573,  0.230000004, -0.00999999978
   3574,  0.219999999, -0.189999998
   3575,  0.219999999, -0.180000007
   3576,  0.219999999, -0.170000002
   3577,  0.219999999, -0.159999996
   3578,  0.219999999, -0.150000006
   3579,  0.219999999, -0.140000001
   3580,  0.219999999, -0.129999995
   3581,  0.219999999, -0.119999997
   3582,  0.219999999, -0.109999999
   3583,  0.219999999, -0.100000001
   3584,  0.219999999, -0.0900000036
   3585,  0.219999999, -0.0799999982
   3586,  0.219999999, -0.0700000003
   3587,  0.219999999, -0.0599999987
   3588,  0.219999999, -0.0500000007
   3589,  0.219999999, -0.0399999991
   3590,  0.219999999, -0.0299999993
   3591,  0.219999999, -0.0199999996
   3592,  0.219999999, -0.00999999978
   3593,  0.209999993, -0.189999998
   3594,  0.209999993, -0.180000007
   3595,  0.209999993, -0.170000002
   3596,  0.209999993, -0.159999996
   3597,  0.209999993, -0.150000006
   3598,  0.209999993, -0.140000001
   3599,  0.209999993, -0.129999995
   3600,  0.209999993, -0.119999997
   3601,  0.209999993, -0.109999999
   3602,  0.209999993, -0.100000001
   3603,  0.209999993, -0.0900000036
   3604,  0.209999993, -0.0799999982
   3605,  0.209999993, -0.0700000003
   3606,  0.209999993, -0.0599999987
   3607,  0.209999993, -0.0500000007
   3608,  0.209999993, -0.0399999991
   3609,  0.209999993, -0.0299999993
   3610,  0.209999993, -0.0199999996
   3611,  0.209999993, -0.00999999978
   3612,  0.200000003, -0.189999998
   3613,  0.200000003, -0.180000007
   3614,  0.200000003, -0.170000002
   3615,  0.200000003, -0.159999996
   3616,  0.200000003, -0.150000006
   3617,  0.200000003, -0.140000001
   3618,  0.200000003, -0.129999995
   3619,  0.200000003, -0.119999997
   3620,  0.200000003, -0.109999999
   3621,  0.200000003, -0.100000001
   3622,  0.200000003, -0.0900000036
   3623,  0.200000003, -0.0799999982
   3624,  0.200000003, -0.0700000003
   3625,  0.200000003, -0.0599999987
   3626,  0.200000003, -0.0500000007
   3627,  0.200000003, -0.0399999991
   3628,  0.200000003, -0.0299999993
   3629,  0.200000003, -0.0199999996
   3630,  0.200000003, -0.00999999978
   3631,  0.189999998, -0.189999998
   3632,  0.189999998, -0.180000007
   3633,  0.189999998, -0.170000002
   3634,  0.189999998, -0.159999996
   3635,  0.189999998, -0.150000006
   3636,  0.189999998, -0.140000001
   3637,  0.189999998, -0.129999995
   3638,  0.189999998, -0.119999997
   3639,  0.189999998, -0.109999999
   3640,  0.189999998, -0.100000001
   3641,  0.189999998, -0.0900000036
   3642,  0.189999998, -0.0799999982
   3643,  0.189999998, -0.0700000003
   3644,  0.189999998, -0.0599999987
   3645,  0.189999998, -0.0500000007
   3646,  0.189999998, -0.0399999991
   3647,  0.189999998, -0.0299999993
   3648,  0.189999998, -0.0199999996
   3649,  0.189999998, -0.00999999978
   3650,  0.180000007, -0.189999998
   3651,  0.180000007, -0.180000007
   3652,  0.180000007, -0.170000002
   3653,  0.180000007, -0.159999996
   3654,  0.180000007, -0.150000006
   3655,  0.180000007, -0.140000001
   3656,  0.180000007, -0.129999995
   3657,  0.180000007, -0.119999997
   3658,  0.180000007, -0.109999999
   3659,  0.180000007, -0.100000001
   3660,  0.180000007, -0.0900000036
   3661,  0.180000007, -0.0799999982
   3662,  0.180000007, -0.0700000003
   3663,  0.180000007, -0.0599999987
   3664,  0.180000007, -0.0500000007
   3665,  0.180000007, -0.0399999991
   3666,  0.180000007, -0.0299999993
   3667,  0.180000007, -0.0199999996
   3668,  0.180000007, -0.00999999978
   3669,  0.170000002, -0.189999998
   3670,  0.170000002, -0.180000007
   3671,  0.170000002, -0.170000002
   3672,  0.170000002, -0.159999996
   3673,  0.170000002, -0.150000006
   3674,  0.170000002, -0.140000001
   3675,  0.170000002, -0.129999995
   3676,  0.170000002, -0.119999997
   3677,  0.170000002, -0.109999999
   3678,  0.170000002, -0.100000001
   3679,  0.170000002, -0.0900000036
   3680,  0.170000002, -0.0799999982
   3681,  0.170000002, -0.0700000003
   3682,  0.170000002, -0.0599999987
   3683,  0.170000002, -0.0500000007
   3684,  0.170000002, -0.0399999991
   3685,  0.170000002, -0.0299999993
   3686,  0.170000002, -0.0199999996
   3687,  0.170000002, -0.00999999978
   3688,  0.159999996, -0.189999998
   3689,  0.159999996, -0.180000007
   3690,  0.159999996, -0.170000002
   3691,  0.159999996, -0.159999996
   3692,  0.159999996, -0.150000006
   3693,  0.159999996, -0.140000001
   3694,  0.159999996, -0.129999995
   3695,  0.159999996, -0.119999997
   3696,  0.159999996, -0.109999999
   3697,  0.159999996, -0.100000001
   3698,  0.159999996, -0.0900000036
   3699,  0.159999996, -0.0799999982
   3700,  0.159999996, -0.0700000003
   3701,  0.159999996, -0.0599999987
   3702,  0.159999996, -0.0500000007
   3703,  0.159999996, -0.0399999991
   3704,  0.159999996, -0.0299999993
   3705,  0.159999996, -0.0199999996
   3706,  0.159999996, -0.00999999978
   3707,  0.150000006, -0.189999998
   3708,  0.150000006, -0.180000007
   3709,  0.150000006, -0.170000002
   3710,  0.150000006, -0.159999996
   3711,  0.150000006, -0.150000006
   3712,  0.150000006, -0.140000001
   3713,  0.150000006, -0.129999995
   3714,  0.150000006, -0.119999997
   3715,  0.150000006, -0.109999999
   3716,  0.150000006, -0.100000001
   3717,  0.150000006, -0.0900000036
   3718,  0.150000006, -0.0799999982
   3719,  0.150000006, -0.0700000003
   3720,  0.150000006, -0.0599999987
   3721,  0.150000006, -0.0500000007
   3722,  0.150000006, -0.0399999991
   3723,  0.150000006, -0.0299999993
   3724,  0.150000006, -0.0199999996
   3725,  0.150000006, -0.00999999978
   3726,  0.140000001, -0.189999998
   3727,  0.140000001, -0.180000007
   3728,  0.140000001, -0.170000002
   3729,  0.140000001, -0.159999996
   3730,  0.140000001, -0.150000006
   3731,  0.140000001, -0.140000001
   3732,  0.140000001, -0.129999995
   3733,  0.140000001, -0.119999997
   3734,  0.140000001, -0.109999999
   3735,  0.140000001, -0.100000001
   3736,  0.140000001, -0.0900000036
   3737,  0.140000001, -0.0799999982
   3738,  0.140000001, -0.0700000003
   3739,  0.140000001, -0.0599999987
   3740,  0.140000001, -0.0500000007
   3741,  0.140000001, -0.0399999991
   3742,  0.140000001, -0.0299999993
   3743,  0.140000001, -0.0199999996
   3744,  0.140000001, -0.00999999978
   3745,  0.129999995, -0.189999998
   3746,  0.129999995, -0.180000007
   3747,  0.129999995, -0.170000002
   3748,  0.129999995, -0.159999996
   3749,  0.129999995, -0.150000006
   3750,  0.129999995, -0.140000001
   3751,  0.129999995, -0.129999995
   3752,  0.129999995, -0.119999997
   3753,  0.129999995, -0.109999999
   3754,  0.129999995, -0.100000001
   3755,  0.129999995, -0.0900000036
   3756,  0.129999995, -0.0799999982
   3757,  0.129999995, -0.0700000003
   3758,  0.129999995, -0.0599999987
   3759,  0.129999995, -0.0500000007
   3760,  0.129999995, -0.0399999991
   3761,  0.129999995, -0.0299999993
   3762,  0.129999995, -0.0199999996
   3763,  0.129999995, -0.00999999978
   3764,  0.119999997, -0.189999998
   3765,  0.119999997, -0.180000007
   3766,  0.119999997, -0.170000002
   3767,  0.119999997, -0.159999996
   3768,  0.119999997, -0.150000006
   3769,  0.119999997, -0.140000001
   3770,  0.119999997, -0.129999995
   3771,  0.119999997, -0.119999997
   3772,  0.119999997, -0.109999999
   3773,  0.119999997, -0.100000001
   3774,  0.119999997, -0.0900000036
   3775,  0.119999997, -0.0799999982
   3776,  0.119999997, -0.0700000003
   3777,  0.119999997, -0.0599999987
   3778,  0.119999997, -0.0500000007
   3779,  0.119999997, -0.0399999991
   3780,  0.119999997, -0.0299999993
   3781,  0.119999997, -0.0199999996
   3782,  0.119999997, -0.00999999978
   3783,  0.109999999, -0.189999998
   3784,  0.109999999, -0.180000007
   3785,  0.109999999, -0.170000002
   3786,  0.109999999, -0.159999996
   3787,  0.109999999, -0.150000006
   3788,  0.109999999, -0.140000001
   3789,  0.109999999, -0.129999995
   3790,  0.109999999, -0.119999997
   3791,  0.109999999, -0.109999999
   3792,  0.109999999, -0.100000001
   3793,  0.109999999, -0.0900000036
   3794,  0.109999999, -0.0799999982
   3795,  0.109999999, -0.0700000003
   3796,  0.109999999, -0.0599999987
   3797,  0.109999999, -0.0500000007
   3798,  0.109999999, -0.0399999991
   3799,  0.109999999, -0.0299999993
   3800,  0.109999999, -0.0199999996
   3801,  0.109999999, -0.00999999978
   3802,  0.100000001, -0.189999998
   3803,  0.100000001, -0.180000007
   3804,  0.100000001, -0.170000002
   3805,  0.100000001, -0.159999996
   3806,  0.100000001, -0.150000006
   3807,  0.100000001, -0.140000001
   3808,  0.100000001, -0.129999995
   3809,  0.100000001, -0.119999997
   3810,  0.100000001, -0.109999999
   3811,  0.100000001, -0.100000001
   3812,  0.100000001, -0.0900000036
   3813,  0.100000001, -0.0799999982
   3814,  0.100000001, -0.0700000003
   3815,  0.100000001, -0.0599999987
   3816,  0.100000001, -0.0500000007
   3817,  0.100000001, -0.0399999991
   3818,  0.100000001, -0.0299999993
   3819,  0.100000001, -0.0199999996
   3820,  0.100000001, -0.00999999978
   3821, 0.0900000036, -0.189999998
   3822, 0.0900000036, -0.180000007
   3823, 0.0900000036, -0.170000002
   3824, 0.0900000036, -0.159999996
   3825, 0.0900000036, -0.150000006
   3826, 0.0900000036, -0.140000001
   3827, 0.0900000036, -0.129999995
   3828, 0.0900000036, -0.119999997
   3829, 0.0900000036, -0.109999999
   3830, 0.0900000036, -0.100000001
   3831, 0.0900000036, -0.0900000036
   3832, 0.0900000036, -0.0799999982
   3833, 0.0900000036, -0.0700000003
   3834, 0.0900000036, -0.0599999987
   3835, 0.0900000036, -0.0500000007
   3836, 0.0900000036, -0.0399999991
   3837, 0.0900000036, -0.0299999993
   3838, 0.0900000036, -0.0199999996
   3839, 0.0900000036, -0.00999999978
   3840, 0.0799999982, -0.189999998
   3841, 0.0799999982, -0.180000007
   3842, 0.0799999982, -0.170000002
   3843, 0.0799999982, -0.159999996
   3844, 0.0799999982, -0.150000006
   3845, 0.0799999982, -0.140000001
   3846, 0.0799999982, -0.129999995
   3847, 0.0799999982, -0.119999997
   3848, 0.0799999982, -0.109999999
   3849, 0.0799999982, -0.100000001
   3850, 0.0799999982, -0.0900000036
   3851, 0.0799999982, -0.0799999982
   3852, 0.0799999982, -0.0700000003
   3853, 0.0799999982, -0.0599999987
   3854, 0.0799999982, -0.0500000007
   3855, 0.0799999982, -0.0399999991
   3856, 0.0799999982, -0.0299999993
   3857, 0.0799999982, -0.0199999996
   3858, 0.0799999982, -0.00999999978
   3859, 0.0700000003, -0.189999998
   3860, 0.0700000003, -0.180000007
   3861, 0.0700000003, -0.170000002
   3862, 0.0700000003, -0.159999996
   3863, 0.0700000003, -0.150000006
   3864, 0.0700000003, -0.140000001
   3865, 0.0700000003, -0.129999995
   3866, 0.0700000003, -0.119999997
   3867, 0.0700000003, -0.109999999
   3868, 0.0700000003, -0.100000001
   3869, 0.0700000003, -0.0900000036
   3870, 0.0700000003, -0.0799999982
   3871, 0.0700000003, -0.0700000003
   3872, 0.0700000003, -0.0599999987
   3873, 0.0700000003, -0.0500000007
   3874, 0.0700000003, -0.0399999991
   3875, 0.0700000003, -0.0299999993
   3876, 0.0700000003, -0.0199999996
   3877, 0.0700000003, -0.00999999978
   3878, 0.0599999987, -0.189999998
   3879, 0.0599999987, -0.180000007
   3880, 0.0599999987, -0.170000002
   3881, 0.0599999987, -0.159999996
   3882, 0.0599999987, -0.150000006
   3883, 0.0599999987, -0.140000001
   3884, 0.0599999987, -0.129999995
   3885, 0.0599999987, -0.119999997
   3886, 0.0599999987, -0.109999999
   3887, 0.0599999987, -0.100000001
   3888, 0.0599999987, -0.0900000036
   3889, 0.0599999987, -0.0799999982
   3890, 0.0599999987, -0.0700000003
   3891, 0.0599999987, -0.0599999987
   3892, 0.0599999987, -0.0500000007
   3893, 0.0599999987, -0.0399999991
   3894, 0.0599999987, -0.0299999993
   3895, 0.0599999987, -0.0199999996
   3896, 0.0599999987, -0.00999999978
   3897, 0.0500000007, -0.189999998
   3898, 0.0500000007, -0.180000007
   3899, 0.0500000007, -0.170000002
   3900, 0.0500000007, -0.159999996
   3901, 0.0500000007, -0.150000006
   3902, 0.0500000007, -0.140000001
   3903, 0.0500000007, -0.129999995
   3904, 0.0500000007, -0.119999997
   3905, 0.0500000007, -0.109999999
   3906, 0.0500000007, -0.100000001
   3907, 0.0500000007, -0.0900000036
   3908, 0.0500000007, -0.0799999982
   3909, 0.0500000007, -0.0700000003
   3910, 0.0500000007, -0.0599999987
   3911, 0.0500000007, -0.0500000007
   3912, 0.0500000007, -0.0399999991
   3913, 0.0500000007, -0.0299999993
   3914, 0.0500000007, -0.0199999996
   3915, 0.0500000007, -0.00999999978
   3916, 0.0399999991, -0.189999998
   3917, 0.0399999991, -0.180000007
   3918, 0.0399999991, -0.170000002
   3919, 0.0399999991, -0.159999996
   3920, 0.0399999991, -0.150000006
   3921, 0.0399999991, -0.140000001
   3922, 0.0399999991, -0.129999995
   3923, 0.0399999991, -0.119999997
   3924, 0.0399999991, -0.109999999
   3925, 0.0399999991, -0.100000001
   3926, 0.0399999991, -0.0900000036
   3927, 0.0399999991, -0.0799999982
   3928, 0.0399999991, -0.0700000003
   3929, 0.0399999991, -0.0599999987
   3930, 0.0399999991, -0.0500000007
   3931, 0.0399999991, -0.0399999991
   3932, 0.0399999991, -0.0299999993
   3933, 0.0399999991, -0.0199999996
   3934, 0.0399999991, -0.00999999978
   3935, 0.0299999993, -0.189999998
   3936, 0.0299999993, -0.180000007
   3937, 0.0299999993, -0.170000002
   3938, 0.0299999993, -0.159999996
   3939, 0.0299999993, -0.150000006
   3940, 0.0299999993, -0.140000001
   3941, 0.0299999993, -0.129999995
   3942, 0.0299999993, -0.119999997
   3943, 0.0299999993, -0.109999999
   3944, 0.0299999993, -0.100000001
   3945, 0.0299999993, -0.0900000036
   3946, 0.0299999993, -0.0799999982
   3947, 0.0299999993, -0.0700000003
   3948, 0.0299999993, -0.0599999987
   3949, 0.0299999993, -0.0500000007
   3950, 0.0299999993, -0.0399999991
   3951, 0.0299999993, -0.0299999993
   3952, 0.0299999993, -0.0199999996
   3953, 0.0299999993, -0.00999999978
   3954, 0.0199999996, -0.189999998
   3955, 0.0199999996, -0.180000007
   3956, 0.0199999996, -0.170000002
   3957, 0.0199999996, -0.159999996
   3958, 0.0199999996, -0.150000006
   3959, 0.0199999996, -0.140000001
   3960, 0.0199999996, -0.129999995
   3961, 0.0199999996, -0.119999997
   3962, 0.0199999996, -0.109999999
   3963, 0.0199999996, -0.100000001
   3964, 0.0199999996, -0.0900000036
   3965, 0.0199999996, -0.0799999982
   3966, 0.0199999996, -0.0700000003
   3967, 0.0199999996, -0.0599999987
   3968, 0.0199999996, -0.0500000007
   3969, 0.0199999996, -0.0399999991
   3970, 0.0199999996, -0.0299999993
   3971, 0.0199999996, -0.0199999996
   3972, 0.0199999996, -0.00999999978
   3973, 0.00999999978, -0.189999998
   3974, 0.00999999978, -0.180000007
   3975, 0.00999999978, -0.170000002
   3976, 0.00999999978, -0.159999996
   3977, 0.00999999978, -0.150000006
   3978, 0.00999999978, -0.140000001
   3979, 0.00999999978, -0.129999995
   3980, 0.00999999978, -0.119999997
   3981, 0.00999999978, -0.109999999
   3982, 0.00999999978, -0.100000001
   3983, 0.00999999978, -0.0900000036
   3984, 0.00999999978, -0.0799999982
   3985, 0.00999999978, -0.0700000003
   3986, 0.00999999978, -0.0599999987
   3987, 0.00999999978, -0.0500000007
   3988, 0.00999999978, -0.0399999991
   3989, 0.00999999978, -0.0299999993
   3990, 0.00999999978, -0.0199999996
   3991, 0.00999999978, -0.00999999978
   3992,           0., -0.189999998
   3993,           0., -0.180000007
   3994,           0., -0.170000002
   3995,           0., -0.159999996
   3996,           0., -0.150000006
   3997,           0., -0.140000001
   3998,           0., -0.129999995
   3999,           0., -0.119999997
   4000,           0., -0.109999999
   4001,           0., -0.100000001
   4002,           0., -0.0900000036
   4003,           0., -0.0799999982
   4004,           0., -0.0700000003
   4005,           0., -0.0599999987
   4006,           0., -0.0500000007
   4007,           0., -0.0399999991
   4008,           0., -0.0299999993
   4009,           0., -0.0199999996
   4010,           0., -0.00999999978
   4011, -0.00999999978, -0.189999998
   4012, -0.00999999978, -0.180000007
   4013, -0.00999999978, -0.170000002
   4014, -0.00999999978, -0.159999996
   4015, -0.00999999978, -0.150000006
   4016, -0.00999999978, -0.140000001
   4017, -0.00999999978, -0.129999995
   4018, -0.00999999978, -0.119999997
   4019, -0.00999999978, -0.109999999
   4020, -0.00999999978, -0.100000001
   4021, -0.00999999978, -0.0900000036
   4022, -0.00999999978, -0.0799999982
   4023, -0.00999999978, -0.0700000003
   4024, -0.00999999978, -0.0599999987
   4025, -0.00999999978, -0.0500000007
   4026, -0.00999999978, -0.0399999991
   4027, -0.00999999978, -0.0299999993
   4028, -0.00999999978, -0.0199999996
   4029, -0.00999999978, -0.00999999978
   4030, -0.0199999996, -0.189999998
   4031, -0.0199999996, -0.180000007
   4032, -0.0199999996, -0.170000002
   4033, -0.0199999996, -0.159999996
   4034, -0.0199999996, -0.150000006
   4035, -0.0199999996, -0.140000001
   4036, -0.0199999996, -0.129999995
   4037, -0.0199999996, -0.119999997
   4038, -0.0199999996, -0.109999999
   4039, -0.0199999996, -0.100000001
   4040, -0.0199999996, -0.0900000036
   4041, -0.0199999996, -0.0799999982
   4042, -0.0199999996, -0.0700000003
   4043, -0.0199999996, -0.0599999987
   4044, -0.0199999996, -0.0500000007
   4045, -0.0199999996, -0.0399999991
   4046, -0.0199999996, -0.0299999993
   4047, -0.0199999996, -0.0199999996
   4048, -0.0199999996, -0.00999999978
   4049, -0.0299999993, -0.189999998
   4050, -0.0299999993, -0.180000007
   4051, -0.0299999993, -0.170000002
   4052, -0.0299999993, -0.159999996
   4053, -0.0299999993, -0.150000006
   4054, -0.0299999993, -0.140000001
   4055, -0.0299999993, -0.129999995
   4056, -0.0299999993, -0.119999997
   4057, -0.0299999993, -0.109999999
   4058, -0.0299999993, -0.100000001
   4059, -0.0299999993, -0.0900000036
   4060, -0.0299999993, -0.0799999982
   4061, -0.0299999993, -0.0700000003
   4062, -0.0299999993, -0.0599999987
   4063, -0.0299999993, -0.0500000007
   4064, -0.0299999993, -0.0399999991
   4065, -0.0299999993, -0.0299999993
   4066, -0.0299999993, -0.0199999996
   4067, -0.0299999993, -0.00999999978
   4068, -0.0399999991, -0.189999998
   4069, -0.0399999991, -0.180000007
   4070, -0.0399999991, -0.170000002
   4071, -0.0399999991, -0.159999996
   4072, -0.0399999991, -0.150000006
   4073, -0.0399999991, -0.140000001
   4074, -0.0399999991, -0.129999995
   4075, -0.0399999991, -0.119999997
   4076, -0.0399999991, -0.109999999
   4077, -0.0399999991, -0.100000001
   4078, -0.0399999991, -0.0900000036
   4079, -0.0399999991, -0.0799999982
   4080, -0.0399999991, -0.0700000003
   4081, -0.0399999991, -0.0599999987
   4082, -0.0399999991, -0.0500000007
   4083, -0.0399999991, -0.0399999991
   4084, -0.0399999991, -0.0299999993
   4085, -0.0399999991, -0.0199999996
   4086, -0.0399999991, -0.00999999978
   4087, -0.0500000007, -0.189999998
   4088, -0.0500000007, -0.180000007
   4089, -0.0500000007, -0.170000002
   4090, -0.0500000007, -0.159999996
   4091, -0.0500000007, -0.150000006
   4092, -0.0500000007, -0.140000001
   4093, -0.0500000007, -0.129999995
   4094, -0.0500000007, -0.119999997
   4095, -0.0500000007, -0.109999999
   4096, -0.0500000007, -0.100000001
   4097, -0.0500000007, -0.0900000036
   4098, -0.0500000007, -0.0799999982
   4099, -0.0500000007, -0.0700000003
   4100, -0.0500000007, -0.0599999987
   4101, -0.0500000007, -0.0500000007
   4102, -0.0500000007, -0.0399999991
   4103, -0.0500000007, -0.0299999993
   4104, -0.0500000007, -0.0199999996
   4105, -0.0500000007, -0.00999999978
   4106, -0.0599999987, -0.189999998
   4107, -0.0599999987, -0.180000007
   4108, -0.0599999987, -0.170000002
   4109, -0.0599999987, -0.159999996
   4110, -0.0599999987, -0.150000006
   4111, -0.0599999987, -0.140000001
   4112, -0.0599999987, -0.129999995
   4113, -0.0599999987, -0.119999997
   4114, -0.0599999987, -0.109999999
   4115, -0.0599999987, -0.100000001
   4116, -0.0599999987, -0.0900000036
   4117, -0.0599999987, -0.0799999982
   4118, -0.0599999987, -0.0700000003
   4119, -0.0599999987, -0.0599999987
   4120, -0.0599999987, -0.0500000007
   4121, -0.0599999987, -0.0399999991
   4122, -0.0599999987, -0.0299999993
   4123, -0.0599999987, -0.0199999996
   4124, -0.0599999987, -0.00999999978
   4125, -0.0700000003, -0.189999998
   4126, -0.0700000003, -0.180000007
   4127, -0.0700000003, -0.170000002
   4128, -0.0700000003, -0.159999996
   4129, -0.0700000003, -0.150000006
   4130, -0.0700000003, -0.140000001
   4131, -0.0700000003, -0.129999995
   4132, -0.0700000003, -0.119999997
   4133, -0.0700000003, -0.109999999
   4134, -0.0700000003, -0.100000001
   4135, -0.0700000003, -0.0900000036
   4136, -0.0700000003, -0.0799999982
   4137, -0.0700000003, -0.0700000003
   4138, -0.0700000003, -0.0599999987
   4139, -0.0700000003, -0.0500000007
   4140, -0.0700000003, -0.0399999991
   4141, -0.0700000003, -0.0299999993
   4142, -0.0700000003, -0.0199999996
   4143, -0.0700000003, -0.00999999978
   4144, -0.0799999982, -0.189999998
   4145, -0.0799999982, -0.180000007
   4146, -0.0799999982, -0.170000002
   4147, -0.0799999982, -0.159999996
   4148, -0.0799999982, -0.150000006
   4149, -0.0799999982, -0.140000001
   4150, -0.0799999982, -0.129999995
   4151, -0.0799999982, -0.119999997
   4152, -0.0799999982, -0.109999999
   4153, -0.0799999982, -0.100000001
   4154, -0.0799999982, -0.0900000036
   4155, -0.0799999982, -0.0799999982
   4156, -0.0799999982, -0.0700000003
   4157, -0.0799999982, -0.0599999987
   4158, -0.0799999982, -0.0500000007
   4159, -0.0799999982, -0.0399999991
   4160, -0.0799999982, -0.0299999993
   4161, -0.0799999982, -0.0199999996
   4162, -0.0799999982, -0.00999999978
   4163, -0.0900000036, -0.189999998
   4164, -0.0900000036, -0.180000007
   4165, -0.0900000036, -0.170000002
   4166, -0.0900000036, -0.159999996
   4167, -0.0900000036, -0.150000006
   4168, -0.0900000036, -0.140000001
   4169, -0.0900000036, -0.129999995
   4170, -0.0900000036, -0.119999997
   4171, -0.0900000036, -0.109999999
   4172, -0.0900000036, -0.100000001
   4173, -0.0900000036, -0.0900000036
   4174, -0.0900000036, -0.0799999982
   4175, -0.0900000036, -0.0700000003
   4176, -0.0900000036, -0.0599999987
   4177, -0.0900000036, -0.0500000007
   4178, -0.0900000036, -0.0399999991
   4179, -0.0900000036, -0.0299999993
   4180, -0.0900000036, -0.0199999996
   4181, -0.0900000036, -0.00999999978
   4182, -0.100000001, -0.189999998
   4183, -0.100000001, -0.180000007
   4184, -0.100000001, -0.170000002
   4185, -0.100000001, -0.159999996
   4186, -0.100000001, -0.150000006
   4187, -0.100000001, -0.140000001
   4188, -0.100000001, -0.129999995
   4189, -0.100000001, -0.119999997
   4190, -0.100000001, -0.109999999
   4191, -0.100000001, -0.100000001
   4192, -0.100000001, -0.0900000036
   4193, -0.100000001, -0.0799999982
   4194, -0.100000001, -0.0700000003
   4195, -0.100000001, -0.0599999987
   4196, -0.100000001, -0.0500000007
   4197, -0.100000001, -0.0399999991
   4198, -0.100000001, -0.0299999993
   4199, -0.100000001, -0.0199999996
   4200, -0.100000001, -0.00999999978
   4201, -0.109999999, -0.189999998
   4202, -0.109999999, -0.180000007
   4203, -0.109999999, -0.170000002
   4204, -0.109999999, -0.159999996
   4205, -0.109999999, -0.150000006
   4206, -0.109999999, -0.140000001
   4207, -0.109999999, -0.129999995
   4208, -0.109999999, -0.119999997
   4209, -0.109999999, -0.109999999
   4210, -0.109999999, -0.100000001
   4211, -0.109999999, -0.0900000036
   4212, -0.109999999, -0.0799999982
   4213, -0.109999999, -0.0700000003
   4214, -0.109999999, -0.0599999987
   4215, -0.109999999, -0.0500000007
   4216, -0.109999999, -0.0399999991
   4217, -0.109999999, -0.0299999993
   4218, -0.109999999, -0.0199999996
   4219, -0.109999999, -0.00999999978
   4220, -0.119999997, -0.189999998
   4221, -0.119999997, -0.180000007
   4222, -0.119999997, -0.170000002
   4223, -0.119999997, -0.159999996
   4224, -0.119999997, -0.150000006
   4225, -0.119999997, -0.140000001
   4226, -0.119999997, -0.129999995
   4227, -0.119999997, -0.119999997
   4228, -0.119999997, -0.109999999
   4229, -0.119999997, -0.100000001
   4230, -0.119999997, -0.0900000036
   4231, -0.119999997, -0.0799999982
   4232, -0.119999997, -0.0700000003
   4233, -0.119999997, -0.0599999987
   4234, -0.119999997, -0.0500000007
   4235, -0.119999997, -0.0399999991
   4236, -0.119999997, -0.0299999993
   4237, -0.119999997, -0.0199999996
   4238, -0.119999997, -0.00999999978
   4239, -0.129999995, -0.189999998
   4240, -0.129999995, -0.180000007
   4241, -0.129999995, -0.170000002
   4242, -0.129999995, -0.159999996
   4243, -0.129999995, -0.150000006
   4244, -0.129999995, -0.140000001
   4245, -0.129999995, -0.129999995
   4246, -0.129999995, -0.119999997
   4247, -0.129999995, -0.109999999
   4248, -0.129999995, -0.100000001
   4249, -0.129999995, -0.0900000036
   4250, -0.129999995, -0.0799999982
   4251, -0.129999995, -0.0700000003
   4252, -0.129999995, -0.0599999987
   4253, -0.129999995, -0.0500000007
   4254, -0.129999995, -0.0399999991
   4255, -0.129999995, -0.0299999993
   4256, -0.129999995, -0.0199999996
   4257, -0.129999995, -0.00999999978
   4258, -0.140000001, -0.189999998
   4259, -0.140000001, -0.180000007
   4260, -0.140000001, -0.170000002
   4261, -0.140000001, -0.159999996
   4262, -0.140000001, -0.150000006
   4263, -0.140000001, -0.140000001
   4264, -0.140000001, -0.129999995
   4265, -0.140000001, -0.119999997
   4266, -0.140000001, -0.109999999
   4267, -0.140000001, -0.100000001
   4268, -0.140000001, -0.0900000036
   4269, -0.140000001, -0.0799999982
   4270, -0.140000001, -0.0700000003
   4271, -0.140000001, -0.0599999987
   4272, -0.140000001, -0.0500000007
   4273, -0.140000001, -0.0399999991
   4274, -0.140000001, -0.0299999993
   4275, -0.140000001, -0.0199999996
   4276, -0.140000001, -0.00999999978
   4277, -0.150000006, -0.189999998
   4278, -0.150000006, -0.180000007
   4279, -0.150000006, -0.170000002
   4280, -0.150000006, -0.159999996
   4281, -0.150000006, -0.150000006
   4282, -0.150000006, -0.140000001
   4283, -0.150000006, -0.129999995
   4284, -0.150000006, -0.119999997
   4285, -0.150000006, -0.109999999
   4286, -0.150000006, -0.100000001
   4287, -0.150000006, -0.0900000036
   4288, -0.150000006, -0.0799999982
   4289, -0.150000006, -0.0700000003
   4290, -0.150000006, -0.0599999987
   4291, -0.150000006, -0.0500000007
   4292, -0.150000006, -0.0399999991
   4293, -0.150000006, -0.0299999993
   4294, -0.150000006, -0.0199999996
   4295, -0.150000006, -0.00999999978
   4296, -0.159999996, -0.189999998
   4297, -0.159999996, -0.180000007
   4298, -0.159999996, -0.170000002
   4299, -0.159999996, -0.159999996
   4300, -0.159999996, -0.150000006
   4301, -0.159999996, -0.140000001
   4302, -0.159999996, -0.129999995
   4303, -0.159999996, -0.119999997
   4304, -0.159999996, -0.109999999
   4305, -0.159999996, -0.100000001
   4306, -0.159999996, -0.0900000036
   4307, -0.159999996, -0.0799999982
   4308, -0.159999996, -0.0700000003
   4309, -0.159999996, -0.0599999987
   4310, -0.159999996, -0.0500000007
   4311, -0.159999996, -0.0399999991
   4312, -0.159999996, -0.0299999993
   4313, -0.159999996, -0.0199999996
   4314, -0.159999996, -0.00999999978
   4315, -0.170000002, -0.189999998
   4316, -0.170000002, -0.180000007
   4317, -0.170000002, -0.170000002
   4318, -0.170000002, -0.159999996
   4319, -0.170000002, -0.150000006
   4320, -0.170000002, -0.140000001
   4321, -0.170000002, -0.129999995
   4322, -0.170000002, -0.119999997
   4323, -0.170000002, -0.109999999
   4324, -0.170000002, -0.100000001
   4325, -0.170000002, -0.0900000036
   4326, -0.170000002, -0.0799999982
   4327, -0.170000002, -0.0700000003
   4328, -0.170000002, -0.0599999987
   4329, -0.170000002, -0.0500000007
   4330, -0.170000002, -0.0399999991
   4331, -0.170000002, -0.0299999993
   4332, -0.170000002, -0.0199999996
   4333, -0.170000002, -0.00999999978
   4334, -0.180000007, -0.189999998
   4335, -0.180000007, -0.180000007
   4336, -0.180000007, -0.170000002
   4337, -0.180000007, -0.159999996
   4338, -0.180000007, -0.150000006
   4339, -0.180000007, -0.140000001
   4340, -0.180000007, -0.129999995
   4341, -0.180000007, -0.119999997
   4342, -0.180000007, -0.109999999
   4343, -0.180000007, -0.100000001
   4344, -0.180000007, -0.0900000036
   4345, -0.180000007, -0.0799999982
   4346, -0.180000007, -0.0700000003
   4347, -0.180000007, -0.0599999987
   4348, -0.180000007, -0.0500000007
   4349, -0.180000007, -0.0399999991
   4350, -0.180000007, -0.0299999993
   4351, -0.180000007, -0.0199999996
   4352, -0.180000007, -0.00999999978
   4353, -0.189999998, -0.189999998
   4354, -0.189999998, -0.180000007
   4355, -0.189999998, -0.170000002
   4356, -0.189999998, -0.159999996
   4357, -0.189999998, -0.150000006
   4358, -0.189999998, -0.140000001
   4359, -0.189999998, -0.129999995
   4360, -0.189999998, -0.119999997
   4361, -0.189999998, -0.109999999
   4362, -0.189999998, -0.100000001
   4363, -0.189999998, -0.0900000036
   4364, -0.189999998, -0.0799999982
   4365, -0.189999998, -0.0700000003
   4366, -0.189999998, -0.0599999987
   4367, -0.189999998, -0.0500000007
   4368, -0.189999998, -0.0399999991
   4369, -0.189999998, -0.0299999993
   4370, -0.189999998, -0.0199999996
   4371, -0.189999998, -0.00999999978
   4372, -0.200000003, -0.189999998
   4373, -0.200000003, -0.180000007
   4374, -0.200000003, -0.170000002
   4375, -0.200000003, -0.159999996
   4376, -0.200000003, -0.150000006
   4377, -0.200000003, -0.140000001
   4378, -0.200000003, -0.129999995
   4379, -0.200000003, -0.119999997
   4380, -0.200000003, -0.109999999
   4381, -0.200000003, -0.100000001
   4382, -0.200000003, -0.0900000036
   4383, -0.200000003, -0.0799999982
   4384, -0.200000003, -0.0700000003
   4385, -0.200000003, -0.0599999987
   4386, -0.200000003, -0.0500000007
   4387, -0.200000003, -0.0399999991
   4388, -0.200000003, -0.0299999993
   4389, -0.200000003, -0.0199999996
   4390, -0.200000003, -0.00999999978
   4391, -0.209999993, -0.189999998
   4392, -0.209999993, -0.180000007
   4393, -0.209999993, -0.170000002
   4394, -0.209999993, -0.159999996
   4395, -0.209999993, -0.150000006
   4396, -0.209999993, -0.140000001
   4397, -0.209999993, -0.129999995
   4398, -0.209999993, -0.119999997
   4399, -0.209999993, -0.109999999
   4400, -0.209999993, -0.100000001
   4401, -0.209999993, -0.0900000036
   4402, -0.209999993, -0.0799999982
   4403, -0.209999993, -0.0700000003
   4404, -0.209999993, -0.0599999987
   4405, -0.209999993, -0.0500000007
   4406, -0.209999993, -0.0399999991
   4407, -0.209999993, -0.0299999993
   4408, -0.209999993, -0.0199999996
   4409, -0.209999993, -0.00999999978
   4410, -0.219999999, -0.189999998
   4411, -0.219999999, -0.180000007
   4412, -0.219999999, -0.170000002
   4413, -0.219999999, -0.159999996
   4414, -0.219999999, -0.150000006
   4415, -0.219999999, -0.140000001
   4416, -0.219999999, -0.129999995
   4417, -0.219999999, -0.119999997
   4418, -0.219999999, -0.109999999
   4419, -0.219999999, -0.100000001
   4420, -0.219999999, -0.0900000036
   4421, -0.219999999, -0.0799999982
   4422, -0.219999999, -0.0700000003
   4423, -0.219999999, -0.0599999987
   4424, -0.219999999, -0.0500000007
   4425, -0.219999999, -0.0399999991
   4426, -0.219999999, -0.0299999993
   4427, -0.219999999, -0.0199999996
   4428, -0.219999999, -0.00999999978
   4429, -0.230000004, -0.189999998
   4430, -0.230000004, -0.180000007
   4431, -0.230000004, -0.170000002
   4432, -0.230000004, -0.159999996
   4433, -0.230000004, -0.150000006
   4434, -0.230000004, -0.140000001
   4435, -0.230000004, -0.129999995
   4436, -0.230000004, -0.119999997
   4437, -0.230000004, -0.109999999
   4438, -0.230000004, -0.100000001
   4439, -0.230000004, -0.0900000036
   4440, -0.230000004, -0.0799999982
   4441, -0.230000004, -0.0700000003
   4442, -0.230000004, -0.0599999987
   4443, -0.230000004, -0.0500000007
   4444, -0.230000004, -0.0399999991
   4445, -0.230000004, -0.0299999993
   4446, -0.230000004, -0.0199999996
   4447, -0.230000004, -0.00999999978
   4448, -0.239999995, -0.189999998
   4449, -0.239999995, -0.180000007
   4450, -0.239999995, -0.170000002
   4451, -0.239999995, -0.159999996
   4452, -0.239999995, -0.150000006
   4453, -0.239999995, -0.140000001
   4454, -0.239999995, -0.129999995
   4455, -0.239999995, -0.119999997
   4456, -0.239999995, -0.109999999
   4457, -0.239999995, -0.100000001
   4458, -0.239999995, -0.0900000036
   4459, -0.239999995, -0.0799999982
   4460, -0.239999995, -0.0700000003
   4461, -0.239999995, -0.0599999987
   4462, -0.239999995, -0.0500000007
   4463, -0.239999995, -0.0399999991
   4464, -0.239999995, -0.0299999993
   4465, -0.239999995, -0.0199999996
   4466, -0.239999995, -0.00999999978
   4467,        -0.25, -0.189999998
   4468,        -0.25, -0.180000007
   4469,        -0.25, -0.170000002
   4470,        -0.25, -0.159999996
   4471,        -0.25, -0.150000006
   4472,        -0.25, -0.140000001
   4473,        -0.25, -0.129999995
   4474,        -0.25, -0.119999997
   4475,        -0.25, -0.109999999
   4476,        -0.25, -0.100000001
   4477,        -0.25, -0.0900000036
   4478,        -0.25, -0.0799999982
   4479,        -0.25, -0.0700000003
   4480,        -0.25, -0.0599999987
   4481,        -0.25, -0.0500000007
   4482,        -0.25, -0.0399999991
   4483,        -0.25, -0.0299999993
   4484,        -0.25, -0.0199999996
   4485,        -0.25, -0.00999999978
   4486,  -0.25999999, -0.189999998
   4487,  -0.25999999, -0.180000007
   4488,  -0.25999999, -0.170000002
   4489,  -0.25999999, -0.159999996
   4490,  -0.25999999, -0.150000006
   4491,  -0.25999999, -0.140000001
   4492,  -0.25999999, -0.129999995
   4493,  -0.25999999, -0.119999997
   4494,  -0.25999999, -0.109999999
   4495,  -0.25999999, -0.100000001
   4496,  -0.25999999, -0.0900000036
   4497,  -0.25999999, -0.0799999982
   4498,  -0.25999999, -0.0700000003
   4499,  -0.25999999, -0.0599999987
   4500,  -0.25999999, -0.0500000007
   4501,  -0.25999999, -0.0399999991
   4502,  -0.25999999, -0.0299999993
   4503,  -0.25999999, -0.0199999996
   4504,  -0.25999999, -0.00999999978
   4505, -0.270000011, -0.189999998
   4506, -0.270000011, -0.180000007
   4507, -0.270000011, -0.170000002
   4508, -0.270000011, -0.159999996
   4509, -0.270000011, -0.150000006
   4510, -0.270000011, -0.140000001
   4511, -0.270000011, -0.129999995
   4512, -0.270000011, -0.119999997
   4513, -0.270000011, -0.109999999
   4514, -0.270000011, -0.100000001
   4515, -0.270000011, -0.0900000036
   4516, -0.270000011, -0.0799999982
   4517, -0.270000011, -0.0700000003
   4518, -0.270000011, -0.0599999987
   4519, -0.270000011, -0.0500000007
   4520, -0.270000011, -0.0399999991
   4521, -0.270000011, -0.0299999993
   4522, -0.270000011, -0.0199999996
   4523, -0.270000011, -0.00999999978
   4524, -0.280000001, -0.189999998
   4525, -0.280000001, -0.180000007
   4526, -0.280000001, -0.170000002
   4527, -0.280000001, -0.159999996
   4528, -0.280000001, -0.150000006
   4529, -0.280000001, -0.140000001
   4530, -0.280000001, -0.129999995
   4531, -0.280000001, -0.119999997
   4532, -0.280000001, -0.109999999
   4533, -0.280000001, -0.100000001
   4534, -0.280000001, -0.0900000036
   4535, -0.280000001, -0.0799999982
   4536, -0.280000001, -0.0700000003
   4537, -0.280000001, -0.0599999987
   4538, -0.280000001, -0.0500000007
   4539, -0.280000001, -0.0399999991
   4540, -0.280000001, -0.0299999993
   4541, -0.280000001, -0.0199999996
   4542, -0.280000001, -0.00999999978
   4543, -0.289999992, -0.189999998
   4544, -0.289999992, -0.180000007
   4545, -0.289999992, -0.170000002
   4546, -0.289999992, -0.159999996
   4547, -0.289999992, -0.150000006
   4548, -0.289999992, -0.140000001
   4549, -0.289999992, -0.129999995
   4550, -0.289999992, -0.119999997
   4551, -0.289999992, -0.109999999
   4552, -0.289999992, -0.100000001
   4553, -0.289999992, -0.0900000036
   4554, -0.289999992, -0.0799999982
   4555, -0.289999992, -0.0700000003
   4556, -0.289999992, -0.0599999987
   4557, -0.289999992, -0.0500000007
   4558, -0.289999992, -0.0399999991
   4559, -0.289999992, -0.0299999993
   4560, -0.289999992, -0.0199999996
   4561, -0.289999992, -0.00999999978
   4562, -0.300000012, -0.189999998
   4563, -0.300000012, -0.180000007
   4564, -0.300000012, -0.170000002
   4565, -0.300000012, -0.159999996
   4566, -0.300000012, -0.150000006
   4567, -0.300000012, -0.140000001
   4568, -0.300000012, -0.129999995
   4569, -0.300000012, -0.119999997
   4570, -0.300000012, -0.109999999
   4571, -0.300000012, -0.100000001
   4572, -0.300000012, -0.0900000036
   4573, -0.300000012, -0.0799999982
   4574, -0.300000012, -0.0700000003
   4575, -0.300000012, -0.0599999987
   4576, -0.300000012, -0.0500000007
   4577, -0.300000012, -0.0399999991
   4578, -0.300000012, -0.0299999993
   4579, -0.300000012, -0.0199999996
   4580, -0.300000012, -0.00999999978
   4581, -0.310000002, -0.189999998
   4582, -0.310000002, -0.180000007
   4583, -0.310000002, -0.170000002
   4584, -0.310000002, -0.159999996
   4585, -0.310000002, -0.150000006
   4586, -0.310000002, -0.140000001
   4587, -0.310000002, -0.129999995
   4588, -0.310000002, -0.119999997
   4589, -0.310000002, -0.109999999
   4590, -0.310000002, -0.100000001
   4591, -0.310000002, -0.0900000036
   4592, -0.310000002, -0.0799999982
   4593, -0.310000002, -0.0700000003
   4594, -0.310000002, -0.0599999987
   4595, -0.310000002, -0.0500000007
   4596, -0.310000002, -0.0399999991
   4597, -0.310000002, -0.0299999993
   4598, -0.310000002, -0.0199999996
   4599, -0.310000002, -0.00999999978
   4600, -0.319999993, -0.189999998
   4601, -0.319999993, -0.180000007
   4602, -0.319999993, -0.170000002
   4603, -0.319999993, -0.159999996
   4604, -0.319999993, -0.150000006
   4605, -0.319999993, -0.140000001
   4606, -0.319999993, -0.129999995
   4607, -0.319999993, -0.119999997
   4608, -0.319999993, -0.109999999
   4609, -0.319999993, -0.100000001
   4610, -0.319999993, -0.0900000036
   4611, -0.319999993, -0.0799999982
   4612, -0.319999993, -0.0700000003
   4613, -0.319999993, -0.0599999987
   4614, -0.319999993, -0.0500000007
   4615, -0.319999993, -0.0399999991
   4616, -0.319999993, -0.0299999993
   4617, -0.319999993, -0.0199999996
   4618, -0.319999993, -0.00999999978
   4619, -0.330000013, -0.189999998
   4620, -0.330000013, -0.180000007
   4621, -0.330000013, -0.170000002
   4622, -0.330000013, -0.159999996
   4623, -0.330000013, -0.150000006
   4624, -0.330000013, -0.140000001
   4625, -0.330000013, -0.129999995
   4626, -0.330000013, -0.119999997
   4627, -0.330000013, -0.109999999
   4628, -0.330000013, -0.100000001
   4629, -0.330000013, -0.0900000036
   4630, -0.330000013, -0.0799999982
   4631, -0.330000013, -0.0700000003
   4632, -0.330000013, -0.0599999987
   4633, -0.330000013, -0.0500000007
   4634, -0.330000013, -0.0399999991
   4635, -0.330000013, -0.0299999993
   4636, -0.330000013, -0.0199999996
   4637, -0.330000013, -0.00999999978
   4638, -0.340000004, -0.189999998
   4639, -0.340000004, -0.180000007
   4640, -0.340000004, -0.170000002
   4641, -0.340000004, -0.159999996
   4642, -0.340000004, -0.150000006
   4643, -0.340000004, -0.140000001
   4644, -0.340000004, -0.129999995
   4645, -0.340000004, -0.119999997
   4646, -0.340000004, -0.109999999
   4647, -0.340000004, -0.100000001
   4648, -0.340000004, -0.0900000036
   4649, -0.340000004, -0.0799999982
   4650, -0.340000004, -0.0700000003
   4651, -0.340000004, -0.0599999987
   4652, -0.340000004, -0.0500000007
   4653, -0.340000004, -0.0399999991
   4654, -0.340000004, -0.0299999993
   4655, -0.340000004, -0.0199999996
   4656, -0.340000004, -0.00999999978
   4657, -0.349999994, -0.189999998
   4658, -0.349999994, -0.180000007
   4659, -0.349999994, -0.170000002
   4660, -0.349999994, -0.159999996
   4661, -0.349999994, -0.150000006
   4662, -0.349999994, -0.140000001
   4663, -0.349999994, -0.129999995
   4664, -0.349999994, -0.119999997
   4665, -0.349999994, -0.109999999
   4666, -0.349999994, -0.100000001
   4667, -0.349999994, -0.0900000036
   4668, -0.349999994, -0.0799999982
   4669, -0.349999994, -0.0700000003
   4670, -0.349999994, -0.0599999987
   4671, -0.349999994, -0.0500000007
   4672, -0.349999994, -0.0399999991
   4673, -0.349999994, -0.0299999993
   4674, -0.349999994, -0.0199999996
   4675, -0.349999994, -0.00999999978
   4676, -0.360000014, -0.189999998
   4677, -0.360000014, -0.180000007
   4678, -0.360000014, -0.170000002
   4679, -0.360000014, -0.159999996
   4680, -0.360000014, -0.150000006
   4681, -0.360000014, -0.140000001
   4682, -0.360000014, -0.129999995
   4683, -0.360000014, -0.119999997
   4684, -0.360000014, -0.109999999
   4685, -0.360000014, -0.100000001
   4686, -0.360000014, -0.0900000036
   4687, -0.360000014, -0.0799999982
   4688, -0.360000014, -0.0700000003
   4689, -0.360000014, -0.0599999987
   4690, -0.360000014, -0.0500000007
   4691, -0.360000014, -0.0399999991
   4692, -0.360000014, -0.0299999993
   4693, -0.360000014, -0.0199999996
   4694, -0.360000014, -0.00999999978
   4695, -0.370000005, -0.189999998
   4696, -0.370000005, -0.180000007
   4697, -0.370000005, -0.170000002
   4698, -0.370000005, -0.159999996
   4699, -0.370000005, -0.150000006
   4700, -0.370000005, -0.140000001
   4701, -0.370000005, -0.129999995
   4702, -0.370000005, -0.119999997
   4703, -0.370000005, -0.109999999
   4704, -0.370000005, -0.100000001
   4705, -0.370000005, -0.0900000036
   4706, -0.370000005, -0.0799999982
   4707, -0.370000005, -0.0700000003
   4708, -0.370000005, -0.0599999987
   4709, -0.370000005, -0.0500000007
   4710, -0.370000005, -0.0399999991
   4711, -0.370000005, -0.0299999993
   4712, -0.370000005, -0.0199999996
   4713, -0.370000005, -0.00999999978
   4714, -0.379999995, -0.189999998
   4715, -0.379999995, -0.180000007
   4716, -0.379999995, -0.170000002
   4717, -0.379999995, -0.159999996
   4718, -0.379999995, -0.150000006
   4719, -0.379999995, -0.140000001
   4720, -0.379999995, -0.129999995
   4721, -0.379999995, -0.119999997
   4722, -0.379999995, -0.109999999
   4723, -0.379999995, -0.100000001
   4724, -0.379999995, -0.0900000036
   4725, -0.379999995, -0.0799999982
   4726, -0.379999995, -0.0700000003
   4727, -0.379999995, -0.0599999987
   4728, -0.379999995, -0.0500000007
   4729, -0.379999995, -0.0399999991
   4730, -0.379999995, -0.0299999993
   4731, -0.379999995, -0.0199999996
   4732, -0.379999995, -0.00999999978
   4733, -0.389999986, -0.189999998
   4734, -0.389999986, -0.180000007
   4735, -0.389999986, -0.170000002
   4736, -0.389999986, -0.159999996
   4737, -0.389999986, -0.150000006
   4738, -0.389999986, -0.140000001
   4739, -0.389999986, -0.129999995
   4740, -0.389999986, -0.119999997
   4741, -0.389999986, -0.109999999
   4742, -0.389999986, -0.100000001
   4743, -0.389999986, -0.0900000036
   4744, -0.389999986, -0.0799999982
   4745, -0.389999986, -0.0700000003
   4746, -0.389999986, -0.0599999987
   4747, -0.389999986, -0.0500000007
   4748, -0.389999986, -0.0399999991
   4749, -0.389999986, -0.0299999993
   4750, -0.389999986, -0.0199999996
   4751, -0.389999986, -0.00999999978
   4752, -0.400000006, -0.189999998
   4753, -0.400000006, -0.180000007
   4754, -0.400000006, -0.170000002
   4755, -0.400000006, -0.159999996
   4756, -0.400000006, -0.150000006
   4757, -0.400000006, -0.140000001
   4758, -0.400000006, -0.129999995
   4759, -0.400000006, -0.119999997
   4760, -0.400000006, -0.109999999
   4761, -0.400000006, -0.100000001
   4762, -0.400000006, -0.0900000036
   4763, -0.400000006, -0.0799999982
   4764, -0.400000006, -0.0700000003
   4765, -0.400000006, -0.0599999987
   4766, -0.400000006, -0.0500000007
   4767, -0.400000006, -0.0399999991
   4768, -0.400000006, -0.0299999993
   4769, -0.400000006, -0.0199999996
   4770, -0.400000006, -0.00999999978
   4771, -0.409999996, -0.189999998
   4772, -0.409999996, -0.180000007
   4773, -0.409999996, -0.170000002
   4774, -0.409999996, -0.159999996
   4775, -0.409999996, -0.150000006
   4776, -0.409999996, -0.140000001
   4777, -0.409999996, -0.129999995
   4778, -0.409999996, -0.119999997
   4779, -0.409999996, -0.109999999
   4780, -0.409999996, -0.100000001
   4781, -0.409999996, -0.0900000036
   4782, -0.409999996, -0.0799999982
   4783, -0.409999996, -0.0700000003
   4784, -0.409999996, -0.0599999987
   4785, -0.409999996, -0.0500000007
   4786, -0.409999996, -0.0399999991
   4787, -0.409999996, -0.0299999993
   4788, -0.409999996, -0.0199999996
   4789, -0.409999996, -0.00999999978
   4790, -0.419999987, -0.189999998
   4791, -0.419999987, -0.180000007
   4792, -0.419999987, -0.170000002
   4793, -0.419999987, -0.159999996
   4794, -0.419999987, -0.150000006
   4795, -0.419999987, -0.140000001
   4796, -0.419999987, -0.129999995
   4797, -0.419999987, -0.119999997
   4798, -0.419999987, -0.109999999
   4799, -0.419999987, -0.100000001
   4800, -0.419999987, -0.0900000036
   4801, -0.419999987, -0.0799999982
   4802, -0.419999987, -0.0700000003
   4803, -0.419999987, -0.0599999987
   4804, -0.419999987, -0.0500000007
   4805, -0.419999987, -0.0399999991
   4806, -0.419999987, -0.0299999993
   4807, -0.419999987, -0.0199999996
   4808, -0.419999987, -0.00999999978
   4809, -0.430000007, -0.189999998
   4810, -0.430000007, -0.180000007
   4811, -0.430000007, -0.170000002
   4812, -0.430000007, -0.159999996
   4813, -0.430000007, -0.150000006
   4814, -0.430000007, -0.140000001
   4815, -0.430000007, -0.129999995
   4816, -0.430000007, -0.119999997
   4817, -0.430000007, -0.109999999
   4818, -0.430000007, -0.100000001
   4819, -0.430000007, -0.0900000036
   4820, -0.430000007, -0.0799999982
   4821, -0.430000007, -0.0700000003
   4822, -0.430000007, -0.0599999987
   4823, -0.430000007, -0.0500000007
   4824, -0.430000007, -0.0399999991
   4825, -0.430000007, -0.0299999993
   4826, -0.430000007, -0.0199999996
   4827, -0.430000007, -0.00999999978
   4828, -0.439999998, -0.189999998
   4829, -0.439999998, -0.180000007
   4830, -0.439999998, -0.170000002
   4831, -0.439999998, -0.159999996
   4832, -0.439999998, -0.150000006
   4833, -0.439999998, -0.140000001
   4834, -0.439999998, -0.129999995
   4835, -0.439999998, -0.119999997
   4836, -0.439999998, -0.109999999
   4837, -0.439999998, -0.100000001
   4838, -0.439999998, -0.0900000036
   4839, -0.439999998, -0.0799999982
   4840, -0.439999998, -0.0700000003
   4841, -0.439999998, -0.0599999987
   4842, -0.439999998, -0.0500000007
   4843, -0.439999998, -0.0399999991
   4844, -0.439999998, -0.0299999993
   4845, -0.439999998, -0.0199999996
   4846, -0.439999998, -0.00999999978
   4847, -0.449999988, -0.189999998
   4848, -0.449999988, -0.180000007
   4849, -0.449999988, -0.170000002
   4850, -0.449999988, -0.159999996
   4851, -0.449999988, -0.150000006
   4852, -0.449999988, -0.140000001
   4853, -0.449999988, -0.129999995
   4854, -0.449999988, -0.119999997
   4855, -0.449999988, -0.109999999
   4856, -0.449999988, -0.100000001
   4857, -0.449999988, -0.0900000036
   4858, -0.449999988, -0.0799999982
   4859, -0.449999988, -0.0700000003
   4860, -0.449999988, -0.0599999987
   4861, -0.449999988, -0.0500000007
   4862, -0.449999988, -0.0399999991
   4863, -0.449999988, -0.0299999993
   4864, -0.449999988, -0.0199999996
   4865, -0.449999988, -0.00999999978
   4866, -0.460000008, -0.189999998
   4867, -0.460000008, -0.180000007
   4868, -0.460000008, -0.170000002
   4869, -0.460000008, -0.159999996
   4870, -0.460000008, -0.150000006
   4871, -0.460000008, -0.140000001
   4872, -0.460000008, -0.129999995
   4873, -0.460000008, -0.119999997
   4874, -0.460000008, -0.109999999
   4875, -0.460000008, -0.100000001
   4876, -0.460000008, -0.0900000036
   4877, -0.460000008, -0.0799999982
   4878, -0.460000008, -0.0700000003
   4879, -0.460000008, -0.0599999987
   4880, -0.460000008, -0.0500000007
   4881, -0.460000008, -0.0399999991
   4882, -0.460000008, -0.0299999993
   4883, -0.460000008, -0.0199999996
   4884, -0.460000008, -0.00999999978
   4885, -0.469999999, -0.189999998
   4886, -0.469999999, -0.180000007
   4887, -0.469999999, -0.170000002
   4888, -0.469999999, -0.159999996
   4889, -0.469999999, -0.150000006
   4890, -0.469999999, -0.140000001
   4891, -0.469999999, -0.129999995
   4892, -0.469999999, -0.119999997
   4893, -0.469999999, -0.109999999
   4894, -0.469999999, -0.100000001
   4895, -0.469999999, -0.0900000036
   4896, -0.469999999, -0.0799999982
   4897, -0.469999999, -0.0700000003
   4898, -0.469999999, -0.0599999987
   4899, -0.469999999, -0.0500000007
   4900, -0.469999999, -0.0399999991
   4901, -0.469999999, -0.0299999993
   4902, -0.469999999, -0.0199999996
   4903, -0.469999999, -0.00999999978
   4904, -0.479999989, -0.189999998
   4905, -0.479999989, -0.180000007
   4906, -0.479999989, -0.170000002
   4907, -0.479999989, -0.159999996
   4908, -0.479999989, -0.150000006
   4909, -0.479999989, -0.140000001
   4910, -0.479999989, -0.129999995
   4911, -0.479999989, -0.119999997
   4912, -0.479999989, -0.109999999
   4913, -0.479999989, -0.100000001
   4914, -0.479999989, -0.0900000036
   4915, -0.479999989, -0.0799999982
   4916, -0.479999989, -0.0700000003
   4917, -0.479999989, -0.0599999987
   4918, -0.479999989, -0.0500000007
   4919, -0.479999989, -0.0399999991
   4920, -0.479999989, -0.0299999993
   4921, -0.479999989, -0.0199999996
   4922, -0.479999989, -0.00999999978
   4923,  -0.49000001, -0.189999998
   4924,  -0.49000001, -0.180000007
   4925,  -0.49000001, -0.170000002
   4926,  -0.49000001, -0.159999996
   4927,  -0.49000001, -0.150000006
   4928,  -0.49000001, -0.140000001
   4929,  -0.49000001, -0.129999995
   4930,  -0.49000001, -0.119999997
   4931,  -0.49000001, -0.109999999
   4932,  -0.49000001, -0.100000001
   4933,  -0.49000001, -0.0900000036
   4934,  -0.49000001, -0.0799999982
   4935,  -0.49000001, -0.0700000003
   4936,  -0.49000001, -0.0599999987
   4937,  -0.49000001, -0.0500000007
   4938,  -0.49000001, -0.0399999991
   4939,  -0.49000001, -0.0299999993
   4940,  -0.49000001, -0.0199999996
   4941,  -0.49000001, -0.00999999978
*Element, type=CPE4
   1,    1,    9,  458,  244
   2,    9,   10,  459,  458
   3,   10,   11,  460,  459
   4,   11,   12,  461,  460
   5,   12,   13,  462,  461
   6,   13,   14,  463,  462
   7,   14,   15,  464,  463
   8,   15,   16,  465,  464
   9,   16,   17,  466,  465
  10,   17,   18,  467,  466
  11,   18,   19,  468,  467
  12,   19,   20,  469,  468
  13,   20,   21,  470,  469
  14,   21,   22,  471,  470
  15,   22,   23,  472,  471
  16,   23,   24,  473,  472
  17,   24,   25,  474,  473
  18,   25,   26,  475,  474
  19,   26,   27,  476,  475
  20,   27,    2,   28,  476
  21,  244,  458,  477,  243
  22,  458,  459,  478,  477
  23,  459,  460,  479,  478
  24,  460,  461,  480,  479
  25,  461,  462,  481,  480
  26,  462,  463,  482,  481
  27,  463,  464,  483,  482
  28,  464,  465,  484,  483
  29,  465,  466,  485,  484
  30,  466,  467,  486,  485
  31,  467,  468,  487,  486
  32,  468,  469,  488,  487
  33,  469,  470,  489,  488
  34,  470,  471,  490,  489
  35,  471,  472,  491,  490
  36,  472,  473,  492,  491
  37,  473,  474,  493,  492
  38,  474,  475,  494,  493
  39,  475,  476,  495,  494
  40,  476,   28,   29,  495
  41,  243,  477,  496,  242
  42,  477,  478,  497,  496
  43,  478,  479,  498,  497
  44,  479,  480,  499,  498
  45,  480,  481,  500,  499
  46,  481,  482,  501,  500
  47,  482,  483,  502,  501
  48,  483,  484,  503,  502
  49,  484,  485,  504,  503
  50,  485,  486,  505,  504
  51,  486,  487,  506,  505
  52,  487,  488,  507,  506
  53,  488,  489,  508,  507
  54,  489,  490,  509,  508
  55,  490,  491,  510,  509
  56,  491,  492,  511,  510
  57,  492,  493,  512,  511
  58,  493,  494,  513,  512
  59,  494,  495,  514,  513
  60,  495,   29,   30,  514
  61,  242,  496,  515,  241
  62,  496,  497,  516,  515
  63,  497,  498,  517,  516
  64,  498,  499,  518,  517
  65,  499,  500,  519,  518
  66,  500,  501,  520,  519
  67,  501,  502,  521,  520
  68,  502,  503,  522,  521
  69,  503,  504,  523,  522
  70,  504,  505,  524,  523
  71,  505,  506,  525,  524
  72,  506,  507,  526,  525
  73,  507,  508,  527,  526
  74,  508,  509,  528,  527
  75,  509,  510,  529,  528
  76,  510,  511,  530,  529
  77,  511,  512,  531,  530
  78,  512,  513,  532,  531
  79,  513,  514,  533,  532
  80,  514,   30,   31,  533
  81,  241,  515,  534,  240
  82,  515,  516,  535,  534
  83,  516,  517,  536,  535
  84,  517,  518,  537,  536
  85,  518,  519,  538,  537
  86,  519,  520,  539,  538
  87,  520,  521,  540,  539
  88,  521,  522,  541,  540
  89,  522,  523,  542,  541
  90,  523,  524,  543,  542
  91,  524,  525,  544,  543
  92,  525,  526,  545,  544
  93,  526,  527,  546,  545
  94,  527,  528,  547,  546
  95,  528,  529,  548,  547
  96,  529,  530,  549,  548
  97,  530,  531,  550,  549
  98,  531,  532,  551,  550
  99,  532,  533,  552,  551
 100,  533,   31,   32,  552
 101,  240,  534,  553,  239
 102,  534,  535,  554,  553
 103,  535,  536,  555,  554
 104,  536,  537,  556,  555
 105,  537,  538,  557,  556
 106,  538,  539,  558,  557
 107,  539,  540,  559,  558
 108,  540,  541,  560,  559
 109,  541,  542,  561,  560
 110,  542,  543,  562,  561
 111,  543,  544,  563,  562
 112,  544,  545,  564,  563
 113,  545,  546,  565,  564
 114,  546,  547,  566,  565
 115,  547,  548,  567,  566
 116,  548,  549,  568,  567
 117,  549,  550,  569,  568
 118,  550,  551,  570,  569
 119,  551,  552,  571,  570
 120,  552,   32,   33,  571
 121,  239,  553,  572,  238
 122,  553,  554,  573,  572
 123,  554,  555,  574,  573
 124,  555,  556,  575,  574
 125,  556,  557,  576,  575
 126,  557,  558,  577,  576
 127,  558,  559,  578,  577
 128,  559,  560,  579,  578
 129,  560,  561,  580,  579
 130,  561,  562,  581,  580
 131,  562,  563,  582,  581
 132,  563,  564,  583,  582
 133,  564,  565,  584,  583
 134,  565,  566,  585,  584
 135,  566,  567,  586,  585
 136,  567,  568,  587,  586
 137,  568,  569,  588,  587
 138,  569,  570,  589,  588
 139,  570,  571,  590,  589
 140,  571,   33,   34,  590
 141,  238,  572,  591,  237
 142,  572,  573,  592,  591
 143,  573,  574,  593,  592
 144,  574,  575,  594,  593
 145,  575,  576,  595,  594
 146,  576,  577,  596,  595
 147,  577,  578,  597,  596
 148,  578,  579,  598,  597
 149,  579,  580,  599,  598
 150,  580,  581,  600,  599
 151,  581,  582,  601,  600
 152,  582,  583,  602,  601
 153,  583,  584,  603,  602
 154,  584,  585,  604,  603
 155,  585,  586,  605,  604
 156,  586,  587,  606,  605
 157,  587,  588,  607,  606
 158,  588,  589,  608,  607
 159,  589,  590,  609,  608
 160,  590,   34,   35,  609
 161,  237,  591,  610,  236
 162,  591,  592,  611,  610
 163,  592,  593,  612,  611
 164,  593,  594,  613,  612
 165,  594,  595,  614,  613
 166,  595,  596,  615,  614
 167,  596,  597,  616,  615
 168,  597,  598,  617,  616
 169,  598,  599,  618,  617
 170,  599,  600,  619,  618
 171,  600,  601,  620,  619
 172,  601,  602,  621,  620
 173,  602,  603,  622,  621
 174,  603,  604,  623,  622
 175,  604,  605,  624,  623
 176,  605,  606,  625,  624
 177,  606,  607,  626,  625
 178,  607,  608,  627,  626
 179,  608,  609,  628,  627
 180,  609,   35,   36,  628
 181,  236,  610,  629,  235
 182,  610,  611,  630,  629
 183,  611,  612,  631,  630
 184,  612,  613,  632,  631
 185,  613,  614,  633,  632
 186,  614,  615,  634,  633
 187,  615,  616,  635,  634
 188,  616,  617,  636,  635
 189,  617,  618,  637,  636
 190,  618,  619,  638,  637
 191,  619,  620,  639,  638
 192,  620,  621,  640,  639
 193,  621,  622,  641,  640
 194,  622,  623,  642,  641
 195,  623,  624,  643,  642
 196,  624,  625,  644,  643
 197,  625,  626,  645,  644
 198,  626,  627,  646,  645
 199,  627,  628,  647,  646
 200,  628,   36,   37,  647
 201,  235,  629,  648,  234
 202,  629,  630,  649,  648
 203,  630,  631,  650,  649
 204,  631,  632,  651,  650
 205,  632,  633,  652,  651
 206,  633,  634,  653,  652
 207,  634,  635,  654,  653
 208,  635,  636,  655,  654
 209,  636,  637,  656,  655
 210,  637,  638,  657,  656
 211,  638,  639,  658,  657
 212,  639,  640,  659,  658
 213,  640,  641,  660,  659
 214,  641,  642,  661,  660
 215,  642,  643,  662,  661
 216,  643,  644,  663,  662
 217,  644,  645,  664,  663
 218,  645,  646,  665,  664
 219,  646,  647,  666,  665
 220,  647,   37,   38,  666
 221,  234,  648,  667,  233
 222,  648,  649,  668,  667
 223,  649,  650,  669,  668
 224,  650,  651,  670,  669
 225,  651,  652,  671,  670
 226,  652,  653,  672,  671
 227,  653,  654,  673,  672
 228,  654,  655,  674,  673
 229,  655,  656,  675,  674
 230,  656,  657,  676,  675
 231,  657,  658,  677,  676
 232,  658,  659,  678,  677
 233,  659,  660,  679,  678
 234,  660,  661,  680,  679
 235,  661,  662,  681,  680
 236,  662,  663,  682,  681
 237,  663,  664,  683,  682
 238,  664,  665,  684,  683
 239,  665,  666,  685,  684
 240,  666,   38,   39,  685
 241,  233,  667,  686,  232
 242,  667,  668,  687,  686
 243,  668,  669,  688,  687
 244,  669,  670,  689,  688
 245,  670,  671,  690,  689
 246,  671,  672,  691,  690
 247,  672,  673,  692,  691
 248,  673,  674,  693,  692
 249,  674,  675,  694,  693
 250,  675,  676,  695,  694
 251,  676,  677,  696,  695
 252,  677,  678,  697,  696
 253,  678,  679,  698,  697
 254,  679,  680,  699,  698
 255,  680,  681,  700,  699
 256,  681,  682,  701,  700
 257,  682,  683,  702,  701
 258,  683,  684,  703,  702
 259,  684,  685,  704,  703
 260,  685,   39,   40,  704
 261,  232,  686,  705,  231
 262,  686,  687,  706,  705
 263,  687,  688,  707,  706
 264,  688,  689,  708,  707
 265,  689,  690,  709,  708
 266,  690,  691,  710,  709
 267,  691,  692,  711,  710
 268,  692,  693,  712,  711
 269,  693,  694,  713,  712
 270,  694,  695,  714,  713
 271,  695,  696,  715,  714
 272,  696,  697,  716,  715
 273,  697,  698,  717,  716
 274,  698,  699,  718,  717
 275,  699,  700,  719,  718
 276,  700,  701,  720,  719
 277,  701,  702,  721,  720
 278,  702,  703,  722,  721
 279,  703,  704,  723,  722
 280,  704,   40,   41,  723
 281,  231,  705,  724,  230
 282,  705,  706,  725,  724
 283,  706,  707,  726,  725
 284,  707,  708,  727,  726
 285,  708,  709,  728,  727
 286,  709,  710,  729,  728
 287,  710,  711,  730,  729
 288,  711,  712,  731,  730
 289,  712,  713,  732,  731
 290,  713,  714,  733,  732
 291,  714,  715,  734,  733
 292,  715,  716,  735,  734
 293,  716,  717,  736,  735
 294,  717,  718,  737,  736
 295,  718,  719,  738,  737
 296,  719,  720,  739,  738
 297,  720,  721,  740,  739
 298,  721,  722,  741,  740
 299,  722,  723,  742,  741
 300,  723,   41,   42,  742
 301,  230,  724,  743,  229
 302,  724,  725,  744,  743
 303,  725,  726,  745,  744
 304,  726,  727,  746,  745
 305,  727,  728,  747,  746
 306,  728,  729,  748,  747
 307,  729,  730,  749,  748
 308,  730,  731,  750,  749
 309,  731,  732,  751,  750
 310,  732,  733,  752,  751
 311,  733,  734,  753,  752
 312,  734,  735,  754,  753
 313,  735,  736,  755,  754
 314,  736,  737,  756,  755
 315,  737,  738,  757,  756
 316,  738,  739,  758,  757
 317,  739,  740,  759,  758
 318,  740,  741,  760,  759
 319,  741,  742,  761,  760
 320,  742,   42,   43,  761
 321,  229,  743,  762,  228
 322,  743,  744,  763,  762
 323,  744,  745,  764,  763
 324,  745,  746,  765,  764
 325,  746,  747,  766,  765
 326,  747,  748,  767,  766
 327,  748,  749,  768,  767
 328,  749,  750,  769,  768
 329,  750,  751,  770,  769
 330,  751,  752,  771,  770
 331,  752,  753,  772,  771
 332,  753,  754,  773,  772
 333,  754,  755,  774,  773
 334,  755,  756,  775,  774
 335,  756,  757,  776,  775
 336,  757,  758,  777,  776
 337,  758,  759,  778,  777
 338,  759,  760,  779,  778
 339,  760,  761,  780,  779
 340,  761,   43,   44,  780
 341,  228,  762,  781,  227
 342,  762,  763,  782,  781
 343,  763,  764,  783,  782
 344,  764,  765,  784,  783
 345,  765,  766,  785,  784
 346,  766,  767,  786,  785
 347,  767,  768,  787,  786
 348,  768,  769,  788,  787
 349,  769,  770,  789,  788
 350,  770,  771,  790,  789
 351,  771,  772,  791,  790
 352,  772,  773,  792,  791
 353,  773,  774,  793,  792
 354,  774,  775,  794,  793
 355,  775,  776,  795,  794
 356,  776,  777,  796,  795
 357,  777,  778,  797,  796
 358,  778,  779,  798,  797
 359,  779,  780,  799,  798
 360,  780,   44,   45,  799
 361,  227,  781,  800,  226
 362,  781,  782,  801,  800
 363,  782,  783,  802,  801
 364,  783,  784,  803,  802
 365,  784,  785,  804,  803
 366,  785,  786,  805,  804
 367,  786,  787,  806,  805
 368,  787,  788,  807,  806
 369,  788,  789,  808,  807
 370,  789,  790,  809,  808
 371,  790,  791,  810,  809
 372,  791,  792,  811,  810
 373,  792,  793,  812,  811
 374,  793,  794,  813,  812
 375,  794,  795,  814,  813
 376,  795,  796,  815,  814
 377,  796,  797,  816,  815
 378,  797,  798,  817,  816
 379,  798,  799,  818,  817
 380,  799,   45,   46,  818
 381,  226,  800,  819,  225
 382,  800,  801,  820,  819
 383,  801,  802,  821,  820
 384,  802,  803,  822,  821
 385,  803,  804,  823,  822
 386,  804,  805,  824,  823
 387,  805,  806,  825,  824
 388,  806,  807,  826,  825
 389,  807,  808,  827,  826
 390,  808,  809,  828,  827
 391,  809,  810,  829,  828
 392,  810,  811,  830,  829
 393,  811,  812,  831,  830
 394,  812,  813,  832,  831
 395,  813,  814,  833,  832
 396,  814,  815,  834,  833
 397,  815,  816,  835,  834
 398,  816,  817,  836,  835
 399,  817,  818,  837,  836
 400,  818,   46,   47,  837
 401,  225,  819,  838,  224
 402,  819,  820,  839,  838
 403,  820,  821,  840,  839
 404,  821,  822,  841,  840
 405,  822,  823,  842,  841
 406,  823,  824,  843,  842
 407,  824,  825,  844,  843
 408,  825,  826,  845,  844
 409,  826,  827,  846,  845
 410,  827,  828,  847,  846
 411,  828,  829,  848,  847
 412,  829,  830,  849,  848
 413,  830,  831,  850,  849
 414,  831,  832,  851,  850
 415,  832,  833,  852,  851
 416,  833,  834,  853,  852
 417,  834,  835,  854,  853
 418,  835,  836,  855,  854
 419,  836,  837,  856,  855
 420,  837,   47,   48,  856
 421,  224,  838,  857,  223
 422,  838,  839,  858,  857
 423,  839,  840,  859,  858
 424,  840,  841,  860,  859
 425,  841,  842,  861,  860
 426,  842,  843,  862,  861
 427,  843,  844,  863,  862
 428,  844,  845,  864,  863
 429,  845,  846,  865,  864
 430,  846,  847,  866,  865
 431,  847,  848,  867,  866
 432,  848,  849,  868,  867
 433,  849,  850,  869,  868
 434,  850,  851,  870,  869
 435,  851,  852,  871,  870
 436,  852,  853,  872,  871
 437,  853,  854,  873,  872
 438,  854,  855,  874,  873
 439,  855,  856,  875,  874
 440,  856,   48,   49,  875
 441,  223,  857,  876,  222
 442,  857,  858,  877,  876
 443,  858,  859,  878,  877
 444,  859,  860,  879,  878
 445,  860,  861,  880,  879
 446,  861,  862,  881,  880
 447,  862,  863,  882,  881
 448,  863,  864,  883,  882
 449,  864,  865,  884,  883
 450,  865,  866,  885,  884
 451,  866,  867,  886,  885
 452,  867,  868,  887,  886
 453,  868,  869,  888,  887
 454,  869,  870,  889,  888
 455,  870,  871,  890,  889
 456,  871,  872,  891,  890
 457,  872,  873,  892,  891
 458,  873,  874,  893,  892
 459,  874,  875,  894,  893
 460,  875,   49,   50,  894
 461,  222,  876,  895,  221
 462,  876,  877,  896,  895
 463,  877,  878,  897,  896
 464,  878,  879,  898,  897
 465,  879,  880,  899,  898
 466,  880,  881,  900,  899
 467,  881,  882,  901,  900
 468,  882,  883,  902,  901
 469,  883,  884,  903,  902
 470,  884,  885,  904,  903
 471,  885,  886,  905,  904
 472,  886,  887,  906,  905
 473,  887,  888,  907,  906
 474,  888,  889,  908,  907
 475,  889,  890,  909,  908
 476,  890,  891,  910,  909
 477,  891,  892,  911,  910
 478,  892,  893,  912,  911
 479,  893,  894,  913,  912
 480,  894,   50,   51,  913
 481,  221,  895,  914,  220
 482,  895,  896,  915,  914
 483,  896,  897,  916,  915
 484,  897,  898,  917,  916
 485,  898,  899,  918,  917
 486,  899,  900,  919,  918
 487,  900,  901,  920,  919
 488,  901,  902,  921,  920
 489,  902,  903,  922,  921
 490,  903,  904,  923,  922
 491,  904,  905,  924,  923
 492,  905,  906,  925,  924
 493,  906,  907,  926,  925
 494,  907,  908,  927,  926
 495,  908,  909,  928,  927
 496,  909,  910,  929,  928
 497,  910,  911,  930,  929
 498,  911,  912,  931,  930
 499,  912,  913,  932,  931
 500,  913,   51,   52,  932
 501,  220,  914,  933,  219
 502,  914,  915,  934,  933
 503,  915,  916,  935,  934
 504,  916,  917,  936,  935
 505,  917,  918,  937,  936
 506,  918,  919,  938,  937
 507,  919,  920,  939,  938
 508,  920,  921,  940,  939
 509,  921,  922,  941,  940
 510,  922,  923,  942,  941
 511,  923,  924,  943,  942
 512,  924,  925,  944,  943
 513,  925,  926,  945,  944
 514,  926,  927,  946,  945
 515,  927,  928,  947,  946
 516,  928,  929,  948,  947
 517,  929,  930,  949,  948
 518,  930,  931,  950,  949
 519,  931,  932,  951,  950
 520,  932,   52,   53,  951
 521,  219,  933,  952,  218
 522,  933,  934,  953,  952
 523,  934,  935,  954,  953
 524,  935,  936,  955,  954
 525,  936,  937,  956,  955
 526,  937,  938,  957,  956
 527,  938,  939,  958,  957
 528,  939,  940,  959,  958
 529,  940,  941,  960,  959
 530,  941,  942,  961,  960
 531,  942,  943,  962,  961
 532,  943,  944,  963,  962
 533,  944,  945,  964,  963
 534,  945,  946,  965,  964
 535,  946,  947,  966,  965
 536,  947,  948,  967,  966
 537,  948,  949,  968,  967
 538,  949,  950,  969,  968
 539,  950,  951,  970,  969
 540,  951,   53,   54,  970
 541,  218,  952,  971,  217
 542,  952,  953,  972,  971
 543,  953,  954,  973,  972
 544,  954,  955,  974,  973
 545,  955,  956,  975,  974
 546,  956,  957,  976,  975
 547,  957,  958,  977,  976
 548,  958,  959,  978,  977
 549,  959,  960,  979,  978
 550,  960,  961,  980,  979
 551,  961,  962,  981,  980
 552,  962,  963,  982,  981
 553,  963,  964,  983,  982
 554,  964,  965,  984,  983
 555,  965,  966,  985,  984
 556,  966,  967,  986,  985
 557,  967,  968,  987,  986
 558,  968,  969,  988,  987
 559,  969,  970,  989,  988
 560,  970,   54,   55,  989
 561,  217,  971,  990,  216
 562,  971,  972,  991,  990
 563,  972,  973,  992,  991
 564,  973,  974,  993,  992
 565,  974,  975,  994,  993
 566,  975,  976,  995,  994
 567,  976,  977,  996,  995
 568,  977,  978,  997,  996
 569,  978,  979,  998,  997
 570,  979,  980,  999,  998
 571,  980,  981, 1000,  999
 572,  981,  982, 1001, 1000
 573,  982,  983, 1002, 1001
 574,  983,  984, 1003, 1002
 575,  984,  985, 1004, 1003
 576,  985,  986, 1005, 1004
 577,  986,  987, 1006, 1005
 578,  987,  988, 1007, 1006
 579,  988,  989, 1008, 1007
 580,  989,   55,   56, 1008
 581,  216,  990, 1009,  215
 582,  990,  991, 1010, 1009
 583,  991,  992, 1011, 1010
 584,  992,  993, 1012, 1011
 585,  993,  994, 1013, 1012
 586,  994,  995, 1014, 1013
 587,  995,  996, 1015, 1014
 588,  996,  997, 1016, 1015
 589,  997,  998, 1017, 1016
 590,  998,  999, 1018, 1017
 591,  999, 1000, 1019, 1018
 592, 1000, 1001, 1020, 1019
 593, 1001, 1002, 1021, 1020
 594, 1002, 1003, 1022, 1021
 595, 1003, 1004, 1023, 1022
 596, 1004, 1005, 1024, 1023
 597, 1005, 1006, 1025, 1024
 598, 1006, 1007, 1026, 1025
 599, 1007, 1008, 1027, 1026
 600, 1008,   56,   57, 1027
 601,  215, 1009, 1028,  214
 602, 1009, 1010, 1029, 1028
 603, 1010, 1011, 1030, 1029
 604, 1011, 1012, 1031, 1030
 605, 1012, 1013, 1032, 1031
 606, 1013, 1014, 1033, 1032
 607, 1014, 1015, 1034, 1033
 608, 1015, 1016, 1035, 1034
 609, 1016, 1017, 1036, 1035
 610, 1017, 1018, 1037, 1036
 611, 1018, 1019, 1038, 1037
 612, 1019, 1020, 1039, 1038
 613, 1020, 1021, 1040, 1039
 614, 1021, 1022, 1041, 1040
 615, 1022, 1023, 1042, 1041
 616, 1023, 1024, 1043, 1042
 617, 1024, 1025, 1044, 1043
 618, 1025, 1026, 1045, 1044
 619, 1026, 1027, 1046, 1045
 620, 1027,   57,   58, 1046
 621,  214, 1028, 1047,  213
 622, 1028, 1029, 1048, 1047
 623, 1029, 1030, 1049, 1048
 624, 1030, 1031, 1050, 1049
 625, 1031, 1032, 1051, 1050
 626, 1032, 1033, 1052, 1051
 627, 1033, 1034, 1053, 1052
 628, 1034, 1035, 1054, 1053
 629, 1035, 1036, 1055, 1054
 630, 1036, 1037, 1056, 1055
 631, 1037, 1038, 1057, 1056
 632, 1038, 1039, 1058, 1057
 633, 1039, 1040, 1059, 1058
 634, 1040, 1041, 1060, 1059
 635, 1041, 1042, 1061, 1060
 636, 1042, 1043, 1062, 1061
 637, 1043, 1044, 1063, 1062
 638, 1044, 1045, 1064, 1063
 639, 1045, 1046, 1065, 1064
 640, 1046,   58,   59, 1065
 641,  213, 1047, 1066,  212
 642, 1047, 1048, 1067, 1066
 643, 1048, 1049, 1068, 1067
 644, 1049, 1050, 1069, 1068
 645, 1050, 1051, 1070, 1069
 646, 1051, 1052, 1071, 1070
 647, 1052, 1053, 1072, 1071
 648, 1053, 1054, 1073, 1072
 649, 1054, 1055, 1074, 1073
 650, 1055, 1056, 1075, 1074
 651, 1056, 1057, 1076, 1075
 652, 1057, 1058, 1077, 1076
 653, 1058, 1059, 1078, 1077
 654, 1059, 1060, 1079, 1078
 655, 1060, 1061, 1080, 1079
 656, 1061, 1062, 1081, 1080
 657, 1062, 1063, 1082, 1081
 658, 1063, 1064, 1083, 1082
 659, 1064, 1065, 1084, 1083
 660, 1065,   59,   60, 1084
 661,  212, 1066, 1085,  211
 662, 1066, 1067, 1086, 1085
 663, 1067, 1068, 1087, 1086
 664, 1068, 1069, 1088, 1087
 665, 1069, 1070, 1089, 1088
 666, 1070, 1071, 1090, 1089
 667, 1071, 1072, 1091, 1090
 668, 1072, 1073, 1092, 1091
 669, 1073, 1074, 1093, 1092
 670, 1074, 1075, 1094, 1093
 671, 1075, 1076, 1095, 1094
 672, 1076, 1077, 1096, 1095
 673, 1077, 1078, 1097, 1096
 674, 1078, 1079, 1098, 1097
 675, 1079, 1080, 1099, 1098
 676, 1080, 1081, 1100, 1099
 677, 1081, 1082, 1101, 1100
 678, 1082, 1083, 1102, 1101
 679, 1083, 1084, 1103, 1102
 680, 1084,   60,   61, 1103
 681,  211, 1085, 1104,  210
 682, 1085, 1086, 1105, 1104
 683, 1086, 1087, 1106, 1105
 684, 1087, 1088, 1107, 1106
 685, 1088, 1089, 1108, 1107
 686, 1089, 1090, 1109, 1108
 687, 1090, 1091, 1110, 1109
 688, 1091, 1092, 1111, 1110
 689, 1092, 1093, 1112, 1111
 690, 1093, 1094, 1113, 1112
 691, 1094, 1095, 1114, 1113
 692, 1095, 1096, 1115, 1114
 693, 1096, 1097, 1116, 1115
 694, 1097, 1098, 1117, 1116
 695, 1098, 1099, 1118, 1117
 696, 1099, 1100, 1119, 1118
 697, 1100, 1101, 1120, 1119
 698, 1101, 1102, 1121, 1120
 699, 1102, 1103, 1122, 1121
 700, 1103,   61,   62, 1122
 701,  210, 1104, 1123,  209
 702, 1104, 1105, 1124, 1123
 703, 1105, 1106, 1125, 1124
 704, 1106, 1107, 1126, 1125
 705, 1107, 1108, 1127, 1126
 706, 1108, 1109, 1128, 1127
 707, 1109, 1110, 1129, 1128
 708, 1110, 1111, 1130, 1129
 709, 1111, 1112, 1131, 1130
 710, 1112, 1113, 1132, 1131
 711, 1113, 1114, 1133, 1132
 712, 1114, 1115, 1134, 1133
 713, 1115, 1116, 1135, 1134
 714, 1116, 1117, 1136, 1135
 715, 1117, 1118, 1137, 1136
 716, 1118, 1119, 1138, 1137
 717, 1119, 1120, 1139, 1138
 718, 1120, 1121, 1140, 1139
 719, 1121, 1122, 1141, 1140
 720, 1122,   62,   63, 1141
 721,  209, 1123, 1142,  208
 722, 1123, 1124, 1143, 1142
 723, 1124, 1125, 1144, 1143
 724, 1125, 1126, 1145, 1144
 725, 1126, 1127, 1146, 1145
 726, 1127, 1128, 1147, 1146
 727, 1128, 1129, 1148, 1147
 728, 1129, 1130, 1149, 1148
 729, 1130, 1131, 1150, 1149
 730, 1131, 1132, 1151, 1150
 731, 1132, 1133, 1152, 1151
 732, 1133, 1134, 1153, 1152
 733, 1134, 1135, 1154, 1153
 734, 1135, 1136, 1155, 1154
 735, 1136, 1137, 1156, 1155
 736, 1137, 1138, 1157, 1156
 737, 1138, 1139, 1158, 1157
 738, 1139, 1140, 1159, 1158
 739, 1140, 1141, 1160, 1159
 740, 1141,   63,   64, 1160
 741,  208, 1142, 1161,  207
 742, 1142, 1143, 1162, 1161
 743, 1143, 1144, 1163, 1162
 744, 1144, 1145, 1164, 1163
 745, 1145, 1146, 1165, 1164
 746, 1146, 1147, 1166, 1165
 747, 1147, 1148, 1167, 1166
 748, 1148, 1149, 1168, 1167
 749, 1149, 1150, 1169, 1168
 750, 1150, 1151, 1170, 1169
 751, 1151, 1152, 1171, 1170
 752, 1152, 1153, 1172, 1171
 753, 1153, 1154, 1173, 1172
 754, 1154, 1155, 1174, 1173
 755, 1155, 1156, 1175, 1174
 756, 1156, 1157, 1176, 1175
 757, 1157, 1158, 1177, 1176
 758, 1158, 1159, 1178, 1177
 759, 1159, 1160, 1179, 1178
 760, 1160,   64,   65, 1179
 761,  207, 1161, 1180,  206
 762, 1161, 1162, 1181, 1180
 763, 1162, 1163, 1182, 1181
 764, 1163, 1164, 1183, 1182
 765, 1164, 1165, 1184, 1183
 766, 1165, 1166, 1185, 1184
 767, 1166, 1167, 1186, 1185
 768, 1167, 1168, 1187, 1186
 769, 1168, 1169, 1188, 1187
 770, 1169, 1170, 1189, 1188
 771, 1170, 1171, 1190, 1189
 772, 1171, 1172, 1191, 1190
 773, 1172, 1173, 1192, 1191
 774, 1173, 1174, 1193, 1192
 775, 1174, 1175, 1194, 1193
 776, 1175, 1176, 1195, 1194
 777, 1176, 1177, 1196, 1195
 778, 1177, 1178, 1197, 1196
 779, 1178, 1179, 1198, 1197
 780, 1179,   65,   66, 1198
 781,  206, 1180, 1199,  205
 782, 1180, 1181, 1200, 1199
 783, 1181, 1182, 1201, 1200
 784, 1182, 1183, 1202, 1201
 785, 1183, 1184, 1203, 1202
 786, 1184, 1185, 1204, 1203
 787, 1185, 1186, 1205, 1204
 788, 1186, 1187, 1206, 1205
 789, 1187, 1188, 1207, 1206
 790, 1188, 1189, 1208, 1207
 791, 1189, 1190, 1209, 1208
 792, 1190, 1191, 1210, 1209
 793, 1191, 1192, 1211, 1210
 794, 1192, 1193, 1212, 1211
 795, 1193, 1194, 1213, 1212
 796, 1194, 1195, 1214, 1213
 797, 1195, 1196, 1215, 1214
 798, 1196, 1197, 1216, 1215
 799, 1197, 1198, 1217, 1216
 800, 1198,   66,   67, 1217
 801,  205, 1199, 1218,  204
 802, 1199, 1200, 1219, 1218
 803, 1200, 1201, 1220, 1219
 804, 1201, 1202, 1221, 1220
 805, 1202, 1203, 1222, 1221
 806, 1203, 1204, 1223, 1222
 807, 1204, 1205, 1224, 1223
 808, 1205, 1206, 1225, 1224
 809, 1206, 1207, 1226, 1225
 810, 1207, 1208, 1227, 1226
 811, 1208, 1209, 1228, 1227
 812, 1209, 1210, 1229, 1228
 813, 1210, 1211, 1230, 1229
 814, 1211, 1212, 1231, 1230
 815, 1212, 1213, 1232, 1231
 816, 1213, 1214, 1233, 1232
 817, 1214, 1215, 1234, 1233
 818, 1215, 1216, 1235, 1234
 819, 1216, 1217, 1236, 1235
 820, 1217,   67,   68, 1236
 821,  204, 1218, 1237,  203
 822, 1218, 1219, 1238, 1237
 823, 1219, 1220, 1239, 1238
 824, 1220, 1221, 1240, 1239
 825, 1221, 1222, 1241, 1240
 826, 1222, 1223, 1242, 1241
 827, 1223, 1224, 1243, 1242
 828, 1224, 1225, 1244, 1243
 829, 1225, 1226, 1245, 1244
 830, 1226, 1227, 1246, 1245
 831, 1227, 1228, 1247, 1246
 832, 1228, 1229, 1248, 1247
 833, 1229, 1230, 1249, 1248
 834, 1230, 1231, 1250, 1249
 835, 1231, 1232, 1251, 1250
 836, 1232, 1233, 1252, 1251
 837, 1233, 1234, 1253, 1252
 838, 1234, 1235, 1254, 1253
 839, 1235, 1236, 1255, 1254
 840, 1236,   68,   69, 1255
 841,  203, 1237, 1256,  202
 842, 1237, 1238, 1257, 1256
 843, 1238, 1239, 1258, 1257
 844, 1239, 1240, 1259, 1258
 845, 1240, 1241, 1260, 1259
 846, 1241, 1242, 1261, 1260
 847, 1242, 1243, 1262, 1261
 848, 1243, 1244, 1263, 1262
 849, 1244, 1245, 1264, 1263
 850, 1245, 1246, 1265, 1264
 851, 1246, 1247, 1266, 1265
 852, 1247, 1248, 1267, 1266
 853, 1248, 1249, 1268, 1267
 854, 1249, 1250, 1269, 1268
 855, 1250, 1251, 1270, 1269
 856, 1251, 1252, 1271, 1270
 857, 1252, 1253, 1272, 1271
 858, 1253, 1254, 1273, 1272
 859, 1254, 1255, 1274, 1273
 860, 1255,   69,   70, 1274
 861,  202, 1256, 1275,  201
 862, 1256, 1257, 1276, 1275
 863, 1257, 1258, 1277, 1276
 864, 1258, 1259, 1278, 1277
 865, 1259, 1260, 1279, 1278
 866, 1260, 1261, 1280, 1279
 867, 1261, 1262, 1281, 1280
 868, 1262, 1263, 1282, 1281
 869, 1263, 1264, 1283, 1282
 870, 1264, 1265, 1284, 1283
 871, 1265, 1266, 1285, 1284
 872, 1266, 1267, 1286, 1285
 873, 1267, 1268, 1287, 1286
 874, 1268, 1269, 1288, 1287
 875, 1269, 1270, 1289, 1288
 876, 1270, 1271, 1290, 1289
 877, 1271, 1272, 1291, 1290
 878, 1272, 1273, 1292, 1291
 879, 1273, 1274, 1293, 1292
 880, 1274,   70,   71, 1293
 881,  201, 1275, 1294,  200
 882, 1275, 1276, 1295, 1294
 883, 1276, 1277, 1296, 1295
 884, 1277, 1278, 1297, 1296
 885, 1278, 1279, 1298, 1297
 886, 1279, 1280, 1299, 1298
 887, 1280, 1281, 1300, 1299
 888, 1281, 1282, 1301, 1300
 889, 1282, 1283, 1302, 1301
 890, 1283, 1284, 1303, 1302
 891, 1284, 1285, 1304, 1303
 892, 1285, 1286, 1305, 1304
 893, 1286, 1287, 1306, 1305
 894, 1287, 1288, 1307, 1306
 895, 1288, 1289, 1308, 1307
 896, 1289, 1290, 1309, 1308
 897, 1290, 1291, 1310, 1309
 898, 1291, 1292, 1311, 1310
 899, 1292, 1293, 1312, 1311
 900, 1293,   71,   72, 1312
 901,  200, 1294, 1313,  199
 902, 1294, 1295, 1314, 1313
 903, 1295, 1296, 1315, 1314
 904, 1296, 1297, 1316, 1315
 905, 1297, 1298, 1317, 1316
 906, 1298, 1299, 1318, 1317
 907, 1299, 1300, 1319, 1318
 908, 1300, 1301, 1320, 1319
 909, 1301, 1302, 1321, 1320
 910, 1302, 1303, 1322, 1321
 911, 1303, 1304, 1323, 1322
 912, 1304, 1305, 1324, 1323
 913, 1305, 1306, 1325, 1324
 914, 1306, 1307, 1326, 1325
 915, 1307, 1308, 1327, 1326
 916, 1308, 1309, 1328, 1327
 917, 1309, 1310, 1329, 1328
 918, 1310, 1311, 1330, 1329
 919, 1311, 1312, 1331, 1330
 920, 1312,   72,   73, 1331
 921,  199, 1313, 1332,  198
 922, 1313, 1314, 1333, 1332
 923, 1314, 1315, 1334, 1333
 924, 1315, 1316, 1335, 1334
 925, 1316, 1317, 1336, 1335
 926, 1317, 1318, 1337, 1336
 927, 1318, 1319, 1338, 1337
 928, 1319, 1320, 1339, 1338
 929, 1320, 1321, 1340, 1339
 930, 1321, 1322, 1341, 1340
 931, 1322, 1323, 1342, 1341
 932, 1323, 1324, 1343, 1342
 933, 1324, 1325, 1344, 1343
 934, 1325, 1326, 1345, 1344
 935, 1326, 1327, 1346, 1345
 936, 1327, 1328, 1347, 1346
 937, 1328, 1329, 1348, 1347
 938, 1329, 1330, 1349, 1348
 939, 1330, 1331, 1350, 1349
 940, 1331,   73,   74, 1350
 941,  198, 1332, 1351,  197
 942, 1332, 1333, 1352, 1351
 943, 1333, 1334, 1353, 1352
 944, 1334, 1335, 1354, 1353
 945, 1335, 1336, 1355, 1354
 946, 1336, 1337, 1356, 1355
 947, 1337, 1338, 1357, 1356
 948, 1338, 1339, 1358, 1357
 949, 1339, 1340, 1359, 1358
 950, 1340, 1341, 1360, 1359
 951, 1341, 1342, 1361, 1360
 952, 1342, 1343, 1362, 1361
 953, 1343, 1344, 1363, 1362
 954, 1344, 1345, 1364, 1363
 955, 1345, 1346, 1365, 1364
 956, 1346, 1347, 1366, 1365
 957, 1347, 1348, 1367, 1366
 958, 1348, 1349, 1368, 1367
 959, 1349, 1350, 1369, 1368
 960, 1350,   74,   75, 1369
 961,  197, 1351, 1370,  196
 962, 1351, 1352, 1371, 1370
 963, 1352, 1353, 1372, 1371
 964, 1353, 1354, 1373, 1372
 965, 1354, 1355, 1374, 1373
 966, 1355, 1356, 1375, 1374
 967, 1356, 1357, 1376, 1375
 968, 1357, 1358, 1377, 1376
 969, 1358, 1359, 1378, 1377
 970, 1359, 1360, 1379, 1378
 971, 1360, 1361, 1380, 1379
 972, 1361, 1362, 1381, 1380
 973, 1362, 1363, 1382, 1381
 974, 1363, 1364, 1383, 1382
 975, 1364, 1365, 1384, 1383
 976, 1365, 1366, 1385, 1384
 977, 1366, 1367, 1386, 1385
 978, 1367, 1368, 1387, 1386
 979, 1368, 1369, 1388, 1387
 980, 1369,   75,   76, 1388
 981,  196, 1370, 1389,  195
 982, 1370, 1371, 1390, 1389
 983, 1371, 1372, 1391, 1390
 984, 1372, 1373, 1392, 1391
 985, 1373, 1374, 1393, 1392
 986, 1374, 1375, 1394, 1393
 987, 1375, 1376, 1395, 1394
 988, 1376, 1377, 1396, 1395
 989, 1377, 1378, 1397, 1396
 990, 1378, 1379, 1398, 1397
 991, 1379, 1380, 1399, 1398
 992, 1380, 1381, 1400, 1399
 993, 1381, 1382, 1401, 1400
 994, 1382, 1383, 1402, 1401
 995, 1383, 1384, 1403, 1402
 996, 1384, 1385, 1404, 1403
 997, 1385, 1386, 1405, 1404
 998, 1386, 1387, 1406, 1405
 999, 1387, 1388, 1407, 1406
1000, 1388,   76,   77, 1407
1001,  195, 1389, 1408,  194
1002, 1389, 1390, 1409, 1408
1003, 1390, 1391, 1410, 1409
1004, 1391, 1392, 1411, 1410
1005, 1392, 1393, 1412, 1411
1006, 1393, 1394, 1413, 1412
1007, 1394, 1395, 1414, 1413
1008, 1395, 1396, 1415, 1414
1009, 1396, 1397, 1416, 1415
1010, 1397, 1398, 1417, 1416
1011, 1398, 1399, 1418, 1417
1012, 1399, 1400, 1419, 1418
1013, 1400, 1401, 1420, 1419
1014, 1401, 1402, 1421, 1420
1015, 1402, 1403, 1422, 1421
1016, 1403, 1404, 1423, 1422
1017, 1404, 1405, 1424, 1423
1018, 1405, 1406, 1425, 1424
1019, 1406, 1407, 1426, 1425
1020, 1407,   77,   78, 1426
1021,  194, 1408, 1427,  193
1022, 1408, 1409, 1428, 1427
1023, 1409, 1410, 1429, 1428
1024, 1410, 1411, 1430, 1429
1025, 1411, 1412, 1431, 1430
1026, 1412, 1413, 1432, 1431
1027, 1413, 1414, 1433, 1432
1028, 1414, 1415, 1434, 1433
1029, 1415, 1416, 1435, 1434
1030, 1416, 1417, 1436, 1435
1031, 1417, 1418, 1437, 1436
1032, 1418, 1419, 1438, 1437
1033, 1419, 1420, 1439, 1438
1034, 1420, 1421, 1440, 1439
1035, 1421, 1422, 1441, 1440
1036, 1422, 1423, 1442, 1441
1037, 1423, 1424, 1443, 1442
1038, 1424, 1425, 1444, 1443
1039, 1425, 1426, 1445, 1444
1040, 1426,   78,   79, 1445
1041,  193, 1427, 1446,  192
1042, 1427, 1428, 1447, 1446
1043, 1428, 1429, 1448, 1447
1044, 1429, 1430, 1449, 1448
1045, 1430, 1431, 1450, 1449
1046, 1431, 1432, 1451, 1450
1047, 1432, 1433, 1452, 1451
1048, 1433, 1434, 1453, 1452
1049, 1434, 1435, 1454, 1453
1050, 1435, 1436, 1455, 1454
1051, 1436, 1437, 1456, 1455
1052, 1437, 1438, 1457, 1456
1053, 1438, 1439, 1458, 1457
1054, 1439, 1440, 1459, 1458
1055, 1440, 1441, 1460, 1459
1056, 1441, 1442, 1461, 1460
1057, 1442, 1443, 1462, 1461
1058, 1443, 1444, 1463, 1462
1059, 1444, 1445, 1464, 1463
1060, 1445,   79,   80, 1464
1061,  192, 1446, 1465,  191
1062, 1446, 1447, 1466, 1465
1063, 1447, 1448, 1467, 1466
1064, 1448, 1449, 1468, 1467
1065, 1449, 1450, 1469, 1468
1066, 1450, 1451, 1470, 1469
1067, 1451, 1452, 1471, 1470
1068, 1452, 1453, 1472, 1471
1069, 1453, 1454, 1473, 1472
1070, 1454, 1455, 1474, 1473
1071, 1455, 1456, 1475, 1474
1072, 1456, 1457, 1476, 1475
1073, 1457, 1458, 1477, 1476
1074, 1458, 1459, 1478, 1477
1075, 1459, 1460, 1479, 1478
1076, 1460, 1461, 1480, 1479
1077, 1461, 1462, 1481, 1480
1078, 1462, 1463, 1482, 1481
1079, 1463, 1464, 1483, 1482
1080, 1464,   80,   81, 1483
1081,  191, 1465, 1484,  190
1082, 1465, 1466, 1485, 1484
1083, 1466, 1467, 1486, 1485
1084, 1467, 1468, 1487, 1486
1085, 1468, 1469, 1488, 1487
1086, 1469, 1470, 1489, 1488
1087, 1470, 1471, 1490, 1489
1088, 1471, 1472, 1491, 1490
1089, 1472, 1473, 1492, 1491
1090, 1473, 1474, 1493, 1492
1091, 1474, 1475, 1494, 1493
1092, 1475, 1476, 1495, 1494
1093, 1476, 1477, 1496, 1495
1094, 1477, 1478, 1497, 1496
1095, 1478, 1479, 1498, 1497
1096, 1479, 1480, 1499, 1498
1097, 1480, 1481, 1500, 1499
1098, 1481, 1482, 1501, 1500
1099, 1482, 1483, 1502, 1501
1100, 1483,   81,   82, 1502
1101,  190, 1484, 1503,  189
1102, 1484, 1485, 1504, 1503
1103, 1485, 1486, 1505, 1504
1104, 1486, 1487, 1506, 1505
1105, 1487, 1488, 1507, 1506
1106, 1488, 1489, 1508, 1507
1107, 1489, 1490, 1509, 1508
1108, 1490, 1491, 1510, 1509
1109, 1491, 1492, 1511, 1510
1110, 1492, 1493, 1512, 1511
1111, 1493, 1494, 1513, 1512
1112, 1494, 1495, 1514, 1513
1113, 1495, 1496, 1515, 1514
1114, 1496, 1497, 1516, 1515
1115, 1497, 1498, 1517, 1516
1116, 1498, 1499, 1518, 1517
1117, 1499, 1500, 1519, 1518
1118, 1500, 1501, 1520, 1519
1119, 1501, 1502, 1521, 1520
1120, 1502,   82,   83, 1521
1121,  189, 1503, 1522,  188
1122, 1503, 1504, 1523, 1522
1123, 1504, 1505, 1524, 1523
1124, 1505, 1506, 1525, 1524
1125, 1506, 1507, 1526, 1525
1126, 1507, 1508, 1527, 1526
1127, 1508, 1509, 1528, 1527
1128, 1509, 1510, 1529, 1528
1129, 1510, 1511, 1530, 1529
1130, 1511, 1512, 1531, 1530
1131, 1512, 1513, 1532, 1531
1132, 1513, 1514, 1533, 1532
1133, 1514, 1515, 1534, 1533
1134, 1515, 1516, 1535, 1534
1135, 1516, 1517, 1536, 1535
1136, 1517, 1518, 1537, 1536
1137, 1518, 1519, 1538, 1537
1138, 1519, 1520, 1539, 1538
1139, 1520, 1521, 1540, 1539
1140, 1521,   83,   84, 1540
1141,  188, 1522, 1541,  187
1142, 1522, 1523, 1542, 1541
1143, 1523, 1524, 1543, 1542
1144, 1524, 1525, 1544, 1543
1145, 1525, 1526, 1545, 1544
1146, 1526, 1527, 1546, 1545
1147, 1527, 1528, 1547, 1546
1148, 1528, 1529, 1548, 1547
1149, 1529, 1530, 1549, 1548
1150, 1530, 1531, 1550, 1549
1151, 1531, 1532, 1551, 1550
1152, 1532, 1533, 1552, 1551
1153, 1533, 1534, 1553, 1552
1154, 1534, 1535, 1554, 1553
1155, 1535, 1536, 1555, 1554
1156, 1536, 1537, 1556, 1555
1157, 1537, 1538, 1557, 1556
1158, 1538, 1539, 1558, 1557
1159, 1539, 1540, 1559, 1558
1160, 1540,   84,   85, 1559
1161,  187, 1541, 1560,  186
1162, 1541, 1542, 1561, 1560
1163, 1542, 1543, 1562, 1561
1164, 1543, 1544, 1563, 1562
1165, 1544, 1545, 1564, 1563
1166, 1545, 1546, 1565, 1564
1167, 1546, 1547, 1566, 1565
1168, 1547, 1548, 1567, 1566
1169, 1548, 1549, 1568, 1567
1170, 1549, 1550, 1569, 1568
1171, 1550, 1551, 1570, 1569
1172, 1551, 1552, 1571, 1570
1173, 1552, 1553, 1572, 1571
1174, 1553, 1554, 1573, 1572
1175, 1554, 1555, 1574, 1573
1176, 1555, 1556, 1575, 1574
1177, 1556, 1557, 1576, 1575
1178, 1557, 1558, 1577, 1576
1179, 1558, 1559, 1578, 1577
1180, 1559,   85,   86, 1578
1181,  186, 1560, 1579,  185
1182, 1560, 1561, 1580, 1579
1183, 1561, 1562, 1581, 1580
1184, 1562, 1563, 1582, 1581
1185, 1563, 1564, 1583, 1582
1186, 1564, 1565, 1584, 1583
1187, 1565, 1566, 1585, 1584
1188, 1566, 1567, 1586, 1585
1189, 1567, 1568, 1587, 1586
1190, 1568, 1569, 1588, 1587
1191, 1569, 1570, 1589, 1588
1192, 1570, 1571, 1590, 1589
1193, 1571, 1572, 1591, 1590
1194, 1572, 1573, 1592, 1591
1195, 1573, 1574, 1593, 1592
1196, 1574, 1575, 1594, 1593
1197, 1575, 1576, 1595, 1594
1198, 1576, 1577, 1596, 1595
1199, 1577, 1578, 1597, 1596
1200, 1578,   86,   87, 1597
1201,  185, 1579, 1598,  184
1202, 1579, 1580, 1599, 1598
1203, 1580, 1581, 1600, 1599
1204, 1581, 1582, 1601, 1600
1205, 1582, 1583, 1602, 1601
1206, 1583, 1584, 1603, 1602
1207, 1584, 1585, 1604, 1603
1208, 1585, 1586, 1605, 1604
1209, 1586, 1587, 1606, 1605
1210, 1587, 1588, 1607, 1606
1211, 1588, 1589, 1608, 1607
1212, 1589, 1590, 1609, 1608
1213, 1590, 1591, 1610, 1609
1214, 1591, 1592, 1611, 1610
1215, 1592, 1593, 1612, 1611
1216, 1593, 1594, 1613, 1612
1217, 1594, 1595, 1614, 1613
1218, 1595, 1596, 1615, 1614
1219, 1596, 1597, 1616, 1615
1220, 1597,   87,   88, 1616
1221,  184, 1598, 1617,  183
1222, 1598, 1599, 1618, 1617
1223, 1599, 1600, 1619, 1618
1224, 1600, 1601, 1620, 1619
1225, 1601, 1602, 1621, 1620
1226, 1602, 1603, 1622, 1621
1227, 1603, 1604, 1623, 1622
1228, 1604, 1605, 1624, 1623
1229, 1605, 1606, 1625, 1624
1230, 1606, 1607, 1626, 1625
1231, 1607, 1608, 1627, 1626
1232, 1608, 1609, 1628, 1627
1233, 1609, 1610, 1629, 1628
1234, 1610, 1611, 1630, 1629
1235, 1611, 1612, 1631, 1630
1236, 1612, 1613, 1632, 1631
1237, 1613, 1614, 1633, 1632
1238, 1614, 1615, 1634, 1633
1239, 1615, 1616, 1635, 1634
1240, 1616,   88,   89, 1635
1241,  183, 1617, 1636,  182
1242, 1617, 1618, 1637, 1636
1243, 1618, 1619, 1638, 1637
1244, 1619, 1620, 1639, 1638
1245, 1620, 1621, 1640, 1639
1246, 1621, 1622, 1641, 1640
1247, 1622, 1623, 1642, 1641
1248, 1623, 1624, 1643, 1642
1249, 1624, 1625, 1644, 1643
1250, 1625, 1626, 1645, 1644
1251, 1626, 1627, 1646, 1645
1252, 1627, 1628, 1647, 1646
1253, 1628, 1629, 1648, 1647
1254, 1629, 1630, 1649, 1648
1255, 1630, 1631, 1650, 1649
1256, 1631, 1632, 1651, 1650
1257, 1632, 1633, 1652, 1651
1258, 1633, 1634, 1653, 1652
1259, 1634, 1635, 1654, 1653
1260, 1635,   89,   90, 1654
1261,  182, 1636, 1655,  181
1262, 1636, 1637, 1656, 1655
1263, 1637, 1638, 1657, 1656
1264, 1638, 1639, 1658, 1657
1265, 1639, 1640, 1659, 1658
1266, 1640, 1641, 1660, 1659
1267, 1641, 1642, 1661, 1660
1268, 1642, 1643, 1662, 1661
1269, 1643, 1644, 1663, 1662
1270, 1644, 1645, 1664, 1663
1271, 1645, 1646, 1665, 1664
1272, 1646, 1647, 1666, 1665
1273, 1647, 1648, 1667, 1666
1274, 1648, 1649, 1668, 1667
1275, 1649, 1650, 1669, 1668
1276, 1650, 1651, 1670, 1669
1277, 1651, 1652, 1671, 1670
1278, 1652, 1653, 1672, 1671
1279, 1653, 1654, 1673, 1672
1280, 1654,   90,   91, 1673
1281,  181, 1655, 1674,  180
1282, 1655, 1656, 1675, 1674
1283, 1656, 1657, 1676, 1675
1284, 1657, 1658, 1677, 1676
1285, 1658, 1659, 1678, 1677
1286, 1659, 1660, 1679, 1678
1287, 1660, 1661, 1680, 1679
1288, 1661, 1662, 1681, 1680
1289, 1662, 1663, 1682, 1681
1290, 1663, 1664, 1683, 1682
1291, 1664, 1665, 1684, 1683
1292, 1665, 1666, 1685, 1684
1293, 1666, 1667, 1686, 1685
1294, 1667, 1668, 1687, 1686
1295, 1668, 1669, 1688, 1687
1296, 1669, 1670, 1689, 1688
1297, 1670, 1671, 1690, 1689
1298, 1671, 1672, 1691, 1690
1299, 1672, 1673, 1692, 1691
1300, 1673,   91,   92, 1692
1301,  180, 1674, 1693,  179
1302, 1674, 1675, 1694, 1693
1303, 1675, 1676, 1695, 1694
1304, 1676, 1677, 1696, 1695
1305, 1677, 1678, 1697, 1696
1306, 1678, 1679, 1698, 1697
1307, 1679, 1680, 1699, 1698
1308, 1680, 1681, 1700, 1699
1309, 1681, 1682, 1701, 1700
1310, 1682, 1683, 1702, 1701
1311, 1683, 1684, 1703, 1702
1312, 1684, 1685, 1704, 1703
1313, 1685, 1686, 1705, 1704
1314, 1686, 1687, 1706, 1705
1315, 1687, 1688, 1707, 1706
1316, 1688, 1689, 1708, 1707
1317, 1689, 1690, 1709, 1708
1318, 1690, 1691, 1710, 1709
1319, 1691, 1692, 1711, 1710
1320, 1692,   92,   93, 1711
1321,  179, 1693, 1712,  178
1322, 1693, 1694, 1713, 1712
1323, 1694, 1695, 1714, 1713
1324, 1695, 1696, 1715, 1714
1325, 1696, 1697, 1716, 1715
1326, 1697, 1698, 1717, 1716
1327, 1698, 1699, 1718, 1717
1328, 1699, 1700, 1719, 1718
1329, 1700, 1701, 1720, 1719
1330, 1701, 1702, 1721, 1720
1331, 1702, 1703, 1722, 1721
1332, 1703, 1704, 1723, 1722
1333, 1704, 1705, 1724, 1723
1334, 1705, 1706, 1725, 1724
1335, 1706, 1707, 1726, 1725
1336, 1707, 1708, 1727, 1726
1337, 1708, 1709, 1728, 1727
1338, 1709, 1710, 1729, 1728
1339, 1710, 1711, 1730, 1729
1340, 1711,   93,   94, 1730
1341,  178, 1712, 1731,  177
1342, 1712, 1713, 1732, 1731
1343, 1713, 1714, 1733, 1732
1344, 1714, 1715, 1734, 1733
1345, 1715, 1716, 1735, 1734
1346, 1716, 1717, 1736, 1735
1347, 1717, 1718, 1737, 1736
1348, 1718, 1719, 1738, 1737
1349, 1719, 1720, 1739, 1738
1350, 1720, 1721, 1740, 1739
1351, 1721, 1722, 1741, 1740
1352, 1722, 1723, 1742, 1741
1353, 1723, 1724, 1743, 1742
1354, 1724, 1725, 1744, 1743
1355, 1725, 1726, 1745, 1744
1356, 1726, 1727, 1746, 1745
1357, 1727, 1728, 1747, 1746
1358, 1728, 1729, 1748, 1747
1359, 1729, 1730, 1749, 1748
1360, 1730,   94,   95, 1749
1361,  177, 1731, 1750,  176
1362, 1731, 1732, 1751, 1750
1363, 1732, 1733, 1752, 1751
1364, 1733, 1734, 1753, 1752
1365, 1734, 1735, 1754, 1753
1366, 1735, 1736, 1755, 1754
1367, 1736, 1737, 1756, 1755
1368, 1737, 1738, 1757, 1756
1369, 1738, 1739, 1758, 1757
1370, 1739, 1740, 1759, 1758
1371, 1740, 1741, 1760, 1759
1372, 1741, 1742, 1761, 1760
1373, 1742, 1743, 1762, 1761
1374, 1743, 1744, 1763, 1762
1375, 1744, 1745, 1764, 1763
1376, 1745, 1746, 1765, 1764
1377, 1746, 1747, 1766, 1765
1378, 1747, 1748, 1767, 1766
1379, 1748, 1749, 1768, 1767
1380, 1749,   95,   96, 1768
1381,  176, 1750, 1769,  175
1382, 1750, 1751, 1770, 1769
1383, 1751, 1752, 1771, 1770
1384, 1752, 1753, 1772, 1771
1385, 1753, 1754, 1773, 1772
1386, 1754, 1755, 1774, 1773
1387, 1755, 1756, 1775, 1774
1388, 1756, 1757, 1776, 1775
1389, 1757, 1758, 1777, 1776
1390, 1758, 1759, 1778, 1777
1391, 1759, 1760, 1779, 1778
1392, 1760, 1761, 1780, 1779
1393, 1761, 1762, 1781, 1780
1394, 1762, 1763, 1782, 1781
1395, 1763, 1764, 1783, 1782
1396, 1764, 1765, 1784, 1783
1397, 1765, 1766, 1785, 1784
1398, 1766, 1767, 1786, 1785
1399, 1767, 1768, 1787, 1786
1400, 1768,   96,   97, 1787
1401,  175, 1769, 1788,  174
1402, 1769, 1770, 1789, 1788
1403, 1770, 1771, 1790, 1789
1404, 1771, 1772, 1791, 1790
1405, 1772, 1773, 1792, 1791
1406, 1773, 1774, 1793, 1792
1407, 1774, 1775, 1794, 1793
1408, 1775, 1776, 1795, 1794
1409, 1776, 1777, 1796, 1795
1410, 1777, 1778, 1797, 1796
1411, 1778, 1779, 1798, 1797
1412, 1779, 1780, 1799, 1798
1413, 1780, 1781, 1800, 1799
1414, 1781, 1782, 1801, 1800
1415, 1782, 1783, 1802, 1801
1416, 1783, 1784, 1803, 1802
1417, 1784, 1785, 1804, 1803
1418, 1785, 1786, 1805, 1804
1419, 1786, 1787, 1806, 1805
1420, 1787,   97,   98, 1806
1421,  174, 1788, 1807,  173
1422, 1788, 1789, 1808, 1807
1423, 1789, 1790, 1809, 1808
1424, 1790, 1791, 1810, 1809
1425, 1791, 1792, 1811, 1810
1426, 1792, 1793, 1812, 1811
1427, 1793, 1794, 1813, 1812
1428, 1794, 1795, 1814, 1813
1429, 1795, 1796, 1815, 1814
1430, 1796, 1797, 1816, 1815
1431, 1797, 1798, 1817, 1816
1432, 1798, 1799, 1818, 1817
1433, 1799, 1800, 1819, 1818
1434, 1800, 1801, 1820, 1819
1435, 1801, 1802, 1821, 1820
1436, 1802, 1803, 1822, 1821
1437, 1803, 1804, 1823, 1822
1438, 1804, 1805, 1824, 1823
1439, 1805, 1806, 1825, 1824
1440, 1806,   98,   99, 1825
1441,  173, 1807, 1826,  172
1442, 1807, 1808, 1827, 1826
1443, 1808, 1809, 1828, 1827
1444, 1809, 1810, 1829, 1828
1445, 1810, 1811, 1830, 1829
1446, 1811, 1812, 1831, 1830
1447, 1812, 1813, 1832, 1831
1448, 1813, 1814, 1833, 1832
1449, 1814, 1815, 1834, 1833
1450, 1815, 1816, 1835, 1834
1451, 1816, 1817, 1836, 1835
1452, 1817, 1818, 1837, 1836
1453, 1818, 1819, 1838, 1837
1454, 1819, 1820, 1839, 1838
1455, 1820, 1821, 1840, 1839
1456, 1821, 1822, 1841, 1840
1457, 1822, 1823, 1842, 1841
1458, 1823, 1824, 1843, 1842
1459, 1824, 1825, 1844, 1843
1460, 1825,   99,  100, 1844
1461,  172, 1826, 1845,  171
1462, 1826, 1827, 1846, 1845
1463, 1827, 1828, 1847, 1846
1464, 1828, 1829, 1848, 1847
1465, 1829, 1830, 1849, 1848
1466, 1830, 1831, 1850, 1849
1467, 1831, 1832, 1851, 1850
1468, 1832, 1833, 1852, 1851
1469, 1833, 1834, 1853, 1852
1470, 1834, 1835, 1854, 1853
1471, 1835, 1836, 1855, 1854
1472, 1836, 1837, 1856, 1855
1473, 1837, 1838, 1857, 1856
1474, 1838, 1839, 1858, 1857
1475, 1839, 1840, 1859, 1858
1476, 1840, 1841, 1860, 1859
1477, 1841, 1842, 1861, 1860
1478, 1842, 1843, 1862, 1861
1479, 1843, 1844, 1863, 1862
1480, 1844,  100,  101, 1863
1481,  171, 1845, 1864,  170
1482, 1845, 1846, 1865, 1864
1483, 1846, 1847, 1866, 1865
1484, 1847, 1848, 1867, 1866
1485, 1848, 1849, 1868, 1867
1486, 1849, 1850, 1869, 1868
1487, 1850, 1851, 1870, 1869
1488, 1851, 1852, 1871, 1870
1489, 1852, 1853, 1872, 1871
1490, 1853, 1854, 1873, 1872
1491, 1854, 1855, 1874, 1873
1492, 1855, 1856, 1875, 1874
1493, 1856, 1857, 1876, 1875
1494, 1857, 1858, 1877, 1876
1495, 1858, 1859, 1878, 1877
1496, 1859, 1860, 1879, 1878
1497, 1860, 1861, 1880, 1879
1498, 1861, 1862, 1881, 1880
1499, 1862, 1863, 1882, 1881
1500, 1863,  101,  102, 1882
1501,  170, 1864, 1883,  169
1502, 1864, 1865, 1884, 1883
1503, 1865, 1866, 1885, 1884
1504, 1866, 1867, 1886, 1885
1505, 1867, 1868, 1887, 1886
1506, 1868, 1869, 1888, 1887
1507, 1869, 1870, 1889, 1888
1508, 1870, 1871, 1890, 1889
1509, 1871, 1872, 1891, 1890
1510, 1872, 1873, 1892, 1891
1511, 1873, 1874, 1893, 1892
1512, 1874, 1875, 1894, 1893
1513, 1875, 1876, 1895, 1894
1514, 1876, 1877, 1896, 1895
1515, 1877, 1878, 1897, 1896
1516, 1878, 1879, 1898, 1897
1517, 1879, 1880, 1899, 1898
1518, 1880, 1881, 1900, 1899
1519, 1881, 1882, 1901, 1900
1520, 1882,  102,  103, 1901
1521,  169, 1883, 1902,  168
1522, 1883, 1884, 1903, 1902
1523, 1884, 1885, 1904, 1903
1524, 1885, 1886, 1905, 1904
1525, 1886, 1887, 1906, 1905
1526, 1887, 1888, 1907, 1906
1527, 1888, 1889, 1908, 1907
1528, 1889, 1890, 1909, 1908
1529, 1890, 1891, 1910, 1909
1530, 1891, 1892, 1911, 1910
1531, 1892, 1893, 1912, 1911
1532, 1893, 1894, 1913, 1912
1533, 1894, 1895, 1914, 1913
1534, 1895, 1896, 1915, 1914
1535, 1896, 1897, 1916, 1915
1536, 1897, 1898, 1917, 1916
1537, 1898, 1899, 1918, 1917
1538, 1899, 1900, 1919, 1918
1539, 1900, 1901, 1920, 1919
1540, 1901,  103,  104, 1920
1541,  168, 1902, 1921,  167
1542, 1902, 1903, 1922, 1921
1543, 1903, 1904, 1923, 1922
1544, 1904, 1905, 1924, 1923
1545, 1905, 1906, 1925, 1924
1546, 1906, 1907, 1926, 1925
1547, 1907, 1908, 1927, 1926
1548, 1908, 1909, 1928, 1927
1549, 1909, 1910, 1929, 1928
1550, 1910, 1911, 1930, 1929
1551, 1911, 1912, 1931, 1930
1552, 1912, 1913, 1932, 1931
1553, 1913, 1914, 1933, 1932
1554, 1914, 1915, 1934, 1933
1555, 1915, 1916, 1935, 1934
1556, 1916, 1917, 1936, 1935
1557, 1917, 1918, 1937, 1936
1558, 1918, 1919, 1938, 1937
1559, 1919, 1920, 1939, 1938
1560, 1920,  104,  105, 1939
1561,  167, 1921, 1940,  166
1562, 1921, 1922, 1941, 1940
1563, 1922, 1923, 1942, 1941
1564, 1923, 1924, 1943, 1942
1565, 1924, 1925, 1944, 1943
1566, 1925, 1926, 1945, 1944
1567, 1926, 1927, 1946, 1945
1568, 1927, 1928, 1947, 1946
1569, 1928, 1929, 1948, 1947
1570, 1929, 1930, 1949, 1948
1571, 1930, 1931, 1950, 1949
1572, 1931, 1932, 1951, 1950
1573, 1932, 1933, 1952, 1951
1574, 1933, 1934, 1953, 1952
1575, 1934, 1935, 1954, 1953
1576, 1935, 1936, 1955, 1954
1577, 1936, 1937, 1956, 1955
1578, 1937, 1938, 1957, 1956
1579, 1938, 1939, 1958, 1957
1580, 1939,  105,  106, 1958
1581,  166, 1940, 1959,  165
1582, 1940, 1941, 1960, 1959
1583, 1941, 1942, 1961, 1960
1584, 1942, 1943, 1962, 1961
1585, 1943, 1944, 1963, 1962
1586, 1944, 1945, 1964, 1963
1587, 1945, 1946, 1965, 1964
1588, 1946, 1947, 1966, 1965
1589, 1947, 1948, 1967, 1966
1590, 1948, 1949, 1968, 1967
1591, 1949, 1950, 1969, 1968
1592, 1950, 1951, 1970, 1969
1593, 1951, 1952, 1971, 1970
1594, 1952, 1953, 1972, 1971
1595, 1953, 1954, 1973, 1972
1596, 1954, 1955, 1974, 1973
1597, 1955, 1956, 1975, 1974
1598, 1956, 1957, 1976, 1975
1599, 1957, 1958, 1977, 1976
1600, 1958,  106,  107, 1977
1601,  165, 1959, 1978,  164
1602, 1959, 1960, 1979, 1978
1603, 1960, 1961, 1980, 1979
1604, 1961, 1962, 1981, 1980
1605, 1962, 1963, 1982, 1981
1606, 1963, 1964, 1983, 1982
1607, 1964, 1965, 1984, 1983
1608, 1965, 1966, 1985, 1984
1609, 1966, 1967, 1986, 1985
1610, 1967, 1968, 1987, 1986
1611, 1968, 1969, 1988, 1987
1612, 1969, 1970, 1989, 1988
1613, 1970, 1971, 1990, 1989
1614, 1971, 1972, 1991, 1990
1615, 1972, 1973, 1992, 1991
1616, 1973, 1974, 1993, 1992
1617, 1974, 1975, 1994, 1993
1618, 1975, 1976, 1995, 1994
1619, 1976, 1977, 1996, 1995
1620, 1977,  107,  108, 1996
1621,  164, 1978, 1997,  163
1622, 1978, 1979, 1998, 1997
1623, 1979, 1980, 1999, 1998
1624, 1980, 1981, 2000, 1999
1625, 1981, 1982, 2001, 2000
1626, 1982, 1983, 2002, 2001
1627, 1983, 1984, 2003, 2002
1628, 1984, 1985, 2004, 2003
1629, 1985, 1986, 2005, 2004
1630, 1986, 1987, 2006, 2005
1631, 1987, 1988, 2007, 2006
1632, 1988, 1989, 2008, 2007
1633, 1989, 1990, 2009, 2008
1634, 1990, 1991, 2010, 2009
1635, 1991, 1992, 2011, 2010
1636, 1992, 1993, 2012, 2011
1637, 1993, 1994, 2013, 2012
1638, 1994, 1995, 2014, 2013
1639, 1995, 1996, 2015, 2014
1640, 1996,  108,  109, 2015
1641,  163, 1997, 2016,  162
1642, 1997, 1998, 2017, 2016
1643, 1998, 1999, 2018, 2017
1644, 1999, 2000, 2019, 2018
1645, 2000, 2001, 2020, 2019
1646, 2001, 2002, 2021, 2020
1647, 2002, 2003, 2022, 2021
1648, 2003, 2004, 2023, 2022
1649, 2004, 2005, 2024, 2023
1650, 2005, 2006, 2025, 2024
1651, 2006, 2007, 2026, 2025
1652, 2007, 2008, 2027, 2026
1653, 2008, 2009, 2028, 2027
1654, 2009, 2010, 2029, 2028
1655, 2010, 2011, 2030, 2029
1656, 2011, 2012, 2031, 2030
1657, 2012, 2013, 2032, 2031
1658, 2013, 2014, 2033, 2032
1659, 2014, 2015, 2034, 2033
1660, 2015,  109,  110, 2034
1661,  162, 2016, 2035,  161
1662, 2016, 2017, 2036, 2035
1663, 2017, 2018, 2037, 2036
1664, 2018, 2019, 2038, 2037
1665, 2019, 2020, 2039, 2038
1666, 2020, 2021, 2040, 2039
1667, 2021, 2022, 2041, 2040
1668, 2022, 2023, 2042, 2041
1669, 2023, 2024, 2043, 2042
1670, 2024, 2025, 2044, 2043
1671, 2025, 2026, 2045, 2044
1672, 2026, 2027, 2046, 2045
1673, 2027, 2028, 2047, 2046
1674, 2028, 2029, 2048, 2047
1675, 2029, 2030, 2049, 2048
1676, 2030, 2031, 2050, 2049
1677, 2031, 2032, 2051, 2050
1678, 2032, 2033, 2052, 2051
1679, 2033, 2034, 2053, 2052
1680, 2034,  110,  111, 2053
1681,  161, 2035, 2054,  160
1682, 2035, 2036, 2055, 2054
1683, 2036, 2037, 2056, 2055
1684, 2037, 2038, 2057, 2056
1685, 2038, 2039, 2058, 2057
1686, 2039, 2040, 2059, 2058
1687, 2040, 2041, 2060, 2059
1688, 2041, 2042, 2061, 2060
1689, 2042, 2043, 2062, 2061
1690, 2043, 2044, 2063, 2062
1691, 2044, 2045, 2064, 2063
1692, 2045, 2046, 2065, 2064
1693, 2046, 2047, 2066, 2065
1694, 2047, 2048, 2067, 2066
1695, 2048, 2049, 2068, 2067
1696, 2049, 2050, 2069, 2068
1697, 2050, 2051, 2070, 2069
1698, 2051, 2052, 2071, 2070
1699, 2052, 2053, 2072, 2071
1700, 2053,  111,  112, 2072
1701,  160, 2054, 2073,  159
1702, 2054, 2055, 2074, 2073
1703, 2055, 2056, 2075, 2074
1704, 2056, 2057, 2076, 2075
1705, 2057, 2058, 2077, 2076
1706, 2058, 2059, 2078, 2077
1707, 2059, 2060, 2079, 2078
1708, 2060, 2061, 2080, 2079
1709, 2061, 2062, 2081, 2080
1710, 2062, 2063, 2082, 2081
1711, 2063, 2064, 2083, 2082
1712, 2064, 2065, 2084, 2083
1713, 2065, 2066, 2085, 2084
1714, 2066, 2067, 2086, 2085
1715, 2067, 2068, 2087, 2086
1716, 2068, 2069, 2088, 2087
1717, 2069, 2070, 2089, 2088
1718, 2070, 2071, 2090, 2089
1719, 2071, 2072, 2091, 2090
1720, 2072,  112,  113, 2091
1721,  159, 2073, 2092,  158
1722, 2073, 2074, 2093, 2092
1723, 2074, 2075, 2094, 2093
1724, 2075, 2076, 2095, 2094
1725, 2076, 2077, 2096, 2095
1726, 2077, 2078, 2097, 2096
1727, 2078, 2079, 2098, 2097
1728, 2079, 2080, 2099, 2098
1729, 2080, 2081, 2100, 2099
1730, 2081, 2082, 2101, 2100
1731, 2082, 2083, 2102, 2101
1732, 2083, 2084, 2103, 2102
1733, 2084, 2085, 2104, 2103
1734, 2085, 2086, 2105, 2104
1735, 2086, 2087, 2106, 2105
1736, 2087, 2088, 2107, 2106
1737, 2088, 2089, 2108, 2107
1738, 2089, 2090, 2109, 2108
1739, 2090, 2091, 2110, 2109
1740, 2091,  113,  114, 2110
1741,  158, 2092, 2111,  157
1742, 2092, 2093, 2112, 2111
1743, 2093, 2094, 2113, 2112
1744, 2094, 2095, 2114, 2113
1745, 2095, 2096, 2115, 2114
1746, 2096, 2097, 2116, 2115
1747, 2097, 2098, 2117, 2116
1748, 2098, 2099, 2118, 2117
1749, 2099, 2100, 2119, 2118
1750, 2100, 2101, 2120, 2119
1751, 2101, 2102, 2121, 2120
1752, 2102, 2103, 2122, 2121
1753, 2103, 2104, 2123, 2122
1754, 2104, 2105, 2124, 2123
1755, 2105, 2106, 2125, 2124
1756, 2106, 2107, 2126, 2125
1757, 2107, 2108, 2127, 2126
1758, 2108, 2109, 2128, 2127
1759, 2109, 2110, 2129, 2128
1760, 2110,  114,  115, 2129
1761,  157, 2111, 2130,  156
1762, 2111, 2112, 2131, 2130
1763, 2112, 2113, 2132, 2131
1764, 2113, 2114, 2133, 2132
1765, 2114, 2115, 2134, 2133
1766, 2115, 2116, 2135, 2134
1767, 2116, 2117, 2136, 2135
1768, 2117, 2118, 2137, 2136
1769, 2118, 2119, 2138, 2137
1770, 2119, 2120, 2139, 2138
1771, 2120, 2121, 2140, 2139
1772, 2121, 2122, 2141, 2140
1773, 2122, 2123, 2142, 2141
1774, 2123, 2124, 2143, 2142
1775, 2124, 2125, 2144, 2143
1776, 2125, 2126, 2145, 2144
1777, 2126, 2127, 2146, 2145
1778, 2127, 2128, 2147, 2146
1779, 2128, 2129, 2148, 2147
1780, 2129,  115,  116, 2148
1781,  156, 2130, 2149,  155
1782, 2130, 2131, 2150, 2149
1783, 2131, 2132, 2151, 2150
1784, 2132, 2133, 2152, 2151
1785, 2133, 2134, 2153, 2152
1786, 2134, 2135, 2154, 2153
1787, 2135, 2136, 2155, 2154
1788, 2136, 2137, 2156, 2155
1789, 2137, 2138, 2157, 2156
1790, 2138, 2139, 2158, 2157
1791, 2139, 2140, 2159, 2158
1792, 2140, 2141, 2160, 2159
1793, 2141, 2142, 2161, 2160
1794, 2142, 2143, 2162, 2161
1795, 2143, 2144, 2163, 2162
1796, 2144, 2145, 2164, 2163
1797, 2145, 2146, 2165, 2164
1798, 2146, 2147, 2166, 2165
1799, 2147, 2148, 2167, 2166
1800, 2148,  116,  117, 2167
1801,  155, 2149, 2168,  154
1802, 2149, 2150, 2169, 2168
1803, 2150, 2151, 2170, 2169
1804, 2151, 2152, 2171, 2170
1805, 2152, 2153, 2172, 2171
1806, 2153, 2154, 2173, 2172
1807, 2154, 2155, 2174, 2173
1808, 2155, 2156, 2175, 2174
1809, 2156, 2157, 2176, 2175
1810, 2157, 2158, 2177, 2176
1811, 2158, 2159, 2178, 2177
1812, 2159, 2160, 2179, 2178
1813, 2160, 2161, 2180, 2179
1814, 2161, 2162, 2181, 2180
1815, 2162, 2163, 2182, 2181
1816, 2163, 2164, 2183, 2182
1817, 2164, 2165, 2184, 2183
1818, 2165, 2166, 2185, 2184
1819, 2166, 2167, 2186, 2185
1820, 2167,  117,  118, 2186
1821,  154, 2168, 2187,  153
1822, 2168, 2169, 2188, 2187
1823, 2169, 2170, 2189, 2188
1824, 2170, 2171, 2190, 2189
1825, 2171, 2172, 2191, 2190
1826, 2172, 2173, 2192, 2191
1827, 2173, 2174, 2193, 2192
1828, 2174, 2175, 2194, 2193
1829, 2175, 2176, 2195, 2194
1830, 2176, 2177, 2196, 2195
1831, 2177, 2178, 2197, 2196
1832, 2178, 2179, 2198, 2197
1833, 2179, 2180, 2199, 2198
1834, 2180, 2181, 2200, 2199
1835, 2181, 2182, 2201, 2200
1836, 2182, 2183, 2202, 2201
1837, 2183, 2184, 2203, 2202
1838, 2184, 2185, 2204, 2203
1839, 2185, 2186, 2205, 2204
1840, 2186,  118,  119, 2205
1841,  153, 2187, 2206,  152
1842, 2187, 2188, 2207, 2206
1843, 2188, 2189, 2208, 2207
1844, 2189, 2190, 2209, 2208
1845, 2190, 2191, 2210, 2209
1846, 2191, 2192, 2211, 2210
1847, 2192, 2193, 2212, 2211
1848, 2193, 2194, 2213, 2212
1849, 2194, 2195, 2214, 2213
1850, 2195, 2196, 2215, 2214
1851, 2196, 2197, 2216, 2215
1852, 2197, 2198, 2217, 2216
1853, 2198, 2199, 2218, 2217
1854, 2199, 2200, 2219, 2218
1855, 2200, 2201, 2220, 2219
1856, 2201, 2202, 2221, 2220
1857, 2202, 2203, 2222, 2221
1858, 2203, 2204, 2223, 2222
1859, 2204, 2205, 2224, 2223
1860, 2205,  119,  120, 2224
1861,  152, 2206, 2225,  151
1862, 2206, 2207, 2226, 2225
1863, 2207, 2208, 2227, 2226
1864, 2208, 2209, 2228, 2227
1865, 2209, 2210, 2229, 2228
1866, 2210, 2211, 2230, 2229
1867, 2211, 2212, 2231, 2230
1868, 2212, 2213, 2232, 2231
1869, 2213, 2214, 2233, 2232
1870, 2214, 2215, 2234, 2233
1871, 2215, 2216, 2235, 2234
1872, 2216, 2217, 2236, 2235
1873, 2217, 2218, 2237, 2236
1874, 2218, 2219, 2238, 2237
1875, 2219, 2220, 2239, 2238
1876, 2220, 2221, 2240, 2239
1877, 2221, 2222, 2241, 2240
1878, 2222, 2223, 2242, 2241
1879, 2223, 2224, 2243, 2242
1880, 2224,  120,  121, 2243
1881,  151, 2225, 2244,  150
1882, 2225, 2226, 2245, 2244
1883, 2226, 2227, 2246, 2245
1884, 2227, 2228, 2247, 2246
1885, 2228, 2229, 2248, 2247
1886, 2229, 2230, 2249, 2248
1887, 2230, 2231, 2250, 2249
1888, 2231, 2232, 2251, 2250
1889, 2232, 2233, 2252, 2251
1890, 2233, 2234, 2253, 2252
1891, 2234, 2235, 2254, 2253
1892, 2235, 2236, 2255, 2254
1893, 2236, 2237, 2256, 2255
1894, 2237, 2238, 2257, 2256
1895, 2238, 2239, 2258, 2257
1896, 2239, 2240, 2259, 2258
1897, 2240, 2241, 2260, 2259
1898, 2241, 2242, 2261, 2260
1899, 2242, 2243, 2262, 2261
1900, 2243,  121,  122, 2262
1901,  150, 2244, 2263,  149
1902, 2244, 2245, 2264, 2263
1903, 2245, 2246, 2265, 2264
1904, 2246, 2247, 2266, 2265
1905, 2247, 2248, 2267, 2266
1906, 2248, 2249, 2268, 2267
1907, 2249, 2250, 2269, 2268
1908, 2250, 2251, 2270, 2269
1909, 2251, 2252, 2271, 2270
1910, 2252, 2253, 2272, 2271
1911, 2253, 2254, 2273, 2272
1912, 2254, 2255, 2274, 2273
1913, 2255, 2256, 2275, 2274
1914, 2256, 2257, 2276, 2275
1915, 2257, 2258, 2277, 2276
1916, 2258, 2259, 2278, 2277
1917, 2259, 2260, 2279, 2278
1918, 2260, 2261, 2280, 2279
1919, 2261, 2262, 2281, 2280
1920, 2262,  122,  123, 2281
1921,  149, 2263, 2282,  148
1922, 2263, 2264, 2283, 2282
1923, 2264, 2265, 2284, 2283
1924, 2265, 2266, 2285, 2284
1925, 2266, 2267, 2286, 2285
1926, 2267, 2268, 2287, 2286
1927, 2268, 2269, 2288, 2287
1928, 2269, 2270, 2289, 2288
1929, 2270, 2271, 2290, 2289
1930, 2271, 2272, 2291, 2290
1931, 2272, 2273, 2292, 2291
1932, 2273, 2274, 2293, 2292
1933, 2274, 2275, 2294, 2293
1934, 2275, 2276, 2295, 2294
1935, 2276, 2277, 2296, 2295
1936, 2277, 2278, 2297, 2296
1937, 2278, 2279, 2298, 2297
1938, 2279, 2280, 2299, 2298
1939, 2280, 2281, 2300, 2299
1940, 2281,  123,  124, 2300
1941,  148, 2282, 2301,  147
1942, 2282, 2283, 2302, 2301
1943, 2283, 2284, 2303, 2302
1944, 2284, 2285, 2304, 2303
1945, 2285, 2286, 2305, 2304
1946, 2286, 2287, 2306, 2305
1947, 2287, 2288, 2307, 2306
1948, 2288, 2289, 2308, 2307
1949, 2289, 2290, 2309, 2308
1950, 2290, 2291, 2310, 2309
1951, 2291, 2292, 2311, 2310
1952, 2292, 2293, 2312, 2311
1953, 2293, 2294, 2313, 2312
1954, 2294, 2295, 2314, 2313
1955, 2295, 2296, 2315, 2314
1956, 2296, 2297, 2316, 2315
1957, 2297, 2298, 2317, 2316
1958, 2298, 2299, 2318, 2317
1959, 2299, 2300, 2319, 2318
1960, 2300,  124,  125, 2319
1961,  147, 2301, 2320,  146
1962, 2301, 2302, 2321, 2320
1963, 2302, 2303, 2322, 2321
1964, 2303, 2304, 2323, 2322
1965, 2304, 2305, 2324, 2323
1966, 2305, 2306, 2325, 2324
1967, 2306, 2307, 2326, 2325
1968, 2307, 2308, 2327, 2326
1969, 2308, 2309, 2328, 2327
1970, 2309, 2310, 2329, 2328
1971, 2310, 2311, 2330, 2329
1972, 2311, 2312, 2331, 2330
1973, 2312, 2313, 2332, 2331
1974, 2313, 2314, 2333, 2332
1975, 2314, 2315, 2334, 2333
1976, 2315, 2316, 2335, 2334
1977, 2316, 2317, 2336, 2335
1978, 2317, 2318, 2337, 2336
1979, 2318, 2319, 2338, 2337
1980, 2319,  125,  126, 2338
1981,  146, 2320,  145,    4
1982, 2320, 2321,  144,  145
1983, 2321, 2322,  143,  144
1984, 2322, 2323,  142,  143
1985, 2323, 2324,  141,  142
1986, 2324, 2325,  140,  141
1987, 2325, 2326,  139,  140
1988, 2326, 2327,  138,  139
1989, 2327, 2328,  137,  138
1990, 2328, 2329,  136,  137
1991, 2329, 2330,  135,  136
1992, 2330, 2331,  134,  135
1993, 2331, 2332,  133,  134
1994, 2332, 2333,  132,  133
1995, 2333, 2334,  131,  132
1996, 2334, 2335,  130,  131
1997, 2335, 2336,  129,  130
1998, 2336, 2337,  128,  129
1999, 2337, 2338,  127,  128
2000, 2338,  126,    3,  127
2001,    4,  145, 2339,  301
2002,  145,  144, 2340, 2339
2003,  144,  143, 2341, 2340
2004,  143,  142, 2342, 2341
2005,  142,  141, 2343, 2342
2006,  141,  140, 2344, 2343
2007,  140,  139, 2345, 2344
2008,  139,  138, 2346, 2345
2009,  138,  137, 2347, 2346
2010,  137,  136, 2348, 2347
2011,  136,  135, 2349, 2348
2012,  135,  134, 2350, 2349
2013,  134,  133, 2351, 2350
2014,  133,  132, 2352, 2351
2015,  132,  131, 2353, 2352
2016,  131,  130, 2354, 2353
2017,  130,  129, 2355, 2354
2018,  129,  128, 2356, 2355
2019,  128,  127, 2357, 2356
2020,  127,    3,  245, 2357
2021,  301, 2339, 2358,  300
2022, 2339, 2340, 2359, 2358
2023, 2340, 2341, 2360, 2359
2024, 2341, 2342, 2361, 2360
2025, 2342, 2343, 2362, 2361
2026, 2343, 2344, 2363, 2362
2027, 2344, 2345, 2364, 2363
2028, 2345, 2346, 2365, 2364
2029, 2346, 2347, 2366, 2365
2030, 2347, 2348, 2367, 2366
2031, 2348, 2349, 2368, 2367
2032, 2349, 2350, 2369, 2368
2033, 2350, 2351, 2370, 2369
2034, 2351, 2352, 2371, 2370
2035, 2352, 2353, 2372, 2371
2036, 2353, 2354, 2373, 2372
2037, 2354, 2355, 2374, 2373
2038, 2355, 2356, 2375, 2374
2039, 2356, 2357, 2376, 2375
2040, 2357,  245,  246, 2376
2041,  300, 2358, 2377,  299
2042, 2358, 2359, 2378, 2377
2043, 2359, 2360, 2379, 2378
2044, 2360, 2361, 2380, 2379
2045, 2361, 2362, 2381, 2380
2046, 2362, 2363, 2382, 2381
2047, 2363, 2364, 2383, 2382
2048, 2364, 2365, 2384, 2383
2049, 2365, 2366, 2385, 2384
2050, 2366, 2367, 2386, 2385
2051, 2367, 2368, 2387, 2386
2052, 2368, 2369, 2388, 2387
2053, 2369, 2370, 2389, 2388
2054, 2370, 2371, 2390, 2389
2055, 2371, 2372, 2391, 2390
2056, 2372, 2373, 2392, 2391
2057, 2373, 2374, 2393, 2392
2058, 2374, 2375, 2394, 2393
2059, 2375, 2376, 2395, 2394
2060, 2376,  246,  247, 2395
2061,  299, 2377, 2396,  298
2062, 2377, 2378, 2397, 2396
2063, 2378, 2379, 2398, 2397
2064, 2379, 2380, 2399, 2398
2065, 2380, 2381, 2400, 2399
2066, 2381, 2382, 2401, 2400
2067, 2382, 2383, 2402, 2401
2068, 2383, 2384, 2403, 2402
2069, 2384, 2385, 2404, 2403
2070, 2385, 2386, 2405, 2404
2071, 2386, 2387, 2406, 2405
2072, 2387, 2388, 2407, 2406
2073, 2388, 2389, 2408, 2407
2074, 2389, 2390, 2409, 2408
2075, 2390, 2391, 2410, 2409
2076, 2391, 2392, 2411, 2410
2077, 2392, 2393, 2412, 2411
2078, 2393, 2394, 2413, 2412
2079, 2394, 2395, 2414, 2413
2080, 2395,  247,  248, 2414
2081,  298, 2396, 2415,  297
2082, 2396, 2397, 2416, 2415
2083, 2397, 2398, 2417, 2416
2084, 2398, 2399, 2418, 2417
2085, 2399, 2400, 2419, 2418
2086, 2400, 2401, 2420, 2419
2087, 2401, 2402, 2421, 2420
2088, 2402, 2403, 2422, 2421
2089, 2403, 2404, 2423, 2422
2090, 2404, 2405, 2424, 2423
2091, 2405, 2406, 2425, 2424
2092, 2406, 2407, 2426, 2425
2093, 2407, 2408, 2427, 2426
2094, 2408, 2409, 2428, 2427
2095, 2409, 2410, 2429, 2428
2096, 2410, 2411, 2430, 2429
2097, 2411, 2412, 2431, 2430
2098, 2412, 2413, 2432, 2431
2099, 2413, 2414, 2433, 2432
2100, 2414,  248,  249, 2433
2101,  297, 2415, 2434,  296
2102, 2415, 2416, 2435, 2434
2103, 2416, 2417, 2436, 2435
2104, 2417, 2418, 2437, 2436
2105, 2418, 2419, 2438, 2437
2106, 2419, 2420, 2439, 2438
2107, 2420, 2421, 2440, 2439
2108, 2421, 2422, 2441, 2440
2109, 2422, 2423, 2442, 2441
2110, 2423, 2424, 2443, 2442
2111, 2424, 2425, 2444, 2443
2112, 2425, 2426, 2445, 2444
2113, 2426, 2427, 2446, 2445
2114, 2427, 2428, 2447, 2446
2115, 2428, 2429, 2448, 2447
2116, 2429, 2430, 2449, 2448
2117, 2430, 2431, 2450, 2449
2118, 2431, 2432, 2451, 2450
2119, 2432, 2433, 2452, 2451
2120, 2433,  249,  250, 2452
2121,  296, 2434, 2453,  295
2122, 2434, 2435, 2454, 2453
2123, 2435, 2436, 2455, 2454
2124, 2436, 2437, 2456, 2455
2125, 2437, 2438, 2457, 2456
2126, 2438, 2439, 2458, 2457
2127, 2439, 2440, 2459, 2458
2128, 2440, 2441, 2460, 2459
2129, 2441, 2442, 2461, 2460
2130, 2442, 2443, 2462, 2461
2131, 2443, 2444, 2463, 2462
2132, 2444, 2445, 2464, 2463
2133, 2445, 2446, 2465, 2464
2134, 2446, 2447, 2466, 2465
2135, 2447, 2448, 2467, 2466
2136, 2448, 2449, 2468, 2467
2137, 2449, 2450, 2469, 2468
2138, 2450, 2451, 2470, 2469
2139, 2451, 2452, 2471, 2470
2140, 2452,  250,  251, 2471
2141,  295, 2453, 2472,  294
2142, 2453, 2454, 2473, 2472
2143, 2454, 2455, 2474, 2473
2144, 2455, 2456, 2475, 2474
2145, 2456, 2457, 2476, 2475
2146, 2457, 2458, 2477, 2476
2147, 2458, 2459, 2478, 2477
2148, 2459, 2460, 2479, 2478
2149, 2460, 2461, 2480, 2479
2150, 2461, 2462, 2481, 2480
2151, 2462, 2463, 2482, 2481
2152, 2463, 2464, 2483, 2482
2153, 2464, 2465, 2484, 2483
2154, 2465, 2466, 2485, 2484
2155, 2466, 2467, 2486, 2485
2156, 2467, 2468, 2487, 2486
2157, 2468, 2469, 2488, 2487
2158, 2469, 2470, 2489, 2488
2159, 2470, 2471, 2490, 2489
2160, 2471,  251,  252, 2490
2161,  294, 2472, 2491,  293
2162, 2472, 2473, 2492, 2491
2163, 2473, 2474, 2493, 2492
2164, 2474, 2475, 2494, 2493
2165, 2475, 2476, 2495, 2494
2166, 2476, 2477, 2496, 2495
2167, 2477, 2478, 2497, 2496
2168, 2478, 2479, 2498, 2497
2169, 2479, 2480, 2499, 2498
2170, 2480, 2481, 2500, 2499
2171, 2481, 2482, 2501, 2500
2172, 2482, 2483, 2502, 2501
2173, 2483, 2484, 2503, 2502
2174, 2484, 2485, 2504, 2503
2175, 2485, 2486, 2505, 2504
2176, 2486, 2487, 2506, 2505
2177, 2487, 2488, 2507, 2506
2178, 2488, 2489, 2508, 2507
2179, 2489, 2490, 2509, 2508
2180, 2490,  252,  253, 2509
2181,  293, 2491, 2510,  292
2182, 2491, 2492, 2511, 2510
2183, 2492, 2493, 2512, 2511
2184, 2493, 2494, 2513, 2512
2185, 2494, 2495, 2514, 2513
2186, 2495, 2496, 2515, 2514
2187, 2496, 2497, 2516, 2515
2188, 2497, 2498, 2517, 2516
2189, 2498, 2499, 2518, 2517
2190, 2499, 2500, 2519, 2518
2191, 2500, 2501, 2520, 2519
2192, 2501, 2502, 2521, 2520
2193, 2502, 2503, 2522, 2521
2194, 2503, 2504, 2523, 2522
2195, 2504, 2505, 2524, 2523
2196, 2505, 2506, 2525, 2524
2197, 2506, 2507, 2526, 2525
2198, 2507, 2508, 2527, 2526
2199, 2508, 2509, 2528, 2527
2200, 2509,  253,  254, 2528
2201,  292, 2510, 2529,  291
2202, 2510, 2511, 2530, 2529
2203, 2511, 2512, 2531, 2530
2204, 2512, 2513, 2532, 2531
2205, 2513, 2514, 2533, 2532
2206, 2514, 2515, 2534, 2533
2207, 2515, 2516, 2535, 2534
2208, 2516, 2517, 2536, 2535
2209, 2517, 2518, 2537, 2536
2210, 2518, 2519, 2538, 2537
2211, 2519, 2520, 2539, 2538
2212, 2520, 2521, 2540, 2539
2213, 2521, 2522, 2541, 2540
2214, 2522, 2523, 2542, 2541
2215, 2523, 2524, 2543, 2542
2216, 2524, 2525, 2544, 2543
2217, 2525, 2526, 2545, 2544
2218, 2526, 2527, 2546, 2545
2219, 2527, 2528, 2547, 2546
2220, 2528,  254,  255, 2547
2221,  291, 2529, 2548,  290
2222, 2529, 2530, 2549, 2548
2223, 2530, 2531, 2550, 2549
2224, 2531, 2532, 2551, 2550
2225, 2532, 2533, 2552, 2551
2226, 2533, 2534, 2553, 2552
2227, 2534, 2535, 2554, 2553
2228, 2535, 2536, 2555, 2554
2229, 2536, 2537, 2556, 2555
2230, 2537, 2538, 2557, 2556
2231, 2538, 2539, 2558, 2557
2232, 2539, 2540, 2559, 2558
2233, 2540, 2541, 2560, 2559
2234, 2541, 2542, 2561, 2560
2235, 2542, 2543, 2562, 2561
2236, 2543, 2544, 2563, 2562
2237, 2544, 2545, 2564, 2563
2238, 2545, 2546, 2565, 2564
2239, 2546, 2547, 2566, 2565
2240, 2547,  255,  256, 2566
2241,  290, 2548, 2567,  289
2242, 2548, 2549, 2568, 2567
2243, 2549, 2550, 2569, 2568
2244, 2550, 2551, 2570, 2569
2245, 2551, 2552, 2571, 2570
2246, 2552, 2553, 2572, 2571
2247, 2553, 2554, 2573, 2572
2248, 2554, 2555, 2574, 2573
2249, 2555, 2556, 2575, 2574
2250, 2556, 2557, 2576, 2575
2251, 2557, 2558, 2577, 2576
2252, 2558, 2559, 2578, 2577
2253, 2559, 2560, 2579, 2578
2254, 2560, 2561, 2580, 2579
2255, 2561, 2562, 2581, 2580
2256, 2562, 2563, 2582, 2581
2257, 2563, 2564, 2583, 2582
2258, 2564, 2565, 2584, 2583
2259, 2565, 2566, 2585, 2584
2260, 2566,  256,  257, 2585
2261,  289, 2567, 2586,  288
2262, 2567, 2568, 2587, 2586
2263, 2568, 2569, 2588, 2587
2264, 2569, 2570, 2589, 2588
2265, 2570, 2571, 2590, 2589
2266, 2571, 2572, 2591, 2590
2267, 2572, 2573, 2592, 2591
2268, 2573, 2574, 2593, 2592
2269, 2574, 2575, 2594, 2593
2270, 2575, 2576, 2595, 2594
2271, 2576, 2577, 2596, 2595
2272, 2577, 2578, 2597, 2596
2273, 2578, 2579, 2598, 2597
2274, 2579, 2580, 2599, 2598
2275, 2580, 2581, 2600, 2599
2276, 2581, 2582, 2601, 2600
2277, 2582, 2583, 2602, 2601
2278, 2583, 2584, 2603, 2602
2279, 2584, 2585, 2604, 2603
2280, 2585,  257,  258, 2604
2281,  288, 2586, 2605,  287
2282, 2586, 2587, 2606, 2605
2283, 2587, 2588, 2607, 2606
2284, 2588, 2589, 2608, 2607
2285, 2589, 2590, 2609, 2608
2286, 2590, 2591, 2610, 2609
2287, 2591, 2592, 2611, 2610
2288, 2592, 2593, 2612, 2611
2289, 2593, 2594, 2613, 2612
2290, 2594, 2595, 2614, 2613
2291, 2595, 2596, 2615, 2614
2292, 2596, 2597, 2616, 2615
2293, 2597, 2598, 2617, 2616
2294, 2598, 2599, 2618, 2617
2295, 2599, 2600, 2619, 2618
2296, 2600, 2601, 2620, 2619
2297, 2601, 2602, 2621, 2620
2298, 2602, 2603, 2622, 2621
2299, 2603, 2604, 2623, 2622
2300, 2604,  258,  259, 2623
2301,  287, 2605, 2624,  286
2302, 2605, 2606, 2625, 2624
2303, 2606, 2607, 2626, 2625
2304, 2607, 2608, 2627, 2626
2305, 2608, 2609, 2628, 2627
2306, 2609, 2610, 2629, 2628
2307, 2610, 2611, 2630, 2629
2308, 2611, 2612, 2631, 2630
2309, 2612, 2613, 2632, 2631
2310, 2613, 2614, 2633, 2632
2311, 2614, 2615, 2634, 2633
2312, 2615, 2616, 2635, 2634
2313, 2616, 2617, 2636, 2635
2314, 2617, 2618, 2637, 2636
2315, 2618, 2619, 2638, 2637
2316, 2619, 2620, 2639, 2638
2317, 2620, 2621, 2640, 2639
2318, 2621, 2622, 2641, 2640
2319, 2622, 2623, 2642, 2641
2320, 2623,  259,  260, 2642
2321,  286, 2624, 2643,  285
2322, 2624, 2625, 2644, 2643
2323, 2625, 2626, 2645, 2644
2324, 2626, 2627, 2646, 2645
2325, 2627, 2628, 2647, 2646
2326, 2628, 2629, 2648, 2647
2327, 2629, 2630, 2649, 2648
2328, 2630, 2631, 2650, 2649
2329, 2631, 2632, 2651, 2650
2330, 2632, 2633, 2652, 2651
2331, 2633, 2634, 2653, 2652
2332, 2634, 2635, 2654, 2653
2333, 2635, 2636, 2655, 2654
2334, 2636, 2637, 2656, 2655
2335, 2637, 2638, 2657, 2656
2336, 2638, 2639, 2658, 2657
2337, 2639, 2640, 2659, 2658
2338, 2640, 2641, 2660, 2659
2339, 2641, 2642, 2661, 2660
2340, 2642,  260,  261, 2661
2341,  285, 2643, 2662,  284
2342, 2643, 2644, 2663, 2662
2343, 2644, 2645, 2664, 2663
2344, 2645, 2646, 2665, 2664
2345, 2646, 2647, 2666, 2665
2346, 2647, 2648, 2667, 2666
2347, 2648, 2649, 2668, 2667
2348, 2649, 2650, 2669, 2668
2349, 2650, 2651, 2670, 2669
2350, 2651, 2652, 2671, 2670
2351, 2652, 2653, 2672, 2671
2352, 2653, 2654, 2673, 2672
2353, 2654, 2655, 2674, 2673
2354, 2655, 2656, 2675, 2674
2355, 2656, 2657, 2676, 2675
2356, 2657, 2658, 2677, 2676
2357, 2658, 2659, 2678, 2677
2358, 2659, 2660, 2679, 2678
2359, 2660, 2661, 2680, 2679
2360, 2661,  261,  262, 2680
2361,  284, 2662, 2681,  283
2362, 2662, 2663, 2682, 2681
2363, 2663, 2664, 2683, 2682
2364, 2664, 2665, 2684, 2683
2365, 2665, 2666, 2685, 2684
2366, 2666, 2667, 2686, 2685
2367, 2667, 2668, 2687, 2686
2368, 2668, 2669, 2688, 2687
2369, 2669, 2670, 2689, 2688
2370, 2670, 2671, 2690, 2689
2371, 2671, 2672, 2691, 2690
2372, 2672, 2673, 2692, 2691
2373, 2673, 2674, 2693, 2692
2374, 2674, 2675, 2694, 2693
2375, 2675, 2676, 2695, 2694
2376, 2676, 2677, 2696, 2695
2377, 2677, 2678, 2697, 2696
2378, 2678, 2679, 2698, 2697
2379, 2679, 2680, 2699, 2698
2380, 2680,  262,  263, 2699
2381,  283, 2681,  282,    6
2382, 2681, 2682,  281,  282
2383, 2682, 2683,  280,  281
2384, 2683, 2684,  279,  280
2385, 2684, 2685,  278,  279
2386, 2685, 2686,  277,  278
2387, 2686, 2687,  276,  277
2388, 2687, 2688,  275,  276
2389, 2688, 2689,  274,  275
2390, 2689, 2690,  273,  274
2391, 2690, 2691,  272,  273
2392, 2691, 2692,  271,  272
2393, 2692, 2693,  270,  271
2394, 2693, 2694,  269,  270
2395, 2694, 2695,  268,  269
2396, 2695, 2696,  267,  268
2397, 2696, 2697,  266,  267
2398, 2697, 2698,  265,  266
2399, 2698, 2699,  264,  265
2400, 2699,  263,    5,  264
2401,    7,  302, 2700,  358
2402,  302,  303, 2701, 2700
2403,  303,  304, 2702, 2701
2404,  304,  305, 2703, 2702
2405,  305,  306, 2704, 2703
2406,  306,  307, 2705, 2704
2407,  307,  308, 2706, 2705
2408,  308,  309, 2707, 2706
2409,  309,  310, 2708, 2707
2410,  310,  311, 2709, 2708
2411,  311,  312, 2710, 2709
2412,  312,  313, 2711, 2710
2413,  313,  314, 2712, 2711
2414,  314,  315, 2713, 2712
2415,  315,  316, 2714, 2713
2416,  316,  317, 2715, 2714
2417,  317,  318, 2716, 2715
2418,  318,  319, 2717, 2716
2419,  319,  320, 2718, 2717
2420,  320,    2,   27, 2718
2421,  358, 2700, 2719,  357
2422, 2700, 2701, 2720, 2719
2423, 2701, 2702, 2721, 2720
2424, 2702, 2703, 2722, 2721
2425, 2703, 2704, 2723, 2722
2426, 2704, 2705, 2724, 2723
2427, 2705, 2706, 2725, 2724
2428, 2706, 2707, 2726, 2725
2429, 2707, 2708, 2727, 2726
2430, 2708, 2709, 2728, 2727
2431, 2709, 2710, 2729, 2728
2432, 2710, 2711, 2730, 2729
2433, 2711, 2712, 2731, 2730
2434, 2712, 2713, 2732, 2731
2435, 2713, 2714, 2733, 2732
2436, 2714, 2715, 2734, 2733
2437, 2715, 2716, 2735, 2734
2438, 2716, 2717, 2736, 2735
2439, 2717, 2718, 2737, 2736
2440, 2718,   27,   26, 2737
2441,  357, 2719, 2738,  356
2442, 2719, 2720, 2739, 2738
2443, 2720, 2721, 2740, 2739
2444, 2721, 2722, 2741, 2740
2445, 2722, 2723, 2742, 2741
2446, 2723, 2724, 2743, 2742
2447, 2724, 2725, 2744, 2743
2448, 2725, 2726, 2745, 2744
2449, 2726, 2727, 2746, 2745
2450, 2727, 2728, 2747, 2746
2451, 2728, 2729, 2748, 2747
2452, 2729, 2730, 2749, 2748
2453, 2730, 2731, 2750, 2749
2454, 2731, 2732, 2751, 2750
2455, 2732, 2733, 2752, 2751
2456, 2733, 2734, 2753, 2752
2457, 2734, 2735, 2754, 2753
2458, 2735, 2736, 2755, 2754
2459, 2736, 2737, 2756, 2755
2460, 2737,   26,   25, 2756
2461,  356, 2738, 2757,  355
2462, 2738, 2739, 2758, 2757
2463, 2739, 2740, 2759, 2758
2464, 2740, 2741, 2760, 2759
2465, 2741, 2742, 2761, 2760
2466, 2742, 2743, 2762, 2761
2467, 2743, 2744, 2763, 2762
2468, 2744, 2745, 2764, 2763
2469, 2745, 2746, 2765, 2764
2470, 2746, 2747, 2766, 2765
2471, 2747, 2748, 2767, 2766
2472, 2748, 2749, 2768, 2767
2473, 2749, 2750, 2769, 2768
2474, 2750, 2751, 2770, 2769
2475, 2751, 2752, 2771, 2770
2476, 2752, 2753, 2772, 2771
2477, 2753, 2754, 2773, 2772
2478, 2754, 2755, 2774, 2773
2479, 2755, 2756, 2775, 2774
2480, 2756,   25,   24, 2775
2481,  355, 2757, 2776,  354
2482, 2757, 2758, 2777, 2776
2483, 2758, 2759, 2778, 2777
2484, 2759, 2760, 2779, 2778
2485, 2760, 2761, 2780, 2779
2486, 2761, 2762, 2781, 2780
2487, 2762, 2763, 2782, 2781
2488, 2763, 2764, 2783, 2782
2489, 2764, 2765, 2784, 2783
2490, 2765, 2766, 2785, 2784
2491, 2766, 2767, 2786, 2785
2492, 2767, 2768, 2787, 2786
2493, 2768, 2769, 2788, 2787
2494, 2769, 2770, 2789, 2788
2495, 2770, 2771, 2790, 2789
2496, 2771, 2772, 2791, 2790
2497, 2772, 2773, 2792, 2791
2498, 2773, 2774, 2793, 2792
2499, 2774, 2775, 2794, 2793
2500, 2775,   24,   23, 2794
2501,  354, 2776, 2795,  353
2502, 2776, 2777, 2796, 2795
2503, 2777, 2778, 2797, 2796
2504, 2778, 2779, 2798, 2797
2505, 2779, 2780, 2799, 2798
2506, 2780, 2781, 2800, 2799
2507, 2781, 2782, 2801, 2800
2508, 2782, 2783, 2802, 2801
2509, 2783, 2784, 2803, 2802
2510, 2784, 2785, 2804, 2803
2511, 2785, 2786, 2805, 2804
2512, 2786, 2787, 2806, 2805
2513, 2787, 2788, 2807, 2806
2514, 2788, 2789, 2808, 2807
2515, 2789, 2790, 2809, 2808
2516, 2790, 2791, 2810, 2809
2517, 2791, 2792, 2811, 2810
2518, 2792, 2793, 2812, 2811
2519, 2793, 2794, 2813, 2812
2520, 2794,   23,   22, 2813
2521,  353, 2795, 2814,  352
2522, 2795, 2796, 2815, 2814
2523, 2796, 2797, 2816, 2815
2524, 2797, 2798, 2817, 2816
2525, 2798, 2799, 2818, 2817
2526, 2799, 2800, 2819, 2818
2527, 2800, 2801, 2820, 2819
2528, 2801, 2802, 2821, 2820
2529, 2802, 2803, 2822, 2821
2530, 2803, 2804, 2823, 2822
2531, 2804, 2805, 2824, 2823
2532, 2805, 2806, 2825, 2824
2533, 2806, 2807, 2826, 2825
2534, 2807, 2808, 2827, 2826
2535, 2808, 2809, 2828, 2827
2536, 2809, 2810, 2829, 2828
2537, 2810, 2811, 2830, 2829
2538, 2811, 2812, 2831, 2830
2539, 2812, 2813, 2832, 2831
2540, 2813,   22,   21, 2832
2541,  352, 2814, 2833,  351
2542, 2814, 2815, 2834, 2833
2543, 2815, 2816, 2835, 2834
2544, 2816, 2817, 2836, 2835
2545, 2817, 2818, 2837, 2836
2546, 2818, 2819, 2838, 2837
2547, 2819, 2820, 2839, 2838
2548, 2820, 2821, 2840, 2839
2549, 2821, 2822, 2841, 2840
2550, 2822, 2823, 2842, 2841
2551, 2823, 2824, 2843, 2842
2552, 2824, 2825, 2844, 2843
2553, 2825, 2826, 2845, 2844
2554, 2826, 2827, 2846, 2845
2555, 2827, 2828, 2847, 2846
2556, 2828, 2829, 2848, 2847
2557, 2829, 2830, 2849, 2848
2558, 2830, 2831, 2850, 2849
2559, 2831, 2832, 2851, 2850
2560, 2832,   21,   20, 2851
2561,  351, 2833, 2852,  350
2562, 2833, 2834, 2853, 2852
2563, 2834, 2835, 2854, 2853
2564, 2835, 2836, 2855, 2854
2565, 2836, 2837, 2856, 2855
2566, 2837, 2838, 2857, 2856
2567, 2838, 2839, 2858, 2857
2568, 2839, 2840, 2859, 2858
2569, 2840, 2841, 2860, 2859
2570, 2841, 2842, 2861, 2860
2571, 2842, 2843, 2862, 2861
2572, 2843, 2844, 2863, 2862
2573, 2844, 2845, 2864, 2863
2574, 2845, 2846, 2865, 2864
2575, 2846, 2847, 2866, 2865
2576, 2847, 2848, 2867, 2866
2577, 2848, 2849, 2868, 2867
2578, 2849, 2850, 2869, 2868
2579, 2850, 2851, 2870, 2869
2580, 2851,   20,   19, 2870
2581,  350, 2852, 2871,  349
2582, 2852, 2853, 2872, 2871
2583, 2853, 2854, 2873, 2872
2584, 2854, 2855, 2874, 2873
2585, 2855, 2856, 2875, 2874
2586, 2856, 2857, 2876, 2875
2587, 2857, 2858, 2877, 2876
2588, 2858, 2859, 2878, 2877
2589, 2859, 2860, 2879, 2878
2590, 2860, 2861, 2880, 2879
2591, 2861, 2862, 2881, 2880
2592, 2862, 2863, 2882, 2881
2593, 2863, 2864, 2883, 2882
2594, 2864, 2865, 2884, 2883
2595, 2865, 2866, 2885, 2884
2596, 2866, 2867, 2886, 2885
2597, 2867, 2868, 2887, 2886
2598, 2868, 2869, 2888, 2887
2599, 2869, 2870, 2889, 2888
2600, 2870,   19,   18, 2889
2601,  349, 2871, 2890,  348
2602, 2871, 2872, 2891, 2890
2603, 2872, 2873, 2892, 2891
2604, 2873, 2874, 2893, 2892
2605, 2874, 2875, 2894, 2893
2606, 2875, 2876, 2895, 2894
2607, 2876, 2877, 2896, 2895
2608, 2877, 2878, 2897, 2896
2609, 2878, 2879, 2898, 2897
2610, 2879, 2880, 2899, 2898
2611, 2880, 2881, 2900, 2899
2612, 2881, 2882, 2901, 2900
2613, 2882, 2883, 2902, 2901
2614, 2883, 2884, 2903, 2902
2615, 2884, 2885, 2904, 2903
2616, 2885, 2886, 2905, 2904
2617, 2886, 2887, 2906, 2905
2618, 2887, 2888, 2907, 2906
2619, 2888, 2889, 2908, 2907
2620, 2889,   18,   17, 2908
2621,  348, 2890, 2909,  347
2622, 2890, 2891, 2910, 2909
2623, 2891, 2892, 2911, 2910
2624, 2892, 2893, 2912, 2911
2625, 2893, 2894, 2913, 2912
2626, 2894, 2895, 2914, 2913
2627, 2895, 2896, 2915, 2914
2628, 2896, 2897, 2916, 2915
2629, 2897, 2898, 2917, 2916
2630, 2898, 2899, 2918, 2917
2631, 2899, 2900, 2919, 2918
2632, 2900, 2901, 2920, 2919
2633, 2901, 2902, 2921, 2920
2634, 2902, 2903, 2922, 2921
2635, 2903, 2904, 2923, 2922
2636, 2904, 2905, 2924, 2923
2637, 2905, 2906, 2925, 2924
2638, 2906, 2907, 2926, 2925
2639, 2907, 2908, 2927, 2926
2640, 2908,   17,   16, 2927
2641,  347, 2909, 2928,  346
2642, 2909, 2910, 2929, 2928
2643, 2910, 2911, 2930, 2929
2644, 2911, 2912, 2931, 2930
2645, 2912, 2913, 2932, 2931
2646, 2913, 2914, 2933, 2932
2647, 2914, 2915, 2934, 2933
2648, 2915, 2916, 2935, 2934
2649, 2916, 2917, 2936, 2935
2650, 2917, 2918, 2937, 2936
2651, 2918, 2919, 2938, 2937
2652, 2919, 2920, 2939, 2938
2653, 2920, 2921, 2940, 2939
2654, 2921, 2922, 2941, 2940
2655, 2922, 2923, 2942, 2941
2656, 2923, 2924, 2943, 2942
2657, 2924, 2925, 2944, 2943
2658, 2925, 2926, 2945, 2944
2659, 2926, 2927, 2946, 2945
2660, 2927,   16,   15, 2946
2661,  346, 2928, 2947,  345
2662, 2928, 2929, 2948, 2947
2663, 2929, 2930, 2949, 2948
2664, 2930, 2931, 2950, 2949
2665, 2931, 2932, 2951, 2950
2666, 2932, 2933, 2952, 2951
2667, 2933, 2934, 2953, 2952
2668, 2934, 2935, 2954, 2953
2669, 2935, 2936, 2955, 2954
2670, 2936, 2937, 2956, 2955
2671, 2937, 2938, 2957, 2956
2672, 2938, 2939, 2958, 2957
2673, 2939, 2940, 2959, 2958
2674, 2940, 2941, 2960, 2959
2675, 2941, 2942, 2961, 2960
2676, 2942, 2943, 2962, 2961
2677, 2943, 2944, 2963, 2962
2678, 2944, 2945, 2964, 2963
2679, 2945, 2946, 2965, 2964
2680, 2946,   15,   14, 2965
2681,  345, 2947, 2966,  344
2682, 2947, 2948, 2967, 2966
2683, 2948, 2949, 2968, 2967
2684, 2949, 2950, 2969, 2968
2685, 2950, 2951, 2970, 2969
2686, 2951, 2952, 2971, 2970
2687, 2952, 2953, 2972, 2971
2688, 2953, 2954, 2973, 2972
2689, 2954, 2955, 2974, 2973
2690, 2955, 2956, 2975, 2974
2691, 2956, 2957, 2976, 2975
2692, 2957, 2958, 2977, 2976
2693, 2958, 2959, 2978, 2977
2694, 2959, 2960, 2979, 2978
2695, 2960, 2961, 2980, 2979
2696, 2961, 2962, 2981, 2980
2697, 2962, 2963, 2982, 2981
2698, 2963, 2964, 2983, 2982
2699, 2964, 2965, 2984, 2983
2700, 2965,   14,   13, 2984
2701,  344, 2966, 2985,  343
2702, 2966, 2967, 2986, 2985
2703, 2967, 2968, 2987, 2986
2704, 2968, 2969, 2988, 2987
2705, 2969, 2970, 2989, 2988
2706, 2970, 2971, 2990, 2989
2707, 2971, 2972, 2991, 2990
2708, 2972, 2973, 2992, 2991
2709, 2973, 2974, 2993, 2992
2710, 2974, 2975, 2994, 2993
2711, 2975, 2976, 2995, 2994
2712, 2976, 2977, 2996, 2995
2713, 2977, 2978, 2997, 2996
2714, 2978, 2979, 2998, 2997
2715, 2979, 2980, 2999, 2998
2716, 2980, 2981, 3000, 2999
2717, 2981, 2982, 3001, 3000
2718, 2982, 2983, 3002, 3001
2719, 2983, 2984, 3003, 3002
2720, 2984,   13,   12, 3003
2721,  343, 2985, 3004,  342
2722, 2985, 2986, 3005, 3004
2723, 2986, 2987, 3006, 3005
2724, 2987, 2988, 3007, 3006
2725, 2988, 2989, 3008, 3007
2726, 2989, 2990, 3009, 3008
2727, 2990, 2991, 3010, 3009
2728, 2991, 2992, 3011, 3010
2729, 2992, 2993, 3012, 3011
2730, 2993, 2994, 3013, 3012
2731, 2994, 2995, 3014, 3013
2732, 2995, 2996, 3015, 3014
2733, 2996, 2997, 3016, 3015
2734, 2997, 2998, 3017, 3016
2735, 2998, 2999, 3018, 3017
2736, 2999, 3000, 3019, 3018
2737, 3000, 3001, 3020, 3019
2738, 3001, 3002, 3021, 3020
2739, 3002, 3003, 3022, 3021
2740, 3003,   12,   11, 3022
2741,  342, 3004, 3023,  341
2742, 3004, 3005, 3024, 3023
2743, 3005, 3006, 3025, 3024
2744, 3006, 3007, 3026, 3025
2745, 3007, 3008, 3027, 3026
2746, 3008, 3009, 3028, 3027
2747, 3009, 3010, 3029, 3028
2748, 3010, 3011, 3030, 3029
2749, 3011, 3012, 3031, 3030
2750, 3012, 3013, 3032, 3031
2751, 3013, 3014, 3033, 3032
2752, 3014, 3015, 3034, 3033
2753, 3015, 3016, 3035, 3034
2754, 3016, 3017, 3036, 3035
2755, 3017, 3018, 3037, 3036
2756, 3018, 3019, 3038, 3037
2757, 3019, 3020, 3039, 3038
2758, 3020, 3021, 3040, 3039
2759, 3021, 3022, 3041, 3040
2760, 3022,   11,   10, 3041
2761,  341, 3023, 3042,  340
2762, 3023, 3024, 3043, 3042
2763, 3024, 3025, 3044, 3043
2764, 3025, 3026, 3045, 3044
2765, 3026, 3027, 3046, 3045
2766, 3027, 3028, 3047, 3046
2767, 3028, 3029, 3048, 3047
2768, 3029, 3030, 3049, 3048
2769, 3030, 3031, 3050, 3049
2770, 3031, 3032, 3051, 3050
2771, 3032, 3033, 3052, 3051
2772, 3033, 3034, 3053, 3052
2773, 3034, 3035, 3054, 3053
2774, 3035, 3036, 3055, 3054
2775, 3036, 3037, 3056, 3055
2776, 3037, 3038, 3057, 3056
2777, 3038, 3039, 3058, 3057
2778, 3039, 3040, 3059, 3058
2779, 3040, 3041, 3060, 3059
2780, 3041,   10,    9, 3060
2781,  340, 3042,  339,    8
2782, 3042, 3043,  338,  339
2783, 3043, 3044,  337,  338
2784, 3044, 3045,  336,  337
2785, 3045, 3046,  335,  336
2786, 3046, 3047,  334,  335
2787, 3047, 3048,  333,  334
2788, 3048, 3049,  332,  333
2789, 3049, 3050,  331,  332
2790, 3050, 3051,  330,  331
2791, 3051, 3052,  329,  330
2792, 3052, 3053,  328,  329
2793, 3053, 3054,  327,  328
2794, 3054, 3055,  326,  327
2795, 3055, 3056,  325,  326
2796, 3056, 3057,  324,  325
2797, 3057, 3058,  323,  324
2798, 3058, 3059,  322,  323
2799, 3059, 3060,  321,  322
2800, 3060,    9,    1,  321
2801,    2,  320, 3061,   28
2802,  320,  319, 3062, 3061
2803,  319,  318, 3063, 3062
2804,  318,  317, 3064, 3063
2805,  317,  316, 3065, 3064
2806,  316,  315, 3066, 3065
2807,  315,  314, 3067, 3066
2808,  314,  313, 3068, 3067
2809,  313,  312, 3069, 3068
2810,  312,  311, 3070, 3069
2811,  311,  310, 3071, 3070
2812,  310,  309, 3072, 3071
2813,  309,  308, 3073, 3072
2814,  308,  307, 3074, 3073
2815,  307,  306, 3075, 3074
2816,  306,  305, 3076, 3075
2817,  305,  304, 3077, 3076
2818,  304,  303, 3078, 3077
2819,  303,  302, 3079, 3078
2820,  302,    7,  359, 3079
2821,   28, 3061, 3080,   29
2822, 3061, 3062, 3081, 3080
2823, 3062, 3063, 3082, 3081
2824, 3063, 3064, 3083, 3082
2825, 3064, 3065, 3084, 3083
2826, 3065, 3066, 3085, 3084
2827, 3066, 3067, 3086, 3085
2828, 3067, 3068, 3087, 3086
2829, 3068, 3069, 3088, 3087
2830, 3069, 3070, 3089, 3088
2831, 3070, 3071, 3090, 3089
2832, 3071, 3072, 3091, 3090
2833, 3072, 3073, 3092, 3091
2834, 3073, 3074, 3093, 3092
2835, 3074, 3075, 3094, 3093
2836, 3075, 3076, 3095, 3094
2837, 3076, 3077, 3096, 3095
2838, 3077, 3078, 3097, 3096
2839, 3078, 3079, 3098, 3097
2840, 3079,  359,  360, 3098
2841,   29, 3080, 3099,   30
2842, 3080, 3081, 3100, 3099
2843, 3081, 3082, 3101, 3100
2844, 3082, 3083, 3102, 3101
2845, 3083, 3084, 3103, 3102
2846, 3084, 3085, 3104, 3103
2847, 3085, 3086, 3105, 3104
2848, 3086, 3087, 3106, 3105
2849, 3087, 3088, 3107, 3106
2850, 3088, 3089, 3108, 3107
2851, 3089, 3090, 3109, 3108
2852, 3090, 3091, 3110, 3109
2853, 3091, 3092, 3111, 3110
2854, 3092, 3093, 3112, 3111
2855, 3093, 3094, 3113, 3112
2856, 3094, 3095, 3114, 3113
2857, 3095, 3096, 3115, 3114
2858, 3096, 3097, 3116, 3115
2859, 3097, 3098, 3117, 3116
2860, 3098,  360,  361, 3117
2861,   30, 3099, 3118,   31
2862, 3099, 3100, 3119, 3118
2863, 3100, 3101, 3120, 3119
2864, 3101, 3102, 3121, 3120
2865, 3102, 3103, 3122, 3121
2866, 3103, 3104, 3123, 3122
2867, 3104, 3105, 3124, 3123
2868, 3105, 3106, 3125, 3124
2869, 3106, 3107, 3126, 3125
2870, 3107, 3108, 3127, 3126
2871, 3108, 3109, 3128, 3127
2872, 3109, 3110, 3129, 3128
2873, 3110, 3111, 3130, 3129
2874, 3111, 3112, 3131, 3130
2875, 3112, 3113, 3132, 3131
2876, 3113, 3114, 3133, 3132
2877, 3114, 3115, 3134, 3133
2878, 3115, 3116, 3135, 3134
2879, 3116, 3117, 3136, 3135
2880, 3117,  361,  362, 3136
2881,   31, 3118, 3137,   32
2882, 3118, 3119, 3138, 3137
2883, 3119, 3120, 3139, 3138
2884, 3120, 3121, 3140, 3139
2885, 3121, 3122, 3141, 3140
2886, 3122, 3123, 3142, 3141
2887, 3123, 3124, 3143, 3142
2888, 3124, 3125, 3144, 3143
2889, 3125, 3126, 3145, 3144
2890, 3126, 3127, 3146, 3145
2891, 3127, 3128, 3147, 3146
2892, 3128, 3129, 3148, 3147
2893, 3129, 3130, 3149, 3148
2894, 3130, 3131, 3150, 3149
2895, 3131, 3132, 3151, 3150
2896, 3132, 3133, 3152, 3151
2897, 3133, 3134, 3153, 3152
2898, 3134, 3135, 3154, 3153
2899, 3135, 3136, 3155, 3154
2900, 3136,  362,  363, 3155
2901,   32, 3137, 3156,   33
2902, 3137, 3138, 3157, 3156
2903, 3138, 3139, 3158, 3157
2904, 3139, 3140, 3159, 3158
2905, 3140, 3141, 3160, 3159
2906, 3141, 3142, 3161, 3160
2907, 3142, 3143, 3162, 3161
2908, 3143, 3144, 3163, 3162
2909, 3144, 3145, 3164, 3163
2910, 3145, 3146, 3165, 3164
2911, 3146, 3147, 3166, 3165
2912, 3147, 3148, 3167, 3166
2913, 3148, 3149, 3168, 3167
2914, 3149, 3150, 3169, 3168
2915, 3150, 3151, 3170, 3169
2916, 3151, 3152, 3171, 3170
2917, 3152, 3153, 3172, 3171
2918, 3153, 3154, 3173, 3172
2919, 3154, 3155, 3174, 3173
2920, 3155,  363,  364, 3174
2921,   33, 3156, 3175,   34
2922, 3156, 3157, 3176, 3175
2923, 3157, 3158, 3177, 3176
2924, 3158, 3159, 3178, 3177
2925, 3159, 3160, 3179, 3178
2926, 3160, 3161, 3180, 3179
2927, 3161, 3162, 3181, 3180
2928, 3162, 3163, 3182, 3181
2929, 3163, 3164, 3183, 3182
2930, 3164, 3165, 3184, 3183
2931, 3165, 3166, 3185, 3184
2932, 3166, 3167, 3186, 3185
2933, 3167, 3168, 3187, 3186
2934, 3168, 3169, 3188, 3187
2935, 3169, 3170, 3189, 3188
2936, 3170, 3171, 3190, 3189
2937, 3171, 3172, 3191, 3190
2938, 3172, 3173, 3192, 3191
2939, 3173, 3174, 3193, 3192
2940, 3174,  364,  365, 3193
2941,   34, 3175, 3194,   35
2942, 3175, 3176, 3195, 3194
2943, 3176, 3177, 3196, 3195
2944, 3177, 3178, 3197, 3196
2945, 3178, 3179, 3198, 3197
2946, 3179, 3180, 3199, 3198
2947, 3180, 3181, 3200, 3199
2948, 3181, 3182, 3201, 3200
2949, 3182, 3183, 3202, 3201
2950, 3183, 3184, 3203, 3202
2951, 3184, 3185, 3204, 3203
2952, 3185, 3186, 3205, 3204
2953, 3186, 3187, 3206, 3205
2954, 3187, 3188, 3207, 3206
2955, 3188, 3189, 3208, 3207
2956, 3189, 3190, 3209, 3208
2957, 3190, 3191, 3210, 3209
2958, 3191, 3192, 3211, 3210
2959, 3192, 3193, 3212, 3211
2960, 3193,  365,  366, 3212
2961,   35, 3194, 3213,   36
2962, 3194, 3195, 3214, 3213
2963, 3195, 3196, 3215, 3214
2964, 3196, 3197, 3216, 3215
2965, 3197, 3198, 3217, 3216
2966, 3198, 3199, 3218, 3217
2967, 3199, 3200, 3219, 3218
2968, 3200, 3201, 3220, 3219
2969, 3201, 3202, 3221, 3220
2970, 3202, 3203, 3222, 3221
2971, 3203, 3204, 3223, 3222
2972, 3204, 3205, 3224, 3223
2973, 3205, 3206, 3225, 3224
2974, 3206, 3207, 3226, 3225
2975, 3207, 3208, 3227, 3226
2976, 3208, 3209, 3228, 3227
2977, 3209, 3210, 3229, 3228
2978, 3210, 3211, 3230, 3229
2979, 3211, 3212, 3231, 3230
2980, 3212,  366,  367, 3231
2981,   36, 3213, 3232,   37
2982, 3213, 3214, 3233, 3232
2983, 3214, 3215, 3234, 3233
2984, 3215, 3216, 3235, 3234
2985, 3216, 3217, 3236, 3235
2986, 3217, 3218, 3237, 3236
2987, 3218, 3219, 3238, 3237
2988, 3219, 3220, 3239, 3238
2989, 3220, 3221, 3240, 3239
2990, 3221, 3222, 3241, 3240
2991, 3222, 3223, 3242, 3241
2992, 3223, 3224, 3243, 3242
2993, 3224, 3225, 3244, 3243
2994, 3225, 3226, 3245, 3244
2995, 3226, 3227, 3246, 3245
2996, 3227, 3228, 3247, 3246
2997, 3228, 3229, 3248, 3247
2998, 3229, 3230, 3249, 3248
2999, 3230, 3231, 3250, 3249
3000, 3231,  367,  368, 3250
3001,   37, 3232, 3251,   38
3002, 3232, 3233, 3252, 3251
3003, 3233, 3234, 3253, 3252
3004, 3234, 3235, 3254, 3253
3005, 3235, 3236, 3255, 3254
3006, 3236, 3237, 3256, 3255
3007, 3237, 3238, 3257, 3256
3008, 3238, 3239, 3258, 3257
3009, 3239, 3240, 3259, 3258
3010, 3240, 3241, 3260, 3259
3011, 3241, 3242, 3261, 3260
3012, 3242, 3243, 3262, 3261
3013, 3243, 3244, 3263, 3262
3014, 3244, 3245, 3264, 3263
3015, 3245, 3246, 3265, 3264
3016, 3246, 3247, 3266, 3265
3017, 3247, 3248, 3267, 3266
3018, 3248, 3249, 3268, 3267
3019, 3249, 3250, 3269, 3268
3020, 3250,  368,  369, 3269
3021,   38, 3251, 3270,   39
3022, 3251, 3252, 3271, 3270
3023, 3252, 3253, 3272, 3271
3024, 3253, 3254, 3273, 3272
3025, 3254, 3255, 3274, 3273
3026, 3255, 3256, 3275, 3274
3027, 3256, 3257, 3276, 3275
3028, 3257, 3258, 3277, 3276
3029, 3258, 3259, 3278, 3277
3030, 3259, 3260, 3279, 3278
3031, 3260, 3261, 3280, 3279
3032, 3261, 3262, 3281, 3280
3033, 3262, 3263, 3282, 3281
3034, 3263, 3264, 3283, 3282
3035, 3264, 3265, 3284, 3283
3036, 3265, 3266, 3285, 3284
3037, 3266, 3267, 3286, 3285
3038, 3267, 3268, 3287, 3286
3039, 3268, 3269, 3288, 3287
3040, 3269,  369,  370, 3288
3041,   39, 3270, 3289,   40
3042, 3270, 3271, 3290, 3289
3043, 3271, 3272, 3291, 3290
3044, 3272, 3273, 3292, 3291
3045, 3273, 3274, 3293, 3292
3046, 3274, 3275, 3294, 3293
3047, 3275, 3276, 3295, 3294
3048, 3276, 3277, 3296, 3295
3049, 3277, 3278, 3297, 3296
3050, 3278, 3279, 3298, 3297
3051, 3279, 3280, 3299, 3298
3052, 3280, 3281, 3300, 3299
3053, 3281, 3282, 3301, 3300
3054, 3282, 3283, 3302, 3301
3055, 3283, 3284, 3303, 3302
3056, 3284, 3285, 3304, 3303
3057, 3285, 3286, 3305, 3304
3058, 3286, 3287, 3306, 3305
3059, 3287, 3288, 3307, 3306
3060, 3288,  370,  371, 3307
3061,   40, 3289, 3308,   41
3062, 3289, 3290, 3309, 3308
3063, 3290, 3291, 3310, 3309
3064, 3291, 3292, 3311, 3310
3065, 3292, 3293, 3312, 3311
3066, 3293, 3294, 3313, 3312
3067, 3294, 3295, 3314, 3313
3068, 3295, 3296, 3315, 3314
3069, 3296, 3297, 3316, 3315
3070, 3297, 3298, 3317, 3316
3071, 3298, 3299, 3318, 3317
3072, 3299, 3300, 3319, 3318
3073, 3300, 3301, 3320, 3319
3074, 3301, 3302, 3321, 3320
3075, 3302, 3303, 3322, 3321
3076, 3303, 3304, 3323, 3322
3077, 3304, 3305, 3324, 3323
3078, 3305, 3306, 3325, 3324
3079, 3306, 3307, 3326, 3325
3080, 3307,  371,  372, 3326
3081,   41, 3308, 3327,   42
3082, 3308, 3309, 3328, 3327
3083, 3309, 3310, 3329, 3328
3084, 3310, 3311, 3330, 3329
3085, 3311, 3312, 3331, 3330
3086, 3312, 3313, 3332, 3331
3087, 3313, 3314, 3333, 3332
3088, 3314, 3315, 3334, 3333
3089, 3315, 3316, 3335, 3334
3090, 3316, 3317, 3336, 3335
3091, 3317, 3318, 3337, 3336
3092, 3318, 3319, 3338, 3337
3093, 3319, 3320, 3339, 3338
3094, 3320, 3321, 3340, 3339
3095, 3321, 3322, 3341, 3340
3096, 3322, 3323, 3342, 3341
3097, 3323, 3324, 3343, 3342
3098, 3324, 3325, 3344, 3343
3099, 3325, 3326, 3345, 3344
3100, 3326,  372,  373, 3345
3101,   42, 3327, 3346,   43
3102, 3327, 3328, 3347, 3346
3103, 3328, 3329, 3348, 3347
3104, 3329, 3330, 3349, 3348
3105, 3330, 3331, 3350, 3349
3106, 3331, 3332, 3351, 3350
3107, 3332, 3333, 3352, 3351
3108, 3333, 3334, 3353, 3352
3109, 3334, 3335, 3354, 3353
3110, 3335, 3336, 3355, 3354
3111, 3336, 3337, 3356, 3355
3112, 3337, 3338, 3357, 3356
3113, 3338, 3339, 3358, 3357
3114, 3339, 3340, 3359, 3358
3115, 3340, 3341, 3360, 3359
3116, 3341, 3342, 3361, 3360
3117, 3342, 3343, 3362, 3361
3118, 3343, 3344, 3363, 3362
3119, 3344, 3345, 3364, 3363
3120, 3345,  373,  374, 3364
3121,   43, 3346, 3365,   44
3122, 3346, 3347, 3366, 3365
3123, 3347, 3348, 3367, 3366
3124, 3348, 3349, 3368, 3367
3125, 3349, 3350, 3369, 3368
3126, 3350, 3351, 3370, 3369
3127, 3351, 3352, 3371, 3370
3128, 3352, 3353, 3372, 3371
3129, 3353, 3354, 3373, 3372
3130, 3354, 3355, 3374, 3373
3131, 3355, 3356, 3375, 3374
3132, 3356, 3357, 3376, 3375
3133, 3357, 3358, 3377, 3376
3134, 3358, 3359, 3378, 3377
3135, 3359, 3360, 3379, 3378
3136, 3360, 3361, 3380, 3379
3137, 3361, 3362, 3381, 3380
3138, 3362, 3363, 3382, 3381
3139, 3363, 3364, 3383, 3382
3140, 3364,  374,  375, 3383
3141,   44, 3365, 3384,   45
3142, 3365, 3366, 3385, 3384
3143, 3366, 3367, 3386, 3385
3144, 3367, 3368, 3387, 3386
3145, 3368, 3369, 3388, 3387
3146, 3369, 3370, 3389, 3388
3147, 3370, 3371, 3390, 3389
3148, 3371, 3372, 3391, 3390
3149, 3372, 3373, 3392, 3391
3150, 3373, 3374, 3393, 3392
3151, 3374, 3375, 3394, 3393
3152, 3375, 3376, 3395, 3394
3153, 3376, 3377, 3396, 3395
3154, 3377, 3378, 3397, 3396
3155, 3378, 3379, 3398, 3397
3156, 3379, 3380, 3399, 3398
3157, 3380, 3381, 3400, 3399
3158, 3381, 3382, 3401, 3400
3159, 3382, 3383, 3402, 3401
3160, 3383,  375,  376, 3402
3161,   45, 3384, 3403,   46
3162, 3384, 3385, 3404, 3403
3163, 3385, 3386, 3405, 3404
3164, 3386, 3387, 3406, 3405
3165, 3387, 3388, 3407, 3406
3166, 3388, 3389, 3408, 3407
3167, 3389, 3390, 3409, 3408
3168, 3390, 3391, 3410, 3409
3169, 3391, 3392, 3411, 3410
3170, 3392, 3393, 3412, 3411
3171, 3393, 3394, 3413, 3412
3172, 3394, 3395, 3414, 3413
3173, 3395, 3396, 3415, 3414
3174, 3396, 3397, 3416, 3415
3175, 3397, 3398, 3417, 3416
3176, 3398, 3399, 3418, 3417
3177, 3399, 3400, 3419, 3418
3178, 3400, 3401, 3420, 3419
3179, 3401, 3402, 3421, 3420
3180, 3402,  376,  377, 3421
3181,   46, 3403, 3422,   47
3182, 3403, 3404, 3423, 3422
3183, 3404, 3405, 3424, 3423
3184, 3405, 3406, 3425, 3424
3185, 3406, 3407, 3426, 3425
3186, 3407, 3408, 3427, 3426
3187, 3408, 3409, 3428, 3427
3188, 3409, 3410, 3429, 3428
3189, 3410, 3411, 3430, 3429
3190, 3411, 3412, 3431, 3430
3191, 3412, 3413, 3432, 3431
3192, 3413, 3414, 3433, 3432
3193, 3414, 3415, 3434, 3433
3194, 3415, 3416, 3435, 3434
3195, 3416, 3417, 3436, 3435
3196, 3417, 3418, 3437, 3436
3197, 3418, 3419, 3438, 3437
3198, 3419, 3420, 3439, 3438
3199, 3420, 3421, 3440, 3439
3200, 3421,  377,  378, 3440
3201,   47, 3422, 3441,   48
3202, 3422, 3423, 3442, 3441
3203, 3423, 3424, 3443, 3442
3204, 3424, 3425, 3444, 3443
3205, 3425, 3426, 3445, 3444
3206, 3426, 3427, 3446, 3445
3207, 3427, 3428, 3447, 3446
3208, 3428, 3429, 3448, 3447
3209, 3429, 3430, 3449, 3448
3210, 3430, 3431, 3450, 3449
3211, 3431, 3432, 3451, 3450
3212, 3432, 3433, 3452, 3451
3213, 3433, 3434, 3453, 3452
3214, 3434, 3435, 3454, 3453
3215, 3435, 3436, 3455, 3454
3216, 3436, 3437, 3456, 3455
3217, 3437, 3438, 3457, 3456
3218, 3438, 3439, 3458, 3457
3219, 3439, 3440, 3459, 3458
3220, 3440,  378,  379, 3459
3221,   48, 3441, 3460,   49
3222, 3441, 3442, 3461, 3460
3223, 3442, 3443, 3462, 3461
3224, 3443, 3444, 3463, 3462
3225, 3444, 3445, 3464, 3463
3226, 3445, 3446, 3465, 3464
3227, 3446, 3447, 3466, 3465
3228, 3447, 3448, 3467, 3466
3229, 3448, 3449, 3468, 3467
3230, 3449, 3450, 3469, 3468
3231, 3450, 3451, 3470, 3469
3232, 3451, 3452, 3471, 3470
3233, 3452, 3453, 3472, 3471
3234, 3453, 3454, 3473, 3472
3235, 3454, 3455, 3474, 3473
3236, 3455, 3456, 3475, 3474
3237, 3456, 3457, 3476, 3475
3238, 3457, 3458, 3477, 3476
3239, 3458, 3459, 3478, 3477
3240, 3459,  379,  380, 3478
3241,   49, 3460, 3479,   50
3242, 3460, 3461, 3480, 3479
3243, 3461, 3462, 3481, 3480
3244, 3462, 3463, 3482, 3481
3245, 3463, 3464, 3483, 3482
3246, 3464, 3465, 3484, 3483
3247, 3465, 3466, 3485, 3484
3248, 3466, 3467, 3486, 3485
3249, 3467, 3468, 3487, 3486
3250, 3468, 3469, 3488, 3487
3251, 3469, 3470, 3489, 3488
3252, 3470, 3471, 3490, 3489
3253, 3471, 3472, 3491, 3490
3254, 3472, 3473, 3492, 3491
3255, 3473, 3474, 3493, 3492
3256, 3474, 3475, 3494, 3493
3257, 3475, 3476, 3495, 3494
3258, 3476, 3477, 3496, 3495
3259, 3477, 3478, 3497, 3496
3260, 3478,  380,  381, 3497
3261,   50, 3479, 3498,   51
3262, 3479, 3480, 3499, 3498
3263, 3480, 3481, 3500, 3499
3264, 3481, 3482, 3501, 3500
3265, 3482, 3483, 3502, 3501
3266, 3483, 3484, 3503, 3502
3267, 3484, 3485, 3504, 3503
3268, 3485, 3486, 3505, 3504
3269, 3486, 3487, 3506, 3505
3270, 3487, 3488, 3507, 3506
3271, 3488, 3489, 3508, 3507
3272, 3489, 3490, 3509, 3508
3273, 3490, 3491, 3510, 3509
3274, 3491, 3492, 3511, 3510
3275, 3492, 3493, 3512, 3511
3276, 3493, 3494, 3513, 3512
3277, 3494, 3495, 3514, 3513
3278, 3495, 3496, 3515, 3514
3279, 3496, 3497, 3516, 3515
3280, 3497,  381,  382, 3516
3281,   51, 3498, 3517,   52
3282, 3498, 3499, 3518, 3517
3283, 3499, 3500, 3519, 3518
3284, 3500, 3501, 3520, 3519
3285, 3501, 3502, 3521, 3520
3286, 3502, 3503, 3522, 3521
3287, 3503, 3504, 3523, 3522
3288, 3504, 3505, 3524, 3523
3289, 3505, 3506, 3525, 3524
3290, 3506, 3507, 3526, 3525
3291, 3507, 3508, 3527, 3526
3292, 3508, 3509, 3528, 3527
3293, 3509, 3510, 3529, 3528
3294, 3510, 3511, 3530, 3529
3295, 3511, 3512, 3531, 3530
3296, 3512, 3513, 3532, 3531
3297, 3513, 3514, 3533, 3532
3298, 3514, 3515, 3534, 3533
3299, 3515, 3516, 3535, 3534
3300, 3516,  382,  383, 3535
3301,   52, 3517, 3536,   53
3302, 3517, 3518, 3537, 3536
3303, 3518, 3519, 3538, 3537
3304, 3519, 3520, 3539, 3538
3305, 3520, 3521, 3540, 3539
3306, 3521, 3522, 3541, 3540
3307, 3522, 3523, 3542, 3541
3308, 3523, 3524, 3543, 3542
3309, 3524, 3525, 3544, 3543
3310, 3525, 3526, 3545, 3544
3311, 3526, 3527, 3546, 3545
3312, 3527, 3528, 3547, 3546
3313, 3528, 3529, 3548, 3547
3314, 3529, 3530, 3549, 3548
3315, 3530, 3531, 3550, 3549
3316, 3531, 3532, 3551, 3550
3317, 3532, 3533, 3552, 3551
3318, 3533, 3534, 3553, 3552
3319, 3534, 3535, 3554, 3553
3320, 3535,  383,  384, 3554
3321,   53, 3536, 3555,   54
3322, 3536, 3537, 3556, 3555
3323, 3537, 3538, 3557, 3556
3324, 3538, 3539, 3558, 3557
3325, 3539, 3540, 3559, 3558
3326, 3540, 3541, 3560, 3559
3327, 3541, 3542, 3561, 3560
3328, 3542, 3543, 3562, 3561
3329, 3543, 3544, 3563, 3562
3330, 3544, 3545, 3564, 3563
3331, 3545, 3546, 3565, 3564
3332, 3546, 3547, 3566, 3565
3333, 3547, 3548, 3567, 3566
3334, 3548, 3549, 3568, 3567
3335, 3549, 3550, 3569, 3568
3336, 3550, 3551, 3570, 3569
3337, 3551, 3552, 3571, 3570
3338, 3552, 3553, 3572, 3571
3339, 3553, 3554, 3573, 3572
3340, 3554,  384,  385, 3573
3341,   54, 3555, 3574,   55
3342, 3555, 3556, 3575, 3574
3343, 3556, 3557, 3576, 3575
3344, 3557, 3558, 3577, 3576
3345, 3558, 3559, 3578, 3577
3346, 3559, 3560, 3579, 3578
3347, 3560, 3561, 3580, 3579
3348, 3561, 3562, 3581, 3580
3349, 3562, 3563, 3582, 3581
3350, 3563, 3564, 3583, 3582
3351, 3564, 3565, 3584, 3583
3352, 3565, 3566, 3585, 3584
3353, 3566, 3567, 3586, 3585
3354, 3567, 3568, 3587, 3586
3355, 3568, 3569, 3588, 3587
3356, 3569, 3570, 3589, 3588
3357, 3570, 3571, 3590, 3589
3358, 3571, 3572, 3591, 3590
3359, 3572, 3573, 3592, 3591
3360, 3573,  385,  386, 3592
3361,   55, 3574, 3593,   56
3362, 3574, 3575, 3594, 3593
3363, 3575, 3576, 3595, 3594
3364, 3576, 3577, 3596, 3595
3365, 3577, 3578, 3597, 3596
3366, 3578, 3579, 3598, 3597
3367, 3579, 3580, 3599, 3598
3368, 3580, 3581, 3600, 3599
3369, 3581, 3582, 3601, 3600
3370, 3582, 3583, 3602, 3601
3371, 3583, 3584, 3603, 3602
3372, 3584, 3585, 3604, 3603
3373, 3585, 3586, 3605, 3604
3374, 3586, 3587, 3606, 3605
3375, 3587, 3588, 3607, 3606
3376, 3588, 3589, 3608, 3607
3377, 3589, 3590, 3609, 3608
3378, 3590, 3591, 3610, 3609
3379, 3591, 3592, 3611, 3610
3380, 3592,  386,  387, 3611
3381,   56, 3593, 3612,   57
3382, 3593, 3594, 3613, 3612
3383, 3594, 3595, 3614, 3613
3384, 3595, 3596, 3615, 3614
3385, 3596, 3597, 3616, 3615
3386, 3597, 3598, 3617, 3616
3387, 3598, 3599, 3618, 3617
3388, 3599, 3600, 3619, 3618
3389, 3600, 3601, 3620, 3619
3390, 3601, 3602, 3621, 3620
3391, 3602, 3603, 3622, 3621
3392, 3603, 3604, 3623, 3622
3393, 3604, 3605, 3624, 3623
3394, 3605, 3606, 3625, 3624
3395, 3606, 3607, 3626, 3625
3396, 3607, 3608, 3627, 3626
3397, 3608, 3609, 3628, 3627
3398, 3609, 3610, 3629, 3628
3399, 3610, 3611, 3630, 3629
3400, 3611,  387,  388, 3630
3401,   57, 3612, 3631,   58
3402, 3612, 3613, 3632, 3631
3403, 3613, 3614, 3633, 3632
3404, 3614, 3615, 3634, 3633
3405, 3615, 3616, 3635, 3634
3406, 3616, 3617, 3636, 3635
3407, 3617, 3618, 3637, 3636
3408, 3618, 3619, 3638, 3637
3409, 3619, 3620, 3639, 3638
3410, 3620, 3621, 3640, 3639
3411, 3621, 3622, 3641, 3640
3412, 3622, 3623, 3642, 3641
3413, 3623, 3624, 3643, 3642
3414, 3624, 3625, 3644, 3643
3415, 3625, 3626, 3645, 3644
3416, 3626, 3627, 3646, 3645
3417, 3627, 3628, 3647, 3646
3418, 3628, 3629, 3648, 3647
3419, 3629, 3630, 3649, 3648
3420, 3630,  388,  389, 3649
3421,   58, 3631, 3650,   59
3422, 3631, 3632, 3651, 3650
3423, 3632, 3633, 3652, 3651
3424, 3633, 3634, 3653, 3652
3425, 3634, 3635, 3654, 3653
3426, 3635, 3636, 3655, 3654
3427, 3636, 3637, 3656, 3655
3428, 3637, 3638, 3657, 3656
3429, 3638, 3639, 3658, 3657
3430, 3639, 3640, 3659, 3658
3431, 3640, 3641, 3660, 3659
3432, 3641, 3642, 3661, 3660
3433, 3642, 3643, 3662, 3661
3434, 3643, 3644, 3663, 3662
3435, 3644, 3645, 3664, 3663
3436, 3645, 3646, 3665, 3664
3437, 3646, 3647, 3666, 3665
3438, 3647, 3648, 3667, 3666
3439, 3648, 3649, 3668, 3667
3440, 3649,  389,  390, 3668
3441,   59, 3650, 3669,   60
3442, 3650, 3651, 3670, 3669
3443, 3651, 3652, 3671, 3670
3444, 3652, 3653, 3672, 3671
3445, 3653, 3654, 3673, 3672
3446, 3654, 3655, 3674, 3673
3447, 3655, 3656, 3675, 3674
3448, 3656, 3657, 3676, 3675
3449, 3657, 3658, 3677, 3676
3450, 3658, 3659, 3678, 3677
3451, 3659, 3660, 3679, 3678
3452, 3660, 3661, 3680, 3679
3453, 3661, 3662, 3681, 3680
3454, 3662, 3663, 3682, 3681
3455, 3663, 3664, 3683, 3682
3456, 3664, 3665, 3684, 3683
3457, 3665, 3666, 3685, 3684
3458, 3666, 3667, 3686, 3685
3459, 3667, 3668, 3687, 3686
3460, 3668,  390,  391, 3687
3461,   60, 3669, 3688,   61
3462, 3669, 3670, 3689, 3688
3463, 3670, 3671, 3690, 3689
3464, 3671, 3672, 3691, 3690
3465, 3672, 3673, 3692, 3691
3466, 3673, 3674, 3693, 3692
3467, 3674, 3675, 3694, 3693
3468, 3675, 3676, 3695, 3694
3469, 3676, 3677, 3696, 3695
3470, 3677, 3678, 3697, 3696
3471, 3678, 3679, 3698, 3697
3472, 3679, 3680, 3699, 3698
3473, 3680, 3681, 3700, 3699
3474, 3681, 3682, 3701, 3700
3475, 3682, 3683, 3702, 3701
3476, 3683, 3684, 3703, 3702
3477, 3684, 3685, 3704, 3703
3478, 3685, 3686, 3705, 3704
3479, 3686, 3687, 3706, 3705
3480, 3687,  391,  392, 3706
3481,   61, 3688, 3707,   62
3482, 3688, 3689, 3708, 3707
3483, 3689, 3690, 3709, 3708
3484, 3690, 3691, 3710, 3709
3485, 3691, 3692, 3711, 3710
3486, 3692, 3693, 3712, 3711
3487, 3693, 3694, 3713, 3712
3488, 3694, 3695, 3714, 3713
3489, 3695, 3696, 3715, 3714
3490, 3696, 3697, 3716, 3715
3491, 3697, 3698, 3717, 3716
3492, 3698, 3699, 3718, 3717
3493, 3699, 3700, 3719, 3718
3494, 3700, 3701, 3720, 3719
3495, 3701, 3702, 3721, 3720
3496, 3702, 3703, 3722, 3721
3497, 3703, 3704, 3723, 3722
3498, 3704, 3705, 3724, 3723
3499, 3705, 3706, 3725, 3724
3500, 3706,  392,  393, 3725
3501,   62, 3707, 3726,   63
3502, 3707, 3708, 3727, 3726
3503, 3708, 3709, 3728, 3727
3504, 3709, 3710, 3729, 3728
3505, 3710, 3711, 3730, 3729
3506, 3711, 3712, 3731, 3730
3507, 3712, 3713, 3732, 3731
3508, 3713, 3714, 3733, 3732
3509, 3714, 3715, 3734, 3733
3510, 3715, 3716, 3735, 3734
3511, 3716, 3717, 3736, 3735
3512, 3717, 3718, 3737, 3736
3513, 3718, 3719, 3738, 3737
3514, 3719, 3720, 3739, 3738
3515, 3720, 3721, 3740, 3739
3516, 3721, 3722, 3741, 3740
3517, 3722, 3723, 3742, 3741
3518, 3723, 3724, 3743, 3742
3519, 3724, 3725, 3744, 3743
3520, 3725,  393,  394, 3744
3521,   63, 3726, 3745,   64
3522, 3726, 3727, 3746, 3745
3523, 3727, 3728, 3747, 3746
3524, 3728, 3729, 3748, 3747
3525, 3729, 3730, 3749, 3748
3526, 3730, 3731, 3750, 3749
3527, 3731, 3732, 3751, 3750
3528, 3732, 3733, 3752, 3751
3529, 3733, 3734, 3753, 3752
3530, 3734, 3735, 3754, 3753
3531, 3735, 3736, 3755, 3754
3532, 3736, 3737, 3756, 3755
3533, 3737, 3738, 3757, 3756
3534, 3738, 3739, 3758, 3757
3535, 3739, 3740, 3759, 3758
3536, 3740, 3741, 3760, 3759
3537, 3741, 3742, 3761, 3760
3538, 3742, 3743, 3762, 3761
3539, 3743, 3744, 3763, 3762
3540, 3744,  394,  395, 3763
3541,   64, 3745, 3764,   65
3542, 3745, 3746, 3765, 3764
3543, 3746, 3747, 3766, 3765
3544, 3747, 3748, 3767, 3766
3545, 3748, 3749, 3768, 3767
3546, 3749, 3750, 3769, 3768
3547, 3750, 3751, 3770, 3769
3548, 3751, 3752, 3771, 3770
3549, 3752, 3753, 3772, 3771
3550, 3753, 3754, 3773, 3772
3551, 3754, 3755, 3774, 3773
3552, 3755, 3756, 3775, 3774
3553, 3756, 3757, 3776, 3775
3554, 3757, 3758, 3777, 3776
3555, 3758, 3759, 3778, 3777
3556, 3759, 3760, 3779, 3778
3557, 3760, 3761, 3780, 3779
3558, 3761, 3762, 3781, 3780
3559, 3762, 3763, 3782, 3781
3560, 3763,  395,  396, 3782
3561,   65, 3764, 3783,   66
3562, 3764, 3765, 3784, 3783
3563, 3765, 3766, 3785, 3784
3564, 3766, 3767, 3786, 3785
3565, 3767, 3768, 3787, 3786
3566, 3768, 3769, 3788, 3787
3567, 3769, 3770, 3789, 3788
3568, 3770, 3771, 3790, 3789
3569, 3771, 3772, 3791, 3790
3570, 3772, 3773, 3792, 3791
3571, 3773, 3774, 3793, 3792
3572, 3774, 3775, 3794, 3793
3573, 3775, 3776, 3795, 3794
3574, 3776, 3777, 3796, 3795
3575, 3777, 3778, 3797, 3796
3576, 3778, 3779, 3798, 3797
3577, 3779, 3780, 3799, 3798
3578, 3780, 3781, 3800, 3799
3579, 3781, 3782, 3801, 3800
3580, 3782,  396,  397, 3801
3581,   66, 3783, 3802,   67
3582, 3783, 3784, 3803, 3802
3583, 3784, 3785, 3804, 3803
3584, 3785, 3786, 3805, 3804
3585, 3786, 3787, 3806, 3805
3586, 3787, 3788, 3807, 3806
3587, 3788, 3789, 3808, 3807
3588, 3789, 3790, 3809, 3808
3589, 3790, 3791, 3810, 3809
3590, 3791, 3792, 3811, 3810
3591, 3792, 3793, 3812, 3811
3592, 3793, 3794, 3813, 3812
3593, 3794, 3795, 3814, 3813
3594, 3795, 3796, 3815, 3814
3595, 3796, 3797, 3816, 3815
3596, 3797, 3798, 3817, 3816
3597, 3798, 3799, 3818, 3817
3598, 3799, 3800, 3819, 3818
3599, 3800, 3801, 3820, 3819
3600, 3801,  397,  398, 3820
3601,   67, 3802, 3821,   68
3602, 3802, 3803, 3822, 3821
3603, 3803, 3804, 3823, 3822
3604, 3804, 3805, 3824, 3823
3605, 3805, 3806, 3825, 3824
3606, 3806, 3807, 3826, 3825
3607, 3807, 3808, 3827, 3826
3608, 3808, 3809, 3828, 3827
3609, 3809, 3810, 3829, 3828
3610, 3810, 3811, 3830, 3829
3611, 3811, 3812, 3831, 3830
3612, 3812, 3813, 3832, 3831
3613, 3813, 3814, 3833, 3832
3614, 3814, 3815, 3834, 3833
3615, 3815, 3816, 3835, 3834
3616, 3816, 3817, 3836, 3835
3617, 3817, 3818, 3837, 3836
3618, 3818, 3819, 3838, 3837
3619, 3819, 3820, 3839, 3838
3620, 3820,  398,  399, 3839
3621,   68, 3821, 3840,   69
3622, 3821, 3822, 3841, 3840
3623, 3822, 3823, 3842, 3841
3624, 3823, 3824, 3843, 3842
3625, 3824, 3825, 3844, 3843
3626, 3825, 3826, 3845, 3844
3627, 3826, 3827, 3846, 3845
3628, 3827, 3828, 3847, 3846
3629, 3828, 3829, 3848, 3847
3630, 3829, 3830, 3849, 3848
3631, 3830, 3831, 3850, 3849
3632, 3831, 3832, 3851, 3850
3633, 3832, 3833, 3852, 3851
3634, 3833, 3834, 3853, 3852
3635, 3834, 3835, 3854, 3853
3636, 3835, 3836, 3855, 3854
3637, 3836, 3837, 3856, 3855
3638, 3837, 3838, 3857, 3856
3639, 3838, 3839, 3858, 3857
3640, 3839,  399,  400, 3858
3641,   69, 3840, 3859,   70
3642, 3840, 3841, 3860, 3859
3643, 3841, 3842, 3861, 3860
3644, 3842, 3843, 3862, 3861
3645, 3843, 3844, 3863, 3862
3646, 3844, 3845, 3864, 3863
3647, 3845, 3846, 3865, 3864
3648, 3846, 3847, 3866, 3865
3649, 3847, 3848, 3867, 3866
3650, 3848, 3849, 3868, 3867
3651, 3849, 3850, 3869, 3868
3652, 3850, 3851, 3870, 3869
3653, 3851, 3852, 3871, 3870
3654, 3852, 3853, 3872, 3871
3655, 3853, 3854, 3873, 3872
3656, 3854, 3855, 3874, 3873
3657, 3855, 3856, 3875, 3874
3658, 3856, 3857, 3876, 3875
3659, 3857, 3858, 3877, 3876
3660, 3858,  400,  401, 3877
3661,   70, 3859, 3878,   71
3662, 3859, 3860, 3879, 3878
3663, 3860, 3861, 3880, 3879
3664, 3861, 3862, 3881, 3880
3665, 3862, 3863, 3882, 3881
3666, 3863, 3864, 3883, 3882
3667, 3864, 3865, 3884, 3883
3668, 3865, 3866, 3885, 3884
3669, 3866, 3867, 3886, 3885
3670, 3867, 3868, 3887, 3886
3671, 3868, 3869, 3888, 3887
3672, 3869, 3870, 3889, 3888
3673, 3870, 3871, 3890, 3889
3674, 3871, 3872, 3891, 3890
3675, 3872, 3873, 3892, 3891
3676, 3873, 3874, 3893, 3892
3677, 3874, 3875, 3894, 3893
3678, 3875, 3876, 3895, 3894
3679, 3876, 3877, 3896, 3895
3680, 3877,  401,  402, 3896
3681,   71, 3878, 3897,   72
3682, 3878, 3879, 3898, 3897
3683, 3879, 3880, 3899, 3898
3684, 3880, 3881, 3900, 3899
3685, 3881, 3882, 3901, 3900
3686, 3882, 3883, 3902, 3901
3687, 3883, 3884, 3903, 3902
3688, 3884, 3885, 3904, 3903
3689, 3885, 3886, 3905, 3904
3690, 3886, 3887, 3906, 3905
3691, 3887, 3888, 3907, 3906
3692, 3888, 3889, 3908, 3907
3693, 3889, 3890, 3909, 3908
3694, 3890, 3891, 3910, 3909
3695, 3891, 3892, 3911, 3910
3696, 3892, 3893, 3912, 3911
3697, 3893, 3894, 3913, 3912
3698, 3894, 3895, 3914, 3913
3699, 3895, 3896, 3915, 3914
3700, 3896,  402,  403, 3915
3701,   72, 3897, 3916,   73
3702, 3897, 3898, 3917, 3916
3703, 3898, 3899, 3918, 3917
3704, 3899, 3900, 3919, 3918
3705, 3900, 3901, 3920, 3919
3706, 3901, 3902, 3921, 3920
3707, 3902, 3903, 3922, 3921
3708, 3903, 3904, 3923, 3922
3709, 3904, 3905, 3924, 3923
3710, 3905, 3906, 3925, 3924
3711, 3906, 3907, 3926, 3925
3712, 3907, 3908, 3927, 3926
3713, 3908, 3909, 3928, 3927
3714, 3909, 3910, 3929, 3928
3715, 3910, 3911, 3930, 3929
3716, 3911, 3912, 3931, 3930
3717, 3912, 3913, 3932, 3931
3718, 3913, 3914, 3933, 3932
3719, 3914, 3915, 3934, 3933
3720, 3915,  403,  404, 3934
3721,   73, 3916, 3935,   74
3722, 3916, 3917, 3936, 3935
3723, 3917, 3918, 3937, 3936
3724, 3918, 3919, 3938, 3937
3725, 3919, 3920, 3939, 3938
3726, 3920, 3921, 3940, 3939
3727, 3921, 3922, 3941, 3940
3728, 3922, 3923, 3942, 3941
3729, 3923, 3924, 3943, 3942
3730, 3924, 3925, 3944, 3943
3731, 3925, 3926, 3945, 3944
3732, 3926, 3927, 3946, 3945
3733, 3927, 3928, 3947, 3946
3734, 3928, 3929, 3948, 3947
3735, 3929, 3930, 3949, 3948
3736, 3930, 3931, 3950, 3949
3737, 3931, 3932, 3951, 3950
3738, 3932, 3933, 3952, 3951
3739, 3933, 3934, 3953, 3952
3740, 3934,  404,  405, 3953
3741,   74, 3935, 3954,   75
3742, 3935, 3936, 3955, 3954
3743, 3936, 3937, 3956, 3955
3744, 3937, 3938, 3957, 3956
3745, 3938, 3939, 3958, 3957
3746, 3939, 3940, 3959, 3958
3747, 3940, 3941, 3960, 3959
3748, 3941, 3942, 3961, 3960
3749, 3942, 3943, 3962, 3961
3750, 3943, 3944, 3963, 3962
3751, 3944, 3945, 3964, 3963
3752, 3945, 3946, 3965, 3964
3753, 3946, 3947, 3966, 3965
3754, 3947, 3948, 3967, 3966
3755, 3948, 3949, 3968, 3967
3756, 3949, 3950, 3969, 3968
3757, 3950, 3951, 3970, 3969
3758, 3951, 3952, 3971, 3970
3759, 3952, 3953, 3972, 3971
3760, 3953,  405,  406, 3972
3761,   75, 3954, 3973,   76
3762, 3954, 3955, 3974, 3973
3763, 3955, 3956, 3975, 3974
3764, 3956, 3957, 3976, 3975
3765, 3957, 3958, 3977, 3976
3766, 3958, 3959, 3978, 3977
3767, 3959, 3960, 3979, 3978
3768, 3960, 3961, 3980, 3979
3769, 3961, 3962, 3981, 3980
3770, 3962, 3963, 3982, 3981
3771, 3963, 3964, 3983, 3982
3772, 3964, 3965, 3984, 3983
3773, 3965, 3966, 3985, 3984
3774, 3966, 3967, 3986, 3985
3775, 3967, 3968, 3987, 3986
3776, 3968, 3969, 3988, 3987
3777, 3969, 3970, 3989, 3988
3778, 3970, 3971, 3990, 3989
3779, 3971, 3972, 3991, 3990
3780, 3972,  406,  407, 3991
3781,   76, 3973, 3992,   77
3782, 3973, 3974, 3993, 3992
3783, 3974, 3975, 3994, 3993
3784, 3975, 3976, 3995, 3994
3785, 3976, 3977, 3996, 3995
3786, 3977, 3978, 3997, 3996
3787, 3978, 3979, 3998, 3997
3788, 3979, 3980, 3999, 3998
3789, 3980, 3981, 4000, 3999
3790, 3981, 3982, 4001, 4000
3791, 3982, 3983, 4002, 4001
3792, 3983, 3984, 4003, 4002
3793, 3984, 3985, 4004, 4003
3794, 3985, 3986, 4005, 4004
3795, 3986, 3987, 4006, 4005
3796, 3987, 3988, 4007, 4006
3797, 3988, 3989, 4008, 4007
3798, 3989, 3990, 4009, 4008
3799, 3990, 3991, 4010, 4009
3800, 3991,  407,  408, 4010
3801,   77, 3992, 4011,   78
3802, 3992, 3993, 4012, 4011
3803, 3993, 3994, 4013, 4012
3804, 3994, 3995, 4014, 4013
3805, 3995, 3996, 4015, 4014
3806, 3996, 3997, 4016, 4015
3807, 3997, 3998, 4017, 4016
3808, 3998, 3999, 4018, 4017
3809, 3999, 4000, 4019, 4018
3810, 4000, 4001, 4020, 4019
3811, 4001, 4002, 4021, 4020
3812, 4002, 4003, 4022, 4021
3813, 4003, 4004, 4023, 4022
3814, 4004, 4005, 4024, 4023
3815, 4005, 4006, 4025, 4024
3816, 4006, 4007, 4026, 4025
3817, 4007, 4008, 4027, 4026
3818, 4008, 4009, 4028, 4027
3819, 4009, 4010, 4029, 4028
3820, 4010,  408,  409, 4029
3821,   78, 4011, 4030,   79
3822, 4011, 4012, 4031, 4030
3823, 4012, 4013, 4032, 4031
3824, 4013, 4014, 4033, 4032
3825, 4014, 4015, 4034, 4033
3826, 4015, 4016, 4035, 4034
3827, 4016, 4017, 4036, 4035
3828, 4017, 4018, 4037, 4036
3829, 4018, 4019, 4038, 4037
3830, 4019, 4020, 4039, 4038
3831, 4020, 4021, 4040, 4039
3832, 4021, 4022, 4041, 4040
3833, 4022, 4023, 4042, 4041
3834, 4023, 4024, 4043, 4042
3835, 4024, 4025, 4044, 4043
3836, 4025, 4026, 4045, 4044
3837, 4026, 4027, 4046, 4045
3838, 4027, 4028, 4047, 4046
3839, 4028, 4029, 4048, 4047
3840, 4029,  409,  410, 4048
3841,   79, 4030, 4049,   80
3842, 4030, 4031, 4050, 4049
3843, 4031, 4032, 4051, 4050
3844, 4032, 4033, 4052, 4051
3845, 4033, 4034, 4053, 4052
3846, 4034, 4035, 4054, 4053
3847, 4035, 4036, 4055, 4054
3848, 4036, 4037, 4056, 4055
3849, 4037, 4038, 4057, 4056
3850, 4038, 4039, 4058, 4057
3851, 4039, 4040, 4059, 4058
3852, 4040, 4041, 4060, 4059
3853, 4041, 4042, 4061, 4060
3854, 4042, 4043, 4062, 4061
3855, 4043, 4044, 4063, 4062
3856, 4044, 4045, 4064, 4063
3857, 4045, 4046, 4065, 4064
3858, 4046, 4047, 4066, 4065
3859, 4047, 4048, 4067, 4066
3860, 4048,  410,  411, 4067
3861,   80, 4049, 4068,   81
3862, 4049, 4050, 4069, 4068
3863, 4050, 4051, 4070, 4069
3864, 4051, 4052, 4071, 4070
3865, 4052, 4053, 4072, 4071
3866, 4053, 4054, 4073, 4072
3867, 4054, 4055, 4074, 4073
3868, 4055, 4056, 4075, 4074
3869, 4056, 4057, 4076, 4075
3870, 4057, 4058, 4077, 4076
3871, 4058, 4059, 4078, 4077
3872, 4059, 4060, 4079, 4078
3873, 4060, 4061, 4080, 4079
3874, 4061, 4062, 4081, 4080
3875, 4062, 4063, 4082, 4081
3876, 4063, 4064, 4083, 4082
3877, 4064, 4065, 4084, 4083
3878, 4065, 4066, 4085, 4084
3879, 4066, 4067, 4086, 4085
3880, 4067,  411,  412, 4086
3881,   81, 4068, 4087,   82
3882, 4068, 4069, 4088, 4087
3883, 4069, 4070, 4089, 4088
3884, 4070, 4071, 4090, 4089
3885, 4071, 4072, 4091, 4090
3886, 4072, 4073, 4092, 4091
3887, 4073, 4074, 4093, 4092
3888, 4074, 4075, 4094, 4093
3889, 4075, 4076, 4095, 4094
3890, 4076, 4077, 4096, 4095
3891, 4077, 4078, 4097, 4096
3892, 4078, 4079, 4098, 4097
3893, 4079, 4080, 4099, 4098
3894, 4080, 4081, 4100, 4099
3895, 4081, 4082, 4101, 4100
3896, 4082, 4083, 4102, 4101
3897, 4083, 4084, 4103, 4102
3898, 4084, 4085, 4104, 4103
3899, 4085, 4086, 4105, 4104
3900, 4086,  412,  413, 4105
3901,   82, 4087, 4106,   83
3902, 4087, 4088, 4107, 4106
3903, 4088, 4089, 4108, 4107
3904, 4089, 4090, 4109, 4108
3905, 4090, 4091, 4110, 4109
3906, 4091, 4092, 4111, 4110
3907, 4092, 4093, 4112, 4111
3908, 4093, 4094, 4113, 4112
3909, 4094, 4095, 4114, 4113
3910, 4095, 4096, 4115, 4114
3911, 4096, 4097, 4116, 4115
3912, 4097, 4098, 4117, 4116
3913, 4098, 4099, 4118, 4117
3914, 4099, 4100, 4119, 4118
3915, 4100, 4101, 4120, 4119
3916, 4101, 4102, 4121, 4120
3917, 4102, 4103, 4122, 4121
3918, 4103, 4104, 4123, 4122
3919, 4104, 4105, 4124, 4123
3920, 4105,  413,  414, 4124
3921,   83, 4106, 4125,   84
3922, 4106, 4107, 4126, 4125
3923, 4107, 4108, 4127, 4126
3924, 4108, 4109, 4128, 4127
3925, 4109, 4110, 4129, 4128
3926, 4110, 4111, 4130, 4129
3927, 4111, 4112, 4131, 4130
3928, 4112, 4113, 4132, 4131
3929, 4113, 4114, 4133, 4132
3930, 4114, 4115, 4134, 4133
3931, 4115, 4116, 4135, 4134
3932, 4116, 4117, 4136, 4135
3933, 4117, 4118, 4137, 4136
3934, 4118, 4119, 4138, 4137
3935, 4119, 4120, 4139, 4138
3936, 4120, 4121, 4140, 4139
3937, 4121, 4122, 4141, 4140
3938, 4122, 4123, 4142, 4141
3939, 4123, 4124, 4143, 4142
3940, 4124,  414,  415, 4143
3941,   84, 4125, 4144,   85
3942, 4125, 4126, 4145, 4144
3943, 4126, 4127, 4146, 4145
3944, 4127, 4128, 4147, 4146
3945, 4128, 4129, 4148, 4147
3946, 4129, 4130, 4149, 4148
3947, 4130, 4131, 4150, 4149
3948, 4131, 4132, 4151, 4150
3949, 4132, 4133, 4152, 4151
3950, 4133, 4134, 4153, 4152
3951, 4134, 4135, 4154, 4153
3952, 4135, 4136, 4155, 4154
3953, 4136, 4137, 4156, 4155
3954, 4137, 4138, 4157, 4156
3955, 4138, 4139, 4158, 4157
3956, 4139, 4140, 4159, 4158
3957, 4140, 4141, 4160, 4159
3958, 4141, 4142, 4161, 4160
3959, 4142, 4143, 4162, 4161
3960, 4143,  415,  416, 4162
3961,   85, 4144, 4163,   86
3962, 4144, 4145, 4164, 4163
3963, 4145, 4146, 4165, 4164
3964, 4146, 4147, 4166, 4165
3965, 4147, 4148, 4167, 4166
3966, 4148, 4149, 4168, 4167
3967, 4149, 4150, 4169, 4168
3968, 4150, 4151, 4170, 4169
3969, 4151, 4152, 4171, 4170
3970, 4152, 4153, 4172, 4171
3971, 4153, 4154, 4173, 4172
3972, 4154, 4155, 4174, 4173
3973, 4155, 4156, 4175, 4174
3974, 4156, 4157, 4176, 4175
3975, 4157, 4158, 4177, 4176
3976, 4158, 4159, 4178, 4177
3977, 4159, 4160, 4179, 4178
3978, 4160, 4161, 4180, 4179
3979, 4161, 4162, 4181, 4180
3980, 4162,  416,  417, 4181
3981,   86, 4163, 4182,   87
3982, 4163, 4164, 4183, 4182
3983, 4164, 4165, 4184, 4183
3984, 4165, 4166, 4185, 4184
3985, 4166, 4167, 4186, 4185
3986, 4167, 4168, 4187, 4186
3987, 4168, 4169, 4188, 4187
3988, 4169, 4170, 4189, 4188
3989, 4170, 4171, 4190, 4189
3990, 4171, 4172, 4191, 4190
3991, 4172, 4173, 4192, 4191
3992, 4173, 4174, 4193, 4192
3993, 4174, 4175, 4194, 4193
3994, 4175, 4176, 4195, 4194
3995, 4176, 4177, 4196, 4195
3996, 4177, 4178, 4197, 4196
3997, 4178, 4179, 4198, 4197
3998, 4179, 4180, 4199, 4198
3999, 4180, 4181, 4200, 4199
4000, 4181,  417,  418, 4200
4001,   87, 4182, 4201,   88
4002, 4182, 4183, 4202, 4201
4003, 4183, 4184, 4203, 4202
4004, 4184, 4185, 4204, 4203
4005, 4185, 4186, 4205, 4204
4006, 4186, 4187, 4206, 4205
4007, 4187, 4188, 4207, 4206
4008, 4188, 4189, 4208, 4207
4009, 4189, 4190, 4209, 4208
4010, 4190, 4191, 4210, 4209
4011, 4191, 4192, 4211, 4210
4012, 4192, 4193, 4212, 4211
4013, 4193, 4194, 4213, 4212
4014, 4194, 4195, 4214, 4213
4015, 4195, 4196, 4215, 4214
4016, 4196, 4197, 4216, 4215
4017, 4197, 4198, 4217, 4216
4018, 4198, 4199, 4218, 4217
4019, 4199, 4200, 4219, 4218
4020, 4200,  418,  419, 4219
4021,   88, 4201, 4220,   89
4022, 4201, 4202, 4221, 4220
4023, 4202, 4203, 4222, 4221
4024, 4203, 4204, 4223, 4222
4025, 4204, 4205, 4224, 4223
4026, 4205, 4206, 4225, 4224
4027, 4206, 4207, 4226, 4225
4028, 4207, 4208, 4227, 4226
4029, 4208, 4209, 4228, 4227
4030, 4209, 4210, 4229, 4228
4031, 4210, 4211, 4230, 4229
4032, 4211, 4212, 4231, 4230
4033, 4212, 4213, 4232, 4231
4034, 4213, 4214, 4233, 4232
4035, 4214, 4215, 4234, 4233
4036, 4215, 4216, 4235, 4234
4037, 4216, 4217, 4236, 4235
4038, 4217, 4218, 4237, 4236
4039, 4218, 4219, 4238, 4237
4040, 4219,  419,  420, 4238
4041,   89, 4220, 4239,   90
4042, 4220, 4221, 4240, 4239
4043, 4221, 4222, 4241, 4240
4044, 4222, 4223, 4242, 4241
4045, 4223, 4224, 4243, 4242
4046, 4224, 4225, 4244, 4243
4047, 4225, 4226, 4245, 4244
4048, 4226, 4227, 4246, 4245
4049, 4227, 4228, 4247, 4246
4050, 4228, 4229, 4248, 4247
4051, 4229, 4230, 4249, 4248
4052, 4230, 4231, 4250, 4249
4053, 4231, 4232, 4251, 4250
4054, 4232, 4233, 4252, 4251
4055, 4233, 4234, 4253, 4252
4056, 4234, 4235, 4254, 4253
4057, 4235, 4236, 4255, 4254
4058, 4236, 4237, 4256, 4255
4059, 4237, 4238, 4257, 4256
4060, 4238,  420,  421, 4257
4061,   90, 4239, 4258,   91
4062, 4239, 4240, 4259, 4258
4063, 4240, 4241, 4260, 4259
4064, 4241, 4242, 4261, 4260
4065, 4242, 4243, 4262, 4261
4066, 4243, 4244, 4263, 4262
4067, 4244, 4245, 4264, 4263
4068, 4245, 4246, 4265, 4264
4069, 4246, 4247, 4266, 4265
4070, 4247, 4248, 4267, 4266
4071, 4248, 4249, 4268, 4267
4072, 4249, 4250, 4269, 4268
4073, 4250, 4251, 4270, 4269
4074, 4251, 4252, 4271, 4270
4075, 4252, 4253, 4272, 4271
4076, 4253, 4254, 4273, 4272
4077, 4254, 4255, 4274, 4273
4078, 4255, 4256, 4275, 4274
4079, 4256, 4257, 4276, 4275
4080, 4257,  421,  422, 4276
4081,   91, 4258, 4277,   92
4082, 4258, 4259, 4278, 4277
4083, 4259, 4260, 4279, 4278
4084, 4260, 4261, 4280, 4279
4085, 4261, 4262, 4281, 4280
4086, 4262, 4263, 4282, 4281
4087, 4263, 4264, 4283, 4282
4088, 4264, 4265, 4284, 4283
4089, 4265, 4266, 4285, 4284
4090, 4266, 4267, 4286, 4285
4091, 4267, 4268, 4287, 4286
4092, 4268, 4269, 4288, 4287
4093, 4269, 4270, 4289, 4288
4094, 4270, 4271, 4290, 4289
4095, 4271, 4272, 4291, 4290
4096, 4272, 4273, 4292, 4291
4097, 4273, 4274, 4293, 4292
4098, 4274, 4275, 4294, 4293
4099, 4275, 4276, 4295, 4294
4100, 4276,  422,  423, 4295
4101,   92, 4277, 4296,   93
4102, 4277, 4278, 4297, 4296
4103, 4278, 4279, 4298, 4297
4104, 4279, 4280, 4299, 4298
4105, 4280, 4281, 4300, 4299
4106, 4281, 4282, 4301, 4300
4107, 4282, 4283, 4302, 4301
4108, 4283, 4284, 4303, 4302
4109, 4284, 4285, 4304, 4303
4110, 4285, 4286, 4305, 4304
4111, 4286, 4287, 4306, 4305
4112, 4287, 4288, 4307, 4306
4113, 4288, 4289, 4308, 4307
4114, 4289, 4290, 4309, 4308
4115, 4290, 4291, 4310, 4309
4116, 4291, 4292, 4311, 4310
4117, 4292, 4293, 4312, 4311
4118, 4293, 4294, 4313, 4312
4119, 4294, 4295, 4314, 4313
4120, 4295,  423,  424, 4314
4121,   93, 4296, 4315,   94
4122, 4296, 4297, 4316, 4315
4123, 4297, 4298, 4317, 4316
4124, 4298, 4299, 4318, 4317
4125, 4299, 4300, 4319, 4318
4126, 4300, 4301, 4320, 4319
4127, 4301, 4302, 4321, 4320
4128, 4302, 4303, 4322, 4321
4129, 4303, 4304, 4323, 4322
4130, 4304, 4305, 4324, 4323
4131, 4305, 4306, 4325, 4324
4132, 4306, 4307, 4326, 4325
4133, 4307, 4308, 4327, 4326
4134, 4308, 4309, 4328, 4327
4135, 4309, 4310, 4329, 4328
4136, 4310, 4311, 4330, 4329
4137, 4311, 4312, 4331, 4330
4138, 4312, 4313, 4332, 4331
4139, 4313, 4314, 4333, 4332
4140, 4314,  424,  425, 4333
4141,   94, 4315, 4334,   95
4142, 4315, 4316, 4335, 4334
4143, 4316, 4317, 4336, 4335
4144, 4317, 4318, 4337, 4336
4145, 4318, 4319, 4338, 4337
4146, 4319, 4320, 4339, 4338
4147, 4320, 4321, 4340, 4339
4148, 4321, 4322, 4341, 4340
4149, 4322, 4323, 4342, 4341
4150, 4323, 4324, 4343, 4342
4151, 4324, 4325, 4344, 4343
4152, 4325, 4326, 4345, 4344
4153, 4326, 4327, 4346, 4345
4154, 4327, 4328, 4347, 4346
4155, 4328, 4329, 4348, 4347
4156, 4329, 4330, 4349, 4348
4157, 4330, 4331, 4350, 4349
4158, 4331, 4332, 4351, 4350
4159, 4332, 4333, 4352, 4351
4160, 4333,  425,  426, 4352
4161,   95, 4334, 4353,   96
4162, 4334, 4335, 4354, 4353
4163, 4335, 4336, 4355, 4354
4164, 4336, 4337, 4356, 4355
4165, 4337, 4338, 4357, 4356
4166, 4338, 4339, 4358, 4357
4167, 4339, 4340, 4359, 4358
4168, 4340, 4341, 4360, 4359
4169, 4341, 4342, 4361, 4360
4170, 4342, 4343, 4362, 4361
4171, 4343, 4344, 4363, 4362
4172, 4344, 4345, 4364, 4363
4173, 4345, 4346, 4365, 4364
4174, 4346, 4347, 4366, 4365
4175, 4347, 4348, 4367, 4366
4176, 4348, 4349, 4368, 4367
4177, 4349, 4350, 4369, 4368
4178, 4350, 4351, 4370, 4369
4179, 4351, 4352, 4371, 4370
4180, 4352,  426,  427, 4371
4181,   96, 4353, 4372,   97
4182, 4353, 4354, 4373, 4372
4183, 4354, 4355, 4374, 4373
4184, 4355, 4356, 4375, 4374
4185, 4356, 4357, 4376, 4375
4186, 4357, 4358, 4377, 4376
4187, 4358, 4359, 4378, 4377
4188, 4359, 4360, 4379, 4378
4189, 4360, 4361, 4380, 4379
4190, 4361, 4362, 4381, 4380
4191, 4362, 4363, 4382, 4381
4192, 4363, 4364, 4383, 4382
4193, 4364, 4365, 4384, 4383
4194, 4365, 4366, 4385, 4384
4195, 4366, 4367, 4386, 4385
4196, 4367, 4368, 4387, 4386
4197, 4368, 4369, 4388, 4387
4198, 4369, 4370, 4389, 4388
4199, 4370, 4371, 4390, 4389
4200, 4371,  427,  428, 4390
4201,   97, 4372, 4391,   98
4202, 4372, 4373, 4392, 4391
4203, 4373, 4374, 4393, 4392
4204, 4374, 4375, 4394, 4393
4205, 4375, 4376, 4395, 4394
4206, 4376, 4377, 4396, 4395
4207, 4377, 4378, 4397, 4396
4208, 4378, 4379, 4398, 4397
4209, 4379, 4380, 4399, 4398
4210, 4380, 4381, 4400, 4399
4211, 4381, 4382, 4401, 4400
4212, 4382, 4383, 4402, 4401
4213, 4383, 4384, 4403, 4402
4214, 4384, 4385, 4404, 4403
4215, 4385, 4386, 4405, 4404
4216, 4386, 4387, 4406, 4405
4217, 4387, 4388, 4407, 4406
4218, 4388, 4389, 4408, 4407
4219, 4389, 4390, 4409, 4408
4220, 4390,  428,  429, 4409
4221,   98, 4391, 4410,   99
4222, 4391, 4392, 4411, 4410
4223, 4392, 4393, 4412, 4411
4224, 4393, 4394, 4413, 4412
4225, 4394, 4395, 4414, 4413
4226, 4395, 4396, 4415, 4414
4227, 4396, 4397, 4416, 4415
4228, 4397, 4398, 4417, 4416
4229, 4398, 4399, 4418, 4417
4230, 4399, 4400, 4419, 4418
4231, 4400, 4401, 4420, 4419
4232, 4401, 4402, 4421, 4420
4233, 4402, 4403, 4422, 4421
4234, 4403, 4404, 4423, 4422
4235, 4404, 4405, 4424, 4423
4236, 4405, 4406, 4425, 4424
4237, 4406, 4407, 4426, 4425
4238, 4407, 4408, 4427, 4426
4239, 4408, 4409, 4428, 4427
4240, 4409,  429,  430, 4428
4241,   99, 4410, 4429,  100
4242, 4410, 4411, 4430, 4429
4243, 4411, 4412, 4431, 4430
4244, 4412, 4413, 4432, 4431
4245, 4413, 4414, 4433, 4432
4246, 4414, 4415, 4434, 4433
4247, 4415, 4416, 4435, 4434
4248, 4416, 4417, 4436, 4435
4249, 4417, 4418, 4437, 4436
4250, 4418, 4419, 4438, 4437
4251, 4419, 4420, 4439, 4438
4252, 4420, 4421, 4440, 4439
4253, 4421, 4422, 4441, 4440
4254, 4422, 4423, 4442, 4441
4255, 4423, 4424, 4443, 4442
4256, 4424, 4425, 4444, 4443
4257, 4425, 4426, 4445, 4444
4258, 4426, 4427, 4446, 4445
4259, 4427, 4428, 4447, 4446
4260, 4428,  430,  431, 4447
4261,  100, 4429, 4448,  101
4262, 4429, 4430, 4449, 4448
4263, 4430, 4431, 4450, 4449
4264, 4431, 4432, 4451, 4450
4265, 4432, 4433, 4452, 4451
4266, 4433, 4434, 4453, 4452
4267, 4434, 4435, 4454, 4453
4268, 4435, 4436, 4455, 4454
4269, 4436, 4437, 4456, 4455
4270, 4437, 4438, 4457, 4456
4271, 4438, 4439, 4458, 4457
4272, 4439, 4440, 4459, 4458
4273, 4440, 4441, 4460, 4459
4274, 4441, 4442, 4461, 4460
4275, 4442, 4443, 4462, 4461
4276, 4443, 4444, 4463, 4462
4277, 4444, 4445, 4464, 4463
4278, 4445, 4446, 4465, 4464
4279, 4446, 4447, 4466, 4465
4280, 4447,  431,  432, 4466
4281,  101, 4448, 4467,  102
4282, 4448, 4449, 4468, 4467
4283, 4449, 4450, 4469, 4468
4284, 4450, 4451, 4470, 4469
4285, 4451, 4452, 4471, 4470
4286, 4452, 4453, 4472, 4471
4287, 4453, 4454, 4473, 4472
4288, 4454, 4455, 4474, 4473
4289, 4455, 4456, 4475, 4474
4290, 4456, 4457, 4476, 4475
4291, 4457, 4458, 4477, 4476
4292, 4458, 4459, 4478, 4477
4293, 4459, 4460, 4479, 4478
4294, 4460, 4461, 4480, 4479
4295, 4461, 4462, 4481, 4480
4296, 4462, 4463, 4482, 4481
4297, 4463, 4464, 4483, 4482
4298, 4464, 4465, 4484, 4483
4299, 4465, 4466, 4485, 4484
4300, 4466,  432,  433, 4485
4301,  102, 4467, 4486,  103
4302, 4467, 4468, 4487, 4486
4303, 4468, 4469, 4488, 4487
4304, 4469, 4470, 4489, 4488
4305, 4470, 4471, 4490, 4489
4306, 4471, 4472, 4491, 4490
4307, 4472, 4473, 4492, 4491
4308, 4473, 4474, 4493, 4492
4309, 4474, 4475, 4494, 4493
4310, 4475, 4476, 4495, 4494
4311, 4476, 4477, 4496, 4495
4312, 4477, 4478, 4497, 4496
4313, 4478, 4479, 4498, 4497
4314, 4479, 4480, 4499, 4498
4315, 4480, 4481, 4500, 4499
4316, 4481, 4482, 4501, 4500
4317, 4482, 4483, 4502, 4501
4318, 4483, 4484, 4503, 4502
4319, 4484, 4485, 4504, 4503
4320, 4485,  433,  434, 4504
4321,  103, 4486, 4505,  104
4322, 4486, 4487, 4506, 4505
4323, 4487, 4488, 4507, 4506
4324, 4488, 4489, 4508, 4507
4325, 4489, 4490, 4509, 4508
4326, 4490, 4491, 4510, 4509
4327, 4491, 4492, 4511, 4510
4328, 4492, 4493, 4512, 4511
4329, 4493, 4494, 4513, 4512
4330, 4494, 4495, 4514, 4513
4331, 4495, 4496, 4515, 4514
4332, 4496, 4497, 4516, 4515
4333, 4497, 4498, 4517, 4516
4334, 4498, 4499, 4518, 4517
4335, 4499, 4500, 4519, 4518
4336, 4500, 4501, 4520, 4519
4337, 4501, 4502, 4521, 4520
4338, 4502, 4503, 4522, 4521
4339, 4503, 4504, 4523, 4522
4340, 4504,  434,  435, 4523
4341,  104, 4505, 4524,  105
4342, 4505, 4506, 4525, 4524
4343, 4506, 4507, 4526, 4525
4344, 4507, 4508, 4527, 4526
4345, 4508, 4509, 4528, 4527
4346, 4509, 4510, 4529, 4528
4347, 4510, 4511, 4530, 4529
4348, 4511, 4512, 4531, 4530
4349, 4512, 4513, 4532, 4531
4350, 4513, 4514, 4533, 4532
4351, 4514, 4515, 4534, 4533
4352, 4515, 4516, 4535, 4534
4353, 4516, 4517, 4536, 4535
4354, 4517, 4518, 4537, 4536
4355, 4518, 4519, 4538, 4537
4356, 4519, 4520, 4539, 4538
4357, 4520, 4521, 4540, 4539
4358, 4521, 4522, 4541, 4540
4359, 4522, 4523, 4542, 4541
4360, 4523,  435,  436, 4542
4361,  105, 4524, 4543,  106
4362, 4524, 4525, 4544, 4543
4363, 4525, 4526, 4545, 4544
4364, 4526, 4527, 4546, 4545
4365, 4527, 4528, 4547, 4546
4366, 4528, 4529, 4548, 4547
4367, 4529, 4530, 4549, 4548
4368, 4530, 4531, 4550, 4549
4369, 4531, 4532, 4551, 4550
4370, 4532, 4533, 4552, 4551
4371, 4533, 4534, 4553, 4552
4372, 4534, 4535, 4554, 4553
4373, 4535, 4536, 4555, 4554
4374, 4536, 4537, 4556, 4555
4375, 4537, 4538, 4557, 4556
4376, 4538, 4539, 4558, 4557
4377, 4539, 4540, 4559, 4558
4378, 4540, 4541, 4560, 4559
4379, 4541, 4542, 4561, 4560
4380, 4542,  436,  437, 4561
4381,  106, 4543, 4562,  107
4382, 4543, 4544, 4563, 4562
4383, 4544, 4545, 4564, 4563
4384, 4545, 4546, 4565, 4564
4385, 4546, 4547, 4566, 4565
4386, 4547, 4548, 4567, 4566
4387, 4548, 4549, 4568, 4567
4388, 4549, 4550, 4569, 4568
4389, 4550, 4551, 4570, 4569
4390, 4551, 4552, 4571, 4570
4391, 4552, 4553, 4572, 4571
4392, 4553, 4554, 4573, 4572
4393, 4554, 4555, 4574, 4573
4394, 4555, 4556, 4575, 4574
4395, 4556, 4557, 4576, 4575
4396, 4557, 4558, 4577, 4576
4397, 4558, 4559, 4578, 4577
4398, 4559, 4560, 4579, 4578
4399, 4560, 4561, 4580, 4579
4400, 4561,  437,  438, 4580
4401,  107, 4562, 4581,  108
4402, 4562, 4563, 4582, 4581
4403, 4563, 4564, 4583, 4582
4404, 4564, 4565, 4584, 4583
4405, 4565, 4566, 4585, 4584
4406, 4566, 4567, 4586, 4585
4407, 4567, 4568, 4587, 4586
4408, 4568, 4569, 4588, 4587
4409, 4569, 4570, 4589, 4588
4410, 4570, 4571, 4590, 4589
4411, 4571, 4572, 4591, 4590
4412, 4572, 4573, 4592, 4591
4413, 4573, 4574, 4593, 4592
4414, 4574, 4575, 4594, 4593
4415, 4575, 4576, 4595, 4594
4416, 4576, 4577, 4596, 4595
4417, 4577, 4578, 4597, 4596
4418, 4578, 4579, 4598, 4597
4419, 4579, 4580, 4599, 4598
4420, 4580,  438,  439, 4599
4421,  108, 4581, 4600,  109
4422, 4581, 4582, 4601, 4600
4423, 4582, 4583, 4602, 4601
4424, 4583, 4584, 4603, 4602
4425, 4584, 4585, 4604, 4603
4426, 4585, 4586, 4605, 4604
4427, 4586, 4587, 4606, 4605
4428, 4587, 4588, 4607, 4606
4429, 4588, 4589, 4608, 4607
4430, 4589, 4590, 4609, 4608
4431, 4590, 4591, 4610, 4609
4432, 4591, 4592, 4611, 4610
4433, 4592, 4593, 4612, 4611
4434, 4593, 4594, 4613, 4612
4435, 4594, 4595, 4614, 4613
4436, 4595, 4596, 4615, 4614
4437, 4596, 4597, 4616, 4615
4438, 4597, 4598, 4617, 4616
4439, 4598, 4599, 4618, 4617
4440, 4599,  439,  440, 4618
4441,  109, 4600, 4619,  110
4442, 4600, 4601, 4620, 4619
4443, 4601, 4602, 4621, 4620
4444, 4602, 4603, 4622, 4621
4445, 4603, 4604, 4623, 4622
4446, 4604, 4605, 4624, 4623
4447, 4605, 4606, 4625, 4624
4448, 4606, 4607, 4626, 4625
4449, 4607, 4608, 4627, 4626
4450, 4608, 4609, 4628, 4627
4451, 4609, 4610, 4629, 4628
4452, 4610, 4611, 4630, 4629
4453, 4611, 4612, 4631, 4630
4454, 4612, 4613, 4632, 4631
4455, 4613, 4614, 4633, 4632
4456, 4614, 4615, 4634, 4633
4457, 4615, 4616, 4635, 4634
4458, 4616, 4617, 4636, 4635
4459, 4617, 4618, 4637, 4636
4460, 4618,  440,  441, 4637
4461,  110, 4619, 4638,  111
4462, 4619, 4620, 4639, 4638
4463, 4620, 4621, 4640, 4639
4464, 4621, 4622, 4641, 4640
4465, 4622, 4623, 4642, 4641
4466, 4623, 4624, 4643, 4642
4467, 4624, 4625, 4644, 4643
4468, 4625, 4626, 4645, 4644
4469, 4626, 4627, 4646, 4645
4470, 4627, 4628, 4647, 4646
4471, 4628, 4629, 4648, 4647
4472, 4629, 4630, 4649, 4648
4473, 4630, 4631, 4650, 4649
4474, 4631, 4632, 4651, 4650
4475, 4632, 4633, 4652, 4651
4476, 4633, 4634, 4653, 4652
4477, 4634, 4635, 4654, 4653
4478, 4635, 4636, 4655, 4654
4479, 4636, 4637, 4656, 4655
4480, 4637,  441,  442, 4656
4481,  111, 4638, 4657,  112
4482, 4638, 4639, 4658, 4657
4483, 4639, 4640, 4659, 4658
4484, 4640, 4641, 4660, 4659
4485, 4641, 4642, 4661, 4660
4486, 4642, 4643, 4662, 4661
4487, 4643, 4644, 4663, 4662
4488, 4644, 4645, 4664, 4663
4489, 4645, 4646, 4665, 4664
4490, 4646, 4647, 4666, 4665
4491, 4647, 4648, 4667, 4666
4492, 4648, 4649, 4668, 4667
4493, 4649, 4650, 4669, 4668
4494, 4650, 4651, 4670, 4669
4495, 4651, 4652, 4671, 4670
4496, 4652, 4653, 4672, 4671
4497, 4653, 4654, 4673, 4672
4498, 4654, 4655, 4674, 4673
4499, 4655, 4656, 4675, 4674
4500, 4656,  442,  443, 4675
4501,  112, 4657, 4676,  113
4502, 4657, 4658, 4677, 4676
4503, 4658, 4659, 4678, 4677
4504, 4659, 4660, 4679, 4678
4505, 4660, 4661, 4680, 4679
4506, 4661, 4662, 4681, 4680
4507, 4662, 4663, 4682, 4681
4508, 4663, 4664, 4683, 4682
4509, 4664, 4665, 4684, 4683
4510, 4665, 4666, 4685, 4684
4511, 4666, 4667, 4686, 4685
4512, 4667, 4668, 4687, 4686
4513, 4668, 4669, 4688, 4687
4514, 4669, 4670, 4689, 4688
4515, 4670, 4671, 4690, 4689
4516, 4671, 4672, 4691, 4690
4517, 4672, 4673, 4692, 4691
4518, 4673, 4674, 4693, 4692
4519, 4674, 4675, 4694, 4693
4520, 4675,  443,  444, 4694
4521,  113, 4676, 4695,  114
4522, 4676, 4677, 4696, 4695
4523, 4677, 4678, 4697, 4696
4524, 4678, 4679, 4698, 4697
4525, 4679, 4680, 4699, 4698
4526, 4680, 4681, 4700, 4699
4527, 4681, 4682, 4701, 4700
4528, 4682, 4683, 4702, 4701
4529, 4683, 4684, 4703, 4702
4530, 4684, 4685, 4704, 4703
4531, 4685, 4686, 4705, 4704
4532, 4686, 4687, 4706, 4705
4533, 4687, 4688, 4707, 4706
4534, 4688, 4689, 4708, 4707
4535, 4689, 4690, 4709, 4708
4536, 4690, 4691, 4710, 4709
4537, 4691, 4692, 4711, 4710
4538, 4692, 4693, 4712, 4711
4539, 4693, 4694, 4713, 4712
4540, 4694,  444,  445, 4713
4541,  114, 4695, 4714,  115
4542, 4695, 4696, 4715, 4714
4543, 4696, 4697, 4716, 4715
4544, 4697, 4698, 4717, 4716
4545, 4698, 4699, 4718, 4717
4546, 4699, 4700, 4719, 4718
4547, 4700, 4701, 4720, 4719
4548, 4701, 4702, 4721, 4720
4549, 4702, 4703, 4722, 4721
4550, 4703, 4704, 4723, 4722
4551, 4704, 4705, 4724, 4723
4552, 4705, 4706, 4725, 4724
4553, 4706, 4707, 4726, 4725
4554, 4707, 4708, 4727, 4726
4555, 4708, 4709, 4728, 4727
4556, 4709, 4710, 4729, 4728
4557, 4710, 4711, 4730, 4729
4558, 4711, 4712, 4731, 4730
4559, 4712, 4713, 4732, 4731
4560, 4713,  445,  446, 4732
4561,  115, 4714, 4733,  116
4562, 4714, 4715, 4734, 4733
4563, 4715, 4716, 4735, 4734
4564, 4716, 4717, 4736, 4735
4565, 4717, 4718, 4737, 4736
4566, 4718, 4719, 4738, 4737
4567, 4719, 4720, 4739, 4738
4568, 4720, 4721, 4740, 4739
4569, 4721, 4722, 4741, 4740
4570, 4722, 4723, 4742, 4741
4571, 4723, 4724, 4743, 4742
4572, 4724, 4725, 4744, 4743
4573, 4725, 4726, 4745, 4744
4574, 4726, 4727, 4746, 4745
4575, 4727, 4728, 4747, 4746
4576, 4728, 4729, 4748, 4747
4577, 4729, 4730, 4749, 4748
4578, 4730, 4731, 4750, 4749
4579, 4731, 4732, 4751, 4750
4580, 4732,  446,  447, 4751
4581,  116, 4733, 4752,  117
4582, 4733, 4734, 4753, 4752
4583, 4734, 4735, 4754, 4753
4584, 4735, 4736, 4755, 4754
4585, 4736, 4737, 4756, 4755
4586, 4737, 4738, 4757, 4756
4587, 4738, 4739, 4758, 4757
4588, 4739, 4740, 4759, 4758
4589, 4740, 4741, 4760, 4759
4590, 4741, 4742, 4761, 4760
4591, 4742, 4743, 4762, 4761
4592, 4743, 4744, 4763, 4762
4593, 4744, 4745, 4764, 4763
4594, 4745, 4746, 4765, 4764
4595, 4746, 4747, 4766, 4765
4596, 4747, 4748, 4767, 4766
4597, 4748, 4749, 4768, 4767
4598, 4749, 4750, 4769, 4768
4599, 4750, 4751, 4770, 4769
4600, 4751,  447,  448, 4770
4601,  117, 4752, 4771,  118
4602, 4752, 4753, 4772, 4771
4603, 4753, 4754, 4773, 4772
4604, 4754, 4755, 4774, 4773
4605, 4755, 4756, 4775, 4774
4606, 4756, 4757, 4776, 4775
4607, 4757, 4758, 4777, 4776
4608, 4758, 4759, 4778, 4777
4609, 4759, 4760, 4779, 4778
4610, 4760, 4761, 4780, 4779
4611, 4761, 4762, 4781, 4780
4612, 4762, 4763, 4782, 4781
4613, 4763, 4764, 4783, 4782
4614, 4764, 4765, 4784, 4783
4615, 4765, 4766, 4785, 4784
4616, 4766, 4767, 4786, 4785
4617, 4767, 4768, 4787, 4786
4618, 4768, 4769, 4788, 4787
4619, 4769, 4770, 4789, 4788
4620, 4770,  448,  449, 4789
4621,  118, 4771, 4790,  119
4622, 4771, 4772, 4791, 4790
4623, 4772, 4773, 4792, 4791
4624, 4773, 4774, 4793, 4792
4625, 4774, 4775, 4794, 4793
4626, 4775, 4776, 4795, 4794
4627, 4776, 4777, 4796, 4795
4628, 4777, 4778, 4797, 4796
4629, 4778, 4779, 4798, 4797
4630, 4779, 4780, 4799, 4798
4631, 4780, 4781, 4800, 4799
4632, 4781, 4782, 4801, 4800
4633, 4782, 4783, 4802, 4801
4634, 4783, 4784, 4803, 4802
4635, 4784, 4785, 4804, 4803
4636, 4785, 4786, 4805, 4804
4637, 4786, 4787, 4806, 4805
4638, 4787, 4788, 4807, 4806
4639, 4788, 4789, 4808, 4807
4640, 4789,  449,  450, 4808
4641,  119, 4790, 4809,  120
4642, 4790, 4791, 4810, 4809
4643, 4791, 4792, 4811, 4810
4644, 4792, 4793, 4812, 4811
4645, 4793, 4794, 4813, 4812
4646, 4794, 4795, 4814, 4813
4647, 4795, 4796, 4815, 4814
4648, 4796, 4797, 4816, 4815
4649, 4797, 4798, 4817, 4816
4650, 4798, 4799, 4818, 4817
4651, 4799, 4800, 4819, 4818
4652, 4800, 4801, 4820, 4819
4653, 4801, 4802, 4821, 4820
4654, 4802, 4803, 4822, 4821
4655, 4803, 4804, 4823, 4822
4656, 4804, 4805, 4824, 4823
4657, 4805, 4806, 4825, 4824
4658, 4806, 4807, 4826, 4825
4659, 4807, 4808, 4827, 4826
4660, 4808,  450,  451, 4827
4661,  120, 4809, 4828,  121
4662, 4809, 4810, 4829, 4828
4663, 4810, 4811, 4830, 4829
4664, 4811, 4812, 4831, 4830
4665, 4812, 4813, 4832, 4831
4666, 4813, 4814, 4833, 4832
4667, 4814, 4815, 4834, 4833
4668, 4815, 4816, 4835, 4834
4669, 4816, 4817, 4836, 4835
4670, 4817, 4818, 4837, 4836
4671, 4818, 4819, 4838, 4837
4672, 4819, 4820, 4839, 4838
4673, 4820, 4821, 4840, 4839
4674, 4821, 4822, 4841, 4840
4675, 4822, 4823, 4842, 4841
4676, 4823, 4824, 4843, 4842
4677, 4824, 4825, 4844, 4843
4678, 4825, 4826, 4845, 4844
4679, 4826, 4827, 4846, 4845
4680, 4827,  451,  452, 4846
4681,  121, 4828, 4847,  122
4682, 4828, 4829, 4848, 4847
4683, 4829, 4830, 4849, 4848
4684, 4830, 4831, 4850, 4849
4685, 4831, 4832, 4851, 4850
4686, 4832, 4833, 4852, 4851
4687, 4833, 4834, 4853, 4852
4688, 4834, 4835, 4854, 4853
4689, 4835, 4836, 4855, 4854
4690, 4836, 4837, 4856, 4855
4691, 4837, 4838, 4857, 4856
4692, 4838, 4839, 4858, 4857
4693, 4839, 4840, 4859, 4858
4694, 4840, 4841, 4860, 4859
4695, 4841, 4842, 4861, 4860
4696, 4842, 4843, 4862, 4861
4697, 4843, 4844, 4863, 4862
4698, 4844, 4845, 4864, 4863
4699, 4845, 4846, 4865, 4864
4700, 4846,  452,  453, 4865
4701,  122, 4847, 4866,  123
4702, 4847, 4848, 4867, 4866
4703, 4848, 4849, 4868, 4867
4704, 4849, 4850, 4869, 4868
4705, 4850, 4851, 4870, 4869
4706, 4851, 4852, 4871, 4870
4707, 4852, 4853, 4872, 4871
4708, 4853, 4854, 4873, 4872
4709, 4854, 4855, 4874, 4873
4710, 4855, 4856, 4875, 4874
4711, 4856, 4857, 4876, 4875
4712, 4857, 4858, 4877, 4876
4713, 4858, 4859, 4878, 4877
4714, 4859, 4860, 4879, 4878
4715, 4860, 4861, 4880, 4879
4716, 4861, 4862, 4881, 4880
4717, 4862, 4863, 4882, 4881
4718, 4863, 4864, 4883, 4882
4719, 4864, 4865, 4884, 4883
4720, 4865,  453,  454, 4884
4721,  123, 4866, 4885,  124
4722, 4866, 4867, 4886, 4885
4723, 4867, 4868, 4887, 4886
4724, 4868, 4869, 4888, 4887
4725, 4869, 4870, 4889, 4888
4726, 4870, 4871, 4890, 4889
4727, 4871, 4872, 4891, 4890
4728, 4872, 4873, 4892, 4891
4729, 4873, 4874, 4893, 4892
4730, 4874, 4875, 4894, 4893
4731, 4875, 4876, 4895, 4894
4732, 4876, 4877, 4896, 4895
4733, 4877, 4878, 4897, 4896
4734, 4878, 4879, 4898, 4897
4735, 4879, 4880, 4899, 4898
4736, 4880, 4881, 4900, 4899
4737, 4881, 4882, 4901, 4900
4738, 4882, 4883, 4902, 4901
4739, 4883, 4884, 4903, 4902
4740, 4884,  454,  455, 4903
4741,  124, 4885, 4904,  125
4742, 4885, 4886, 4905, 4904
4743, 4886, 4887, 4906, 4905
4744, 4887, 4888, 4907, 4906
4745, 4888, 4889, 4908, 4907
4746, 4889, 4890, 4909, 4908
4747, 4890, 4891, 4910, 4909
4748, 4891, 4892, 4911, 4910
4749, 4892, 4893, 4912, 4911
4750, 4893, 4894, 4913, 4912
4751, 4894, 4895, 4914, 4913
4752, 4895, 4896, 4915, 4914
4753, 4896, 4897, 4916, 4915
4754, 4897, 4898, 4917, 4916
4755, 4898, 4899, 4918, 4917
4756, 4899, 4900, 4919, 4918
4757, 4900, 4901, 4920, 4919
4758, 4901, 4902, 4921, 4920
4759, 4902, 4903, 4922, 4921
4760, 4903,  455,  456, 4922
4761,  125, 4904, 4923,  126
4762, 4904, 4905, 4924, 4923
4763, 4905, 4906, 4925, 4924
4764, 4906, 4907, 4926, 4925
4765, 4907, 4908, 4927, 4926
4766, 4908, 4909, 4928, 4927
4767, 4909, 4910, 4929, 4928
4768, 4910, 4911, 4930, 4929
4769, 4911, 4912, 4931, 4930
4770, 4912, 4913, 4932, 4931
4771, 4913, 4914, 4933, 4932
4772, 4914, 4915, 4934, 4933
4773, 4915, 4916, 4935, 4934
4774, 4916, 4917, 4936, 4935
4775, 4917, 4918, 4937, 4936
4776, 4918, 4919, 4938, 4937
4777, 4919, 4920, 4939, 4938
4778, 4920, 4921, 4940, 4939
4779, 4921, 4922, 4941, 4940
4780, 4922,  456,  457, 4941
4781,  126, 4923,  245,    3
4782, 4923, 4924,  246,  245
4783, 4924, 4925,  247,  246
4784, 4925, 4926,  248,  247
4785, 4926, 4927,  249,  248
4786, 4927, 4928,  250,  249
4787, 4928, 4929,  251,  250
4788, 4929, 4930,  252,  251
4789, 4930, 4931,  253,  252
4790, 4931, 4932,  254,  253
4791, 4932, 4933,  255,  254
4792, 4933, 4934,  256,  255
4793, 4934, 4935,  257,  256
4794, 4935, 4936,  258,  257
4795, 4936, 4937,  259,  258
4796, 4937, 4938,  260,  259
4797, 4938, 4939,  261,  260
4798, 4939, 4940,  262,  261
4799, 4940, 4941,  263,  262
4800, 4941,  457,    5,  263
*Nset, nset=Set-8, generate
    1,  4941,     1
*Elset, elset=Set-8, generate
    1,  4800,     1
** Section: Material
*Solid Section, elset=Set-8, material=Material
,
*End Part
**  
**
** ASSEMBLY
**
*Assembly, name=Assembly
**  
*Instance, name=CYLINDER-1, part=CYLINDER
*End Instance
**  
*Instance, name=FLAT-1, part=FLAT
*End Instance
**  
*Node
      1,           0.,           7.,           0.
*Node
      2,           0.,          -7.,           0.
*Nset, nset=ADAPTE, instance=FLAT-1
    2,    3,    5,    7,   28,   29,   30,   31,   32,   33,   34,   35,   36,   37,   38,   39
   40,   41,   42,   43,   44,   45,   46,   47,   48,   49,   50,   51,   52,   53,   54,   55
   56,   57,   58,   59,   60,   61,   62,   63,   64,   65,   66,   67,   68,   69,   70,   71
   72,   73,   74,   75,   76,   77,   78,   79,   80,   81,   82,   83,   84,   85,   86,   87
   88,   89,   90,   91,   92,   93,   94,   95,   96,   97,   98,   99,  100,  101,  102,  103
  104,  105,  106,  107,  108,  109,  110,  111,  112,  113,  114,  115,  116,  117,  118,  119
  120,  121,  122,  123,  124,  125,  126,  245,  246,  247,  248,  249,  250,  251,  252,  253
  254,  255,  256,  257,  258,  259,  260,  261,  262,  263,  302,  303,  304,  305,  306,  307
  308,  309,  310,  311,  312,  313,  314,  315,  316,  317,  318,  319,  320,  359,  360,  361
  362,  363,  364,  365,  366,  367,  368,  369,  370,  371,  372,  373,  374,  375,  376,  377
  378,  379,  380,  381,  382,  383,  384,  385,  386,  387,  388,  389,  390,  391,  392,  393
  394,  395,  396,  397,  398,  399,  400,  401,  402,  403,  404,  405,  406,  407,  408,  409
  410,  411,  412,  413,  414,  415,  416,  417,  418,  419,  420,  421,  422,  423,  424,  425
  426,  427,  428,  429,  430,  431,  432,  433,  434,  435,  436,  437,  438,  439,  440,  441
  442,  443,  444,  445,  446,  447,  448,  449,  450,  451,  452,  453,  454,  455,  456,  457
 3061, 3062, 3063, 3064, 3065, 3066, 3067, 3068, 3069, 3070, 3071, 3072, 3073, 3074, 3075, 3076
 3077, 3078, 3079, 3080, 3081, 3082, 3083, 3084, 3085, 3086, 3087, 3088, 3089, 3090, 3091, 3092
 3093, 3094, 3095, 3096, 3097, 3098, 3099, 3100, 3101, 3102, 3103, 3104, 3105, 3106, 3107, 3108
 3109, 3110, 3111, 3112, 3113, 3114, 3115, 3116, 3117, 3118, 3119, 3120, 3121, 3122, 3123, 3124
 3125, 3126, 3127, 3128, 3129, 3130, 3131, 3132, 3133, 3134, 3135, 3136, 3137, 3138, 3139, 3140
 3141, 3142, 3143, 3144, 3145, 3146, 3147, 3148, 3149, 3150, 3151, 3152, 3153, 3154, 3155, 3156
 3157, 3158, 3159, 3160, 3161, 3162, 3163, 3164, 3165, 3166, 3167, 3168, 3169, 3170, 3171, 3172
 3173, 3174, 3175, 3176, 3177, 3178, 3179, 3180, 3181, 3182, 3183, 3184, 3185, 3186, 3187, 3188
 3189, 3190, 3191, 3192, 3193, 3194, 3195, 3196, 3197, 3198, 3199, 3200, 3201, 3202, 3203, 3204
 3205, 3206, 3207, 3208, 3209, 3210, 3211, 3212, 3213, 3214, 3215, 3216, 3217, 3218, 3219, 3220
 3221, 3222, 3223, 3224, 3225, 3226, 3227, 3228, 3229, 3230, 3231, 3232, 3233, 3234, 3235, 3236
 3237, 3238, 3239, 3240, 3241, 3242, 3243, 3244, 3245, 3246, 3247, 3248, 3249, 3250, 3251, 3252
 3253, 3254, 3255, 3256, 3257, 3258, 3259, 3260, 3261, 3262, 3263, 3264, 3265, 3266, 3267, 3268
 3269, 3270, 3271, 3272, 3273, 3274, 3275, 3276, 3277, 3278, 3279, 3280, 3281, 3282, 3283, 3284
 3285, 3286, 3287, 3288, 3289, 3290, 3291, 3292, 3293, 3294, 3295, 3296, 3297, 3298, 3299, 3300
 3301, 3302, 3303, 3304, 3305, 3306, 3307, 3308, 3309, 3310, 3311, 3312, 3313, 3314, 3315, 3316
 3317, 3318, 3319, 3320, 3321, 3322, 3323, 3324, 3325, 3326, 3327, 3328, 3329, 3330, 3331, 3332
 3333, 3334, 3335, 3336, 3337, 3338, 3339, 3340, 3341, 3342, 3343, 3344, 3345, 3346, 3347, 3348
 3349, 3350, 3351, 3352, 3353, 3354, 3355, 3356, 3357, 3358, 3359, 3360, 3361, 3362, 3363, 3364
 3365, 3366, 3367, 3368, 3369, 3370, 3371, 3372, 3373, 3374, 3375, 3376, 3377, 3378, 3379, 3380
 3381, 3382, 3383, 3384, 3385, 3386, 3387, 3388, 3389, 3390, 3391, 3392, 3393, 3394, 3395, 3396
 3397, 3398, 3399, 3400, 3401, 3402, 3403, 3404, 3405, 3406, 3407, 3408, 3409, 3410, 3411, 3412
 3413, 3414, 3415, 3416, 3417, 3418, 3419, 3420, 3421, 3422, 3423, 3424, 3425, 3426, 3427, 3428
 3429, 3430, 3431, 3432, 3433, 3434, 3435, 3436, 3437, 3438, 3439, 3440, 3441, 3442, 3443, 3444
 3445, 3446, 3447, 3448, 3449, 3450, 3451, 3452, 3453, 3454, 3455, 3456, 3457, 3458, 3459, 3460
 3461, 3462, 3463, 3464, 3465, 3466, 3467, 3468, 3469, 3470, 3471, 3472, 3473, 3474, 3475, 3476
 3477, 3478, 3479, 3480, 3481, 3482, 3483, 3484, 3485, 3486, 3487, 3488, 3489, 3490, 3491, 3492
 3493, 3494, 3495, 3496, 3497, 3498, 3499, 3500, 3501, 3502, 3503, 3504, 3505, 3506, 3507, 3508
 3509, 3510, 3511, 3512, 3513, 3514, 3515, 3516, 3517, 3518, 3519, 3520, 3521, 3522, 3523, 3524
 3525, 3526, 3527, 3528, 3529, 3530, 3531, 3532, 3533, 3534, 3535, 3536, 3537, 3538, 3539, 3540
 3541, 3542, 3543, 3544, 3545, 3546, 3547, 3548, 3549, 3550, 3551, 3552, 3553, 3554, 3555, 3556
 3557, 3558, 3559, 3560, 3561, 3562, 3563, 3564, 3565, 3566, 3567, 3568, 3569, 3570, 3571, 3572
 3573, 3574, 3575, 3576, 3577, 3578, 3579, 3580, 3581, 3582, 3583, 3584, 3585, 3586, 3587, 3588
 3589, 3590, 3591, 3592, 3593, 3594, 3595, 3596, 3597, 3598, 3599, 3600, 3601, 3602, 3603, 3604
 3605, 3606, 3607, 3608, 3609, 3610, 3611, 3612, 3613, 3614, 3615, 3616, 3617, 3618, 3619, 3620
 3621, 3622, 3623, 3624, 3625, 3626, 3627, 3628, 3629, 3630, 3631, 3632, 3633, 3634, 3635, 3636
 3637, 3638, 3639, 3640, 3641, 3642, 3643, 3644, 3645, 3646, 3647, 3648, 3649, 3650, 3651, 3652
 3653, 3654, 3655, 3656, 3657, 3658, 3659, 3660, 3661, 3662, 3663, 3664, 3665, 3666, 3667, 3668
 3669, 3670, 3671, 3672, 3673, 3674, 3675, 3676, 3677, 3678, 3679, 3680, 3681, 3682, 3683, 3684
 3685, 3686, 3687, 3688, 3689, 3690, 3691, 3692, 3693, 3694, 3695, 3696, 3697, 3698, 3699, 3700
 3701, 3702, 3703, 3704, 3705, 3706, 3707, 3708, 3709, 3710, 3711, 3712, 3713, 3714, 3715, 3716
 3717, 3718, 3719, 3720, 3721, 3722, 3723, 3724, 3725, 3726, 3727, 3728, 3729, 3730, 3731, 3732
 3733, 3734, 3735, 3736, 3737, 3738, 3739, 3740, 3741, 3742, 3743, 3744, 3745, 3746, 3747, 3748
 3749, 3750, 3751, 3752, 3753, 3754, 3755, 3756, 3757, 3758, 3759, 3760, 3761, 3762, 3763, 3764
 3765, 3766, 3767, 3768, 3769, 3770, 3771, 3772, 3773, 3774, 3775, 3776, 3777, 3778, 3779, 3780
 3781, 3782, 3783, 3784, 3785, 3786, 3787, 3788, 3789, 3790, 3791, 3792, 3793, 3794, 3795, 3796
 3797, 3798, 3799, 3800, 3801, 3802, 3803, 3804, 3805, 3806, 3807, 3808, 3809, 3810, 3811, 3812
 3813, 3814, 3815, 3816, 3817, 3818, 3819, 3820, 3821, 3822, 3823, 3824, 3825, 3826, 3827, 3828
 3829, 3830, 3831, 3832, 3833, 3834, 3835, 3836, 3837, 3838, 3839, 3840, 3841, 3842, 3843, 3844
 3845, 3846, 3847, 3848, 3849, 3850, 3851, 3852, 3853, 3854, 3855, 3856, 3857, 3858, 3859, 3860
 3861, 3862, 3863, 3864, 3865, 3866, 3867, 3868, 3869, 3870, 3871, 3872, 3873, 3874, 3875, 3876
 3877, 3878, 3879, 3880, 3881, 3882, 3883, 3884, 3885, 3886, 3887, 3888, 3889, 3890, 3891, 3892
 3893, 3894, 3895, 3896, 3897, 3898, 3899, 3900, 3901, 3902, 3903, 3904, 3905, 3906, 3907, 3908
 3909, 3910, 3911, 3912, 3913, 3914, 3915, 3916, 3917, 3918, 3919, 3920, 3921, 3922, 3923, 3924
 3925, 3926, 3927, 3928, 3929, 3930, 3931, 3932, 3933, 3934, 3935, 3936, 3937, 3938, 3939, 3940
 3941, 3942, 3943, 3944, 3945, 3946, 3947, 3948, 3949, 3950, 3951, 3952, 3953, 3954, 3955, 3956
 3957, 3958, 3959, 3960, 3961, 3962, 3963, 3964, 3965, 3966, 3967, 3968, 3969, 3970, 3971, 3972
 3973, 3974, 3975, 3976, 3977, 3978, 3979, 3980, 3981, 3982, 3983, 3984, 3985, 3986, 3987, 3988
 3989, 3990, 3991, 3992, 3993, 3994, 3995, 3996, 3997, 3998, 3999, 4000, 4001, 4002, 4003, 4004
 4005, 4006, 4007, 4008, 4009, 4010, 4011, 4012, 4013, 4014, 4015, 4016, 4017, 4018, 4019, 4020
 4021, 4022, 4023, 4024, 4025, 4026, 4027, 4028, 4029, 4030, 4031, 4032, 4033, 4034, 4035, 4036
 4037, 4038, 4039, 4040, 4041, 4042, 4043, 4044, 4045, 4046, 4047, 4048, 4049, 4050, 4051, 4052
 4053, 4054, 4055, 4056, 4057, 4058, 4059, 4060, 4061, 4062, 4063, 4064, 4065, 4066, 4067, 4068
 4069, 4070, 4071, 4072, 4073, 4074, 4075, 4076, 4077, 4078, 4079, 4080, 4081, 4082, 4083, 4084
 4085, 4086, 4087, 4088, 4089, 4090, 4091, 4092, 4093, 4094, 4095, 4096, 4097, 4098, 4099, 4100
 4101, 4102, 4103, 4104, 4105, 4106, 4107, 4108, 4109, 4110, 4111, 4112, 4113, 4114, 4115, 4116
 4117, 4118, 4119, 4120, 4121, 4122, 4123, 4124, 4125, 4126, 4127, 4128, 4129, 4130, 4131, 4132
 4133, 4134, 4135, 4136, 4137, 4138, 4139, 4140, 4141, 4142, 4143, 4144, 4145, 4146, 4147, 4148
 4149, 4150, 4151, 4152, 4153, 4154, 4155, 4156, 4157, 4158, 4159, 4160, 4161, 4162, 4163, 4164
 4165, 4166, 4167, 4168, 4169, 4170, 4171, 4172, 4173, 4174, 4175, 4176, 4177, 4178, 4179, 4180
 4181, 4182, 4183, 4184, 4185, 4186, 4187, 4188, 4189, 4190, 4191, 4192, 4193, 4194, 4195, 4196
 4197, 4198, 4199, 4200, 4201, 4202, 4203, 4204, 4205, 4206, 4207, 4208, 4209, 4210, 4211, 4212
 4213, 4214, 4215, 4216, 4217, 4218, 4219, 4220, 4221, 4222, 4223, 4224, 4225, 4226, 4227, 4228
 4229, 4230, 4231, 4232, 4233, 4234, 4235, 4236, 4237, 4238, 4239, 4240, 4241, 4242, 4243, 4244
 4245, 4246, 4247, 4248, 4249, 4250, 4251, 4252, 4253, 4254, 4255, 4256, 4257, 4258, 4259, 4260
 4261, 4262, 4263, 4264, 4265, 4266, 4267, 4268, 4269, 4270, 4271, 4272, 4273, 4274, 4275, 4276
 4277, 4278, 4279, 4280, 4281, 4282, 4283, 4284, 4285, 4286, 4287, 4288, 4289, 4290, 4291, 4292
 4293, 4294, 4295, 4296, 4297, 4298, 4299, 4300, 4301, 4302, 4303, 4304, 4305, 4306, 4307, 4308
 4309, 4310, 4311, 4312, 4313, 4314, 4315, 4316, 4317, 4318, 4319, 4320, 4321, 4322, 4323, 4324
 4325, 4326, 4327, 4328, 4329, 4330, 4331, 4332, 4333, 4334, 4335, 4336, 4337, 4338, 4339, 4340
 4341, 4342, 4343, 4344, 4345, 4346, 4347, 4348, 4349, 4350, 4351, 4352, 4353, 4354, 4355, 4356
 4357, 4358, 4359, 4360, 4361, 4362, 4363, 4364, 4365, 4366, 4367, 4368, 4369, 4370, 4371, 4372
 4373, 4374, 4375, 4376, 4377, 4378, 4379, 4380, 4381, 4382, 4383, 4384, 4385, 4386, 4387, 4388
 4389, 4390, 4391, 4392, 4393, 4394, 4395, 4396, 4397, 4398, 4399, 4400, 4401, 4402, 4403, 4404
 4405, 4406, 4407, 4408, 4409, 4410, 4411, 4412, 4413, 4414, 4415, 4416, 4417, 4418, 4419, 4420
 4421, 4422, 4423, 4424, 4425, 4426, 4427, 4428, 4429, 4430, 4431, 4432, 4433, 4434, 4435, 4436
 4437, 4438, 4439, 4440, 4441, 4442, 4443, 4444, 4445, 4446, 4447, 4448, 4449, 4450, 4451, 4452
 4453, 4454, 4455, 4456, 4457, 4458, 4459, 4460, 4461, 4462, 4463, 4464, 4465, 4466, 4467, 4468
 4469, 4470, 4471, 4472, 4473, 4474, 4475, 4476, 4477, 4478, 4479, 4480, 4481, 4482, 4483, 4484
 4485, 4486, 4487, 4488, 4489, 4490, 4491, 4492, 4493, 4494, 4495, 4496, 4497, 4498, 4499, 4500
 4501, 4502, 4503, 4504, 4505, 4506, 4507, 4508, 4509, 4510, 4511, 4512, 4513, 4514, 4515, 4516
 4517, 4518, 4519, 4520, 4521, 4522, 4523, 4524, 4525, 4526, 4527, 4528, 4529, 4530, 4531, 4532
 4533, 4534, 4535, 4536, 4537, 4538, 4539, 4540, 4541, 4542, 4543, 4544, 4545, 4546, 4547, 4548
 4549, 4550, 4551, 4552, 4553, 4554, 4555, 4556, 4557, 4558, 4559, 4560, 4561, 4562, 4563, 4564
 4565, 4566, 4567, 4568, 4569, 4570, 4571, 4572, 4573, 4574, 4575, 4576, 4577, 4578, 4579, 4580
 4581, 4582, 4583, 4584, 4585, 4586, 4587, 4588, 4589, 4590, 4591, 4592, 4593, 4594, 4595, 4596
 4597, 4598, 4599, 4600, 4601, 4602, 4603, 4604, 4605, 4606, 4607, 4608, 4609, 4610, 4611, 4612
 4613, 4614, 4615, 4616, 4617, 4618, 4619, 4620, 4621, 4622, 4623, 4624, 4625, 4626, 4627, 4628
 4629, 4630, 4631, 4632, 4633, 4634, 4635, 4636, 4637, 4638, 4639, 4640, 4641, 4642, 4643, 4644
 4645, 4646, 4647, 4648, 4649, 4650, 4651, 4652, 4653, 4654, 4655, 4656, 4657, 4658, 4659, 4660
 4661, 4662, 4663, 4664, 4665, 4666, 4667, 4668, 4669, 4670, 4671, 4672, 4673, 4674, 4675, 4676
 4677, 4678, 4679, 4680, 4681, 4682, 4683, 4684, 4685, 4686, 4687, 4688, 4689, 4690, 4691, 4692
 4693, 4694, 4695, 4696, 4697, 4698, 4699, 4700, 4701, 4702, 4703, 4704, 4705, 4706, 4707, 4708
 4709, 4710, 4711, 4712, 4713, 4714, 4715, 4716, 4717, 4718, 4719, 4720, 4721, 4722, 4723, 4724
 4725, 4726, 4727, 4728, 4729, 4730, 4731, 4732, 4733, 4734, 4735, 4736, 4737, 4738, 4739, 4740
 4741, 4742, 4743, 4744, 4745, 4746, 4747, 4748, 4749, 4750, 4751, 4752, 4753, 4754, 4755, 4756
 4757, 4758, 4759, 4760, 4761, 4762, 4763, 4764, 4765, 4766, 4767, 4768, 4769, 4770, 4771, 4772
 4773, 4774, 4775, 4776, 4777, 4778, 4779, 4780, 4781, 4782, 4783, 4784, 4785, 4786, 4787, 4788
 4789, 4790, 4791, 4792, 4793, 4794, 4795, 4796, 4797, 4798, 4799, 4800, 4801, 4802, 4803, 4804
 4805, 4806, 4807, 4808, 4809, 4810, 4811, 4812, 4813, 4814, 4815, 4816, 4817, 4818, 4819, 4820
 4821, 4822, 4823, 4824, 4825, 4826, 4827, 4828, 4829, 4830, 4831, 4832, 4833, 4834, 4835, 4836
 4837, 4838, 4839, 4840, 4841, 4842, 4843, 4844, 4845, 4846, 4847, 4848, 4849, 4850, 4851, 4852
 4853, 4854, 4855, 4856, 4857, 4858, 4859, 4860, 4861, 4862, 4863, 4864, 4865, 4866, 4867, 4868
 4869, 4870, 4871, 4872, 4873, 4874, 4875, 4876, 4877, 4878, 4879, 4880, 4881, 4882, 4883, 4884
 4885, 4886, 4887, 4888, 4889, 4890, 4891, 4892, 4893, 4894, 4895, 4896, 4897, 4898, 4899, 4900
 4901, 4902, 4903, 4904, 4905, 4906, 4907, 4908, 4909, 4910, 4911, 4912, 4913, 4914, 4915, 4916
 4917, 4918, 4919, 4920, 4921, 4922, 4923, 4924, 4925, 4926, 4927, 4928, 4929, 4930, 4931, 4932
 4933, 4934, 4935, 4936, 4937, 4938, 4939, 4940, 4941
*Elset, elset=ADAPTE, instance=FLAT-1, generate
 2801,  4800,     1
*Nset, nset=ADAPTME, instance=CYLINDER-1
    2,    3,    5,    7,   28,   29,   30,   31,   32,   33,   34,   35,   36,   37,   38,   39
   40,   41,   42,   43,   44,   45,   46,   47,   48,   49,   50,   51,   52,   53,   54,   55
   56,   57,   58,   59,   60,   61,   62,   63,   64,   65,   66,   67,   68,   69,   70,   71
   72,   73,   74,   75,   76,   77,   78,   79,   80,   81,   82,   83,   84,   85,   86,   87
   88,   89,   90,   91,   92,   93,   94,   95,   96,   97,   98,   99,  100,  101,  102,  103
  104,  105,  106,  107,  108,  109,  110,  111,  112,  113,  114,  115,  116,  117,  118,  119
  120,  121,  122,  123,  124,  125,  126,  245,  246,  247,  248,  249,  250,  251,  252,  253
  254,  255,  256,  257,  258,  259,  260,  261,  262,  263,  302,  303,  304,  305,  306,  307
  308,  309,  310,  311,  312,  313,  314,  315,  316,  317,  318,  319,  320,  359,  360,  361
  362,  363,  364,  365,  366,  367,  368,  369,  370,  371,  372,  373,  374,  375,  376,  377
  378,  379,  380,  381,  382,  383,  384,  385,  386,  387,  388,  389,  390,  391,  392,  393
  394,  395,  396,  397,  398,  399,  400,  401,  402,  403,  404,  405,  406,  407,  408,  409
  410,  411,  412,  413,  414,  415,  416,  417,  418,  419,  420,  421,  422,  423,  424,  425
  426,  427,  428,  429,  430,  431,  432,  433,  434,  435,  436,  437,  438,  439,  440,  441
  442,  443,  444,  445,  446,  447,  448,  449,  450,  451,  452,  453,  454,  455,  456,  457
 3061, 3062, 3063, 3064, 3065, 3066, 3067, 3068, 3069, 3070, 3071, 3072, 3073, 3074, 3075, 3076
 3077, 3078, 3079, 3080, 3081, 3082, 3083, 3084, 3085, 3086, 3087, 3088, 3089, 3090, 3091, 3092
 3093, 3094, 3095, 3096, 3097, 3098, 3099, 3100, 3101, 3102, 3103, 3104, 3105, 3106, 3107, 3108
 3109, 3110, 3111, 3112, 3113, 3114, 3115, 3116, 3117, 3118, 3119, 3120, 3121, 3122, 3123, 3124
 3125, 3126, 3127, 3128, 3129, 3130, 3131, 3132, 3133, 3134, 3135, 3136, 3137, 3138, 3139, 3140
 3141, 3142, 3143, 3144, 3145, 3146, 3147, 3148, 3149, 3150, 3151, 3152, 3153, 3154, 3155, 3156
 3157, 3158, 3159, 3160, 3161, 3162, 3163, 3164, 3165, 3166, 3167, 3168, 3169, 3170, 3171, 3172
 3173, 3174, 3175, 3176, 3177, 3178, 3179, 3180, 3181, 3182, 3183, 3184, 3185, 3186, 3187, 3188
 3189, 3190, 3191, 3192, 3193, 3194, 3195, 3196, 3197, 3198, 3199, 3200, 3201, 3202, 3203, 3204
 3205, 3206, 3207, 3208, 3209, 3210, 3211, 3212, 3213, 3214, 3215, 3216, 3217, 3218, 3219, 3220
 3221, 3222, 3223, 3224, 3225, 3226, 3227, 3228, 3229, 3230, 3231, 3232, 3233, 3234, 3235, 3236
 3237, 3238, 3239, 3240, 3241, 3242, 3243, 3244, 3245, 3246, 3247, 3248, 3249, 3250, 3251, 3252
 3253, 3254, 3255, 3256, 3257, 3258, 3259, 3260, 3261, 3262, 3263, 3264, 3265, 3266, 3267, 3268
 3269, 3270, 3271, 3272, 3273, 3274, 3275, 3276, 3277, 3278, 3279, 3280, 3281, 3282, 3283, 3284
 3285, 3286, 3287, 3288, 3289, 3290, 3291, 3292, 3293, 3294, 3295, 3296, 3297, 3298, 3299, 3300
 3301, 3302, 3303, 3304, 3305, 3306, 3307, 3308, 3309, 3310, 3311, 3312, 3313, 3314, 3315, 3316
 3317, 3318, 3319, 3320, 3321, 3322, 3323, 3324, 3325, 3326, 3327, 3328, 3329, 3330, 3331, 3332
 3333, 3334, 3335, 3336, 3337, 3338, 3339, 3340, 3341, 3342, 3343, 3344, 3345, 3346, 3347, 3348
 3349, 3350, 3351, 3352, 3353, 3354, 3355, 3356, 3357, 3358, 3359, 3360, 3361, 3362, 3363, 3364
 3365, 3366, 3367, 3368, 3369, 3370, 3371, 3372, 3373, 3374, 3375, 3376, 3377, 3378, 3379, 3380
 3381, 3382, 3383, 3384, 3385, 3386, 3387, 3388, 3389, 3390, 3391, 3392, 3393, 3394, 3395, 3396
 3397, 3398, 3399, 3400, 3401, 3402, 3403, 3404, 3405, 3406, 3407, 3408, 3409, 3410, 3411, 3412
 3413, 3414, 3415, 3416, 3417, 3418, 3419, 3420, 3421, 3422, 3423, 3424, 3425, 3426, 3427, 3428
 3429, 3430, 3431, 3432, 3433, 3434, 3435, 3436, 3437, 3438, 3439, 3440, 3441, 3442, 3443, 3444
 3445, 3446, 3447, 3448, 3449, 3450, 3451, 3452, 3453, 3454, 3455, 3456, 3457, 3458, 3459, 3460
 3461, 3462, 3463, 3464, 3465, 3466, 3467, 3468, 3469, 3470, 3471, 3472, 3473, 3474, 3475, 3476
 3477, 3478, 3479, 3480, 3481, 3482, 3483, 3484, 3485, 3486, 3487, 3488, 3489, 3490, 3491, 3492
 3493, 3494, 3495, 3496, 3497, 3498, 3499, 3500, 3501, 3502, 3503, 3504, 3505, 3506, 3507, 3508
 3509, 3510, 3511, 3512, 3513, 3514, 3515, 3516, 3517, 3518, 3519, 3520, 3521, 3522, 3523, 3524
 3525, 3526, 3527, 3528, 3529, 3530, 3531, 3532, 3533, 3534, 3535, 3536, 3537, 3538, 3539, 3540
 3541, 3542, 3543, 3544, 3545, 3546, 3547, 3548, 3549, 3550, 3551, 3552, 3553, 3554, 3555, 3556
 3557, 3558, 3559, 3560, 3561, 3562, 3563, 3564, 3565, 3566, 3567, 3568, 3569, 3570, 3571, 3572
 3573, 3574, 3575, 3576, 3577, 3578, 3579, 3580, 3581, 3582, 3583, 3584, 3585, 3586, 3587, 3588
 3589, 3590, 3591, 3592, 3593, 3594, 3595, 3596, 3597, 3598, 3599, 3600, 3601, 3602, 3603, 3604
 3605, 3606, 3607, 3608, 3609, 3610, 3611, 3612, 3613, 3614, 3615, 3616, 3617, 3618, 3619, 3620
 3621, 3622, 3623, 3624, 3625, 3626, 3627, 3628, 3629, 3630, 3631, 3632, 3633, 3634, 3635, 3636
 3637, 3638, 3639, 3640, 3641, 3642, 3643, 3644, 3645, 3646, 3647, 3648, 3649, 3650, 3651, 3652
 3653, 3654, 3655, 3656, 3657, 3658, 3659, 3660, 3661, 3662, 3663, 3664, 3665, 3666, 3667, 3668
 3669, 3670, 3671, 3672, 3673, 3674, 3675, 3676, 3677, 3678, 3679, 3680, 3681, 3682, 3683, 3684
 3685, 3686, 3687, 3688, 3689, 3690, 3691, 3692, 3693, 3694, 3695, 3696, 3697, 3698, 3699, 3700
 3701, 3702, 3703, 3704, 3705, 3706, 3707, 3708, 3709, 3710, 3711, 3712, 3713, 3714, 3715, 3716
 3717, 3718, 3719, 3720, 3721, 3722, 3723, 3724, 3725, 3726, 3727, 3728, 3729, 3730, 3731, 3732
 3733, 3734, 3735, 3736, 3737, 3738, 3739, 3740, 3741, 3742, 3743, 3744, 3745, 3746, 3747, 3748
 3749, 3750, 3751, 3752, 3753, 3754, 3755, 3756, 3757, 3758, 3759, 3760, 3761, 3762, 3763, 3764
 3765, 3766, 3767, 3768, 3769, 3770, 3771, 3772, 3773, 3774, 3775, 3776, 3777, 3778, 3779, 3780
 3781, 3782, 3783, 3784, 3785, 3786, 3787, 3788, 3789, 3790, 3791, 3792, 3793, 3794, 3795, 3796
 3797, 3798, 3799, 3800, 3801, 3802, 3803, 3804, 3805, 3806, 3807, 3808, 3809, 3810, 3811, 3812
 3813, 3814, 3815, 3816, 3817, 3818, 3819, 3820, 3821, 3822, 3823, 3824, 3825, 3826, 3827, 3828
 3829, 3830, 3831, 3832, 3833, 3834, 3835, 3836, 3837, 3838, 3839, 3840, 3841, 3842, 3843, 3844
 3845, 3846, 3847, 3848, 3849, 3850, 3851, 3852, 3853, 3854, 3855, 3856, 3857, 3858, 3859, 3860
 3861, 3862, 3863, 3864, 3865, 3866, 3867, 3868, 3869, 3870, 3871, 3872, 3873, 3874, 3875, 3876
 3877, 3878, 3879, 3880, 3881, 3882, 3883, 3884, 3885, 3886, 3887, 3888, 3889, 3890, 3891, 3892
 3893, 3894, 3895, 3896, 3897, 3898, 3899, 3900, 3901, 3902, 3903, 3904, 3905, 3906, 3907, 3908
 3909, 3910, 3911, 3912, 3913, 3914, 3915, 3916, 3917, 3918, 3919, 3920, 3921, 3922, 3923, 3924
 3925, 3926, 3927, 3928, 3929, 3930, 3931, 3932, 3933, 3934, 3935, 3936, 3937, 3938, 3939, 3940
 3941, 3942, 3943, 3944, 3945, 3946, 3947, 3948, 3949, 3950, 3951, 3952, 3953, 3954, 3955, 3956
 3957, 3958, 3959, 3960, 3961, 3962, 3963, 3964, 3965, 3966, 3967, 3968, 3969, 3970, 3971, 3972
 3973, 3974, 3975, 3976, 3977, 3978, 3979, 3980, 3981, 3982, 3983, 3984, 3985, 3986, 3987, 3988
 3989, 3990, 3991, 3992, 3993, 3994, 3995, 3996, 3997, 3998, 3999, 4000, 4001, 4002, 4003, 4004
 4005, 4006, 4007, 4008, 4009, 4010, 4011, 4012, 4013, 4014, 4015, 4016, 4017, 4018, 4019, 4020
 4021, 4022, 4023, 4024, 4025, 4026, 4027, 4028, 4029, 4030, 4031, 4032, 4033, 4034, 4035, 4036
 4037, 4038, 4039, 4040, 4041, 4042, 4043, 4044, 4045, 4046, 4047, 4048, 4049, 4050, 4051, 4052
 4053, 4054, 4055, 4056, 4057, 4058, 4059, 4060, 4061, 4062, 4063, 4064, 4065, 4066, 4067, 4068
 4069, 4070, 4071, 4072, 4073, 4074, 4075, 4076, 4077, 4078, 4079, 4080, 4081, 4082, 4083, 4084
 4085, 4086, 4087, 4088, 4089, 4090, 4091, 4092, 4093, 4094, 4095, 4096, 4097, 4098, 4099, 4100
 4101, 4102, 4103, 4104, 4105, 4106, 4107, 4108, 4109, 4110, 4111, 4112, 4113, 4114, 4115, 4116
 4117, 4118, 4119, 4120, 4121, 4122, 4123, 4124, 4125, 4126, 4127, 4128, 4129, 4130, 4131, 4132
 4133, 4134, 4135, 4136, 4137, 4138, 4139, 4140, 4141, 4142, 4143, 4144, 4145, 4146, 4147, 4148
 4149, 4150, 4151, 4152, 4153, 4154, 4155, 4156, 4157, 4158, 4159, 4160, 4161, 4162, 4163, 4164
 4165, 4166, 4167, 4168, 4169, 4170, 4171, 4172, 4173, 4174, 4175, 4176, 4177, 4178, 4179, 4180
 4181, 4182, 4183, 4184, 4185, 4186, 4187, 4188, 4189, 4190, 4191, 4192, 4193, 4194, 4195, 4196
 4197, 4198, 4199, 4200, 4201, 4202, 4203, 4204, 4205, 4206, 4207, 4208, 4209, 4210, 4211, 4212
 4213, 4214, 4215, 4216, 4217, 4218, 4219, 4220, 4221, 4222, 4223, 4224, 4225, 4226, 4227, 4228
 4229, 4230, 4231, 4232, 4233, 4234, 4235, 4236, 4237, 4238, 4239, 4240, 4241, 4242, 4243, 4244
 4245, 4246, 4247, 4248, 4249, 4250, 4251, 4252, 4253, 4254, 4255, 4256, 4257, 4258, 4259, 4260
 4261, 4262, 4263, 4264, 4265, 4266, 4267, 4268, 4269, 4270, 4271, 4272, 4273, 4274, 4275, 4276
 4277, 4278, 4279, 4280, 4281, 4282, 4283, 4284, 4285, 4286, 4287, 4288, 4289, 4290, 4291, 4292
 4293, 4294, 4295, 4296, 4297, 4298, 4299, 4300, 4301, 4302, 4303, 4304, 4305, 4306, 4307, 4308
 4309, 4310, 4311, 4312, 4313, 4314, 4315, 4316, 4317, 4318, 4319, 4320, 4321, 4322, 4323, 4324
 4325, 4326, 4327, 4328, 4329, 4330, 4331, 4332, 4333, 4334, 4335, 4336, 4337, 4338, 4339, 4340
 4341, 4342, 4343, 4344, 4345, 4346, 4347, 4348, 4349, 4350, 4351, 4352, 4353, 4354, 4355, 4356
 4357, 4358, 4359, 4360, 4361, 4362, 4363, 4364, 4365, 4366, 4367, 4368, 4369, 4370, 4371, 4372
 4373, 4374, 4375, 4376, 4377, 4378, 4379, 4380, 4381, 4382, 4383, 4384, 4385, 4386, 4387, 4388
 4389, 4390, 4391, 4392, 4393, 4394, 4395, 4396, 4397, 4398, 4399, 4400, 4401, 4402, 4403, 4404
 4405, 4406, 4407, 4408, 4409, 4410, 4411, 4412, 4413, 4414, 4415, 4416, 4417, 4418, 4419, 4420
 4421, 4422, 4423, 4424, 4425, 4426, 4427, 4428, 4429, 4430, 4431, 4432, 4433, 4434, 4435, 4436
 4437, 4438, 4439, 4440, 4441, 4442, 4443, 4444, 4445, 4446, 4447, 4448, 4449, 4450, 4451, 4452
 4453, 4454, 4455, 4456, 4457, 4458, 4459, 4460, 4461, 4462, 4463, 4464, 4465, 4466, 4467, 4468
 4469, 4470, 4471, 4472, 4473, 4474, 4475, 4476, 4477, 4478, 4479, 4480, 4481, 4482, 4483, 4484
 4485, 4486, 4487, 4488, 4489, 4490, 4491, 4492, 4493, 4494, 4495, 4496, 4497, 4498, 4499, 4500
 4501, 4502, 4503, 4504, 4505, 4506, 4507, 4508, 4509, 4510, 4511, 4512, 4513, 4514, 4515, 4516
 4517, 4518, 4519, 4520, 4521, 4522, 4523, 4524, 4525, 4526, 4527, 4528, 4529, 4530, 4531, 4532
 4533, 4534, 4535, 4536, 4537, 4538, 4539, 4540, 4541, 4542, 4543, 4544, 4545, 4546, 4547, 4548
 4549, 4550, 4551, 4552, 4553, 4554, 4555, 4556, 4557, 4558, 4559, 4560, 4561, 4562, 4563, 4564
 4565, 4566, 4567, 4568, 4569, 4570, 4571, 4572, 4573, 4574, 4575, 4576, 4577, 4578, 4579, 4580
 4581, 4582, 4583, 4584, 4585, 4586, 4587, 4588, 4589, 4590, 4591, 4592, 4593, 4594, 4595, 4596
 4597, 4598, 4599, 4600, 4601, 4602, 4603, 4604, 4605, 4606, 4607, 4608, 4609, 4610, 4611, 4612
 4613, 4614, 4615, 4616, 4617, 4618, 4619, 4620, 4621, 4622, 4623, 4624, 4625, 4626, 4627, 4628
 4629, 4630, 4631, 4632, 4633, 4634, 4635, 4636, 4637, 4638, 4639, 4640, 4641, 4642, 4643, 4644
 4645, 4646, 4647, 4648, 4649, 4650, 4651, 4652, 4653, 4654, 4655, 4656, 4657, 4658, 4659, 4660
 4661, 4662, 4663, 4664, 4665, 4666, 4667, 4668, 4669, 4670, 4671, 4672, 4673, 4674, 4675, 4676
 4677, 4678, 4679, 4680, 4681, 4682, 4683, 4684, 4685, 4686, 4687, 4688, 4689, 4690, 4691, 4692
 4693, 4694, 4695, 4696, 4697, 4698, 4699, 4700, 4701, 4702, 4703, 4704, 4705, 4706, 4707, 4708
 4709, 4710, 4711, 4712, 4713, 4714, 4715, 4716, 4717, 4718, 4719, 4720, 4721, 4722, 4723, 4724
 4725, 4726, 4727, 4728, 4729, 4730, 4731, 4732, 4733, 4734, 4735, 4736, 4737, 4738, 4739, 4740
 4741, 4742, 4743, 4744, 4745, 4746, 4747, 4748, 4749, 4750, 4751, 4752, 4753, 4754, 4755, 4756
 4757, 4758, 4759, 4760, 4761, 4762, 4763, 4764, 4765, 4766, 4767, 4768, 4769, 4770, 4771, 4772
 4773, 4774, 4775, 4776, 4777, 4778, 4779, 4780, 4781, 4782, 4783, 4784, 4785, 4786, 4787, 4788
 4789, 4790, 4791, 4792, 4793, 4794, 4795, 4796, 4797, 4798, 4799, 4800, 4801, 4802, 4803, 4804
 4805, 4806, 4807, 4808, 4809, 4810, 4811, 4812, 4813, 4814, 4815, 4816, 4817, 4818, 4819, 4820
 4821, 4822, 4823, 4824, 4825, 4826, 4827, 4828, 4829, 4830, 4831, 4832, 4833, 4834, 4835, 4836
 4837, 4838, 4839, 4840, 4841, 4842, 4843, 4844, 4845, 4846, 4847, 4848, 4849, 4850, 4851, 4852
 4853, 4854, 4855, 4856, 4857, 4858, 4859, 4860, 4861, 4862, 4863, 4864, 4865, 4866, 4867, 4868
 4869, 4870, 4871, 4872, 4873, 4874, 4875, 4876, 4877, 4878, 4879, 4880, 4881, 4882, 4883, 4884
 4885, 4886, 4887, 4888, 4889, 4890, 4891, 4892, 4893, 4894, 4895, 4896, 4897, 4898, 4899, 4900
 4901, 4902, 4903, 4904, 4905, 4906, 4907, 4908, 4909, 4910, 4911, 4912, 4913, 4914, 4915, 4916
 4917, 4918, 4919, 4920, 4921, 4922, 4923, 4924, 4925, 4926, 4927, 4928, 4929, 4930, 4931, 4932
 4933, 4934, 4935, 4936, 4937, 4938, 4939, 4940, 4941
*Elset, elset=ADAPTME, instance=CYLINDER-1, generate
 2801,  4800,     1
*Nset, nset=ADAPTMN, instance=CYLINDER-1
   5,   7, 359, 360, 361, 362, 363, 364, 365, 366, 367, 368, 369, 370, 371, 372
 373, 374, 375, 376, 377, 378, 379, 380, 381, 382, 383, 384, 385, 386, 387, 388
 389, 390, 391, 392, 393, 394, 395, 396, 397, 398, 399, 400, 401, 402, 403, 404
 405, 406, 407, 408, 409, 410, 411, 412, 413, 414, 415, 416, 417, 418, 419, 420
 421, 422, 423, 424, 425, 426, 427, 428, 429, 430, 431, 432, 433, 434, 435, 436
 437, 438, 439, 440, 441, 442, 443, 444, 445, 446, 447, 448, 449, 450, 451, 452
 453, 454, 455, 456, 457
*Elset, elset=ADAPTMN, instance=CYLINDER-1, generate
 2820,  4800,    20
*Nset, nset=ADAPTN, instance=FLAT-1
   5,   7, 359, 360, 361, 362, 363, 364, 365, 366, 367, 368, 369, 370, 371, 372
 373, 374, 375, 376, 377, 378, 379, 380, 381, 382, 383, 384, 385, 386, 387, 388
 389, 390, 391, 392, 393, 394, 395, 396, 397, 398, 399, 400, 401, 402, 403, 404
 405, 406, 407, 408, 409, 410, 411, 412, 413, 414, 415, 416, 417, 418, 419, 420
 421, 422, 423, 424, 425, 426, 427, 428, 429, 430, 431, 432, 433, 434, 435, 436
 437, 438, 439, 440, 441, 442, 443, 444, 445, 446, 447, 448, 449, 450, 451, 452
 453, 454, 455, 456, 457
*Elset, elset=ADAPTN, instance=FLAT-1, generate
 2820,  4800,    20
*Nset, nset=CYLINDERNODES, instance=CYLINDER-1, generate
    1,  4941,     1
*Elset, elset=CYLINDERNODES, instance=CYLINDER-1, generate
    1,  4800,     1
*Nset, nset=DISP
 2,
*Nset, nset=FLATNODES, instance=FLAT-1, generate
    1,  4941,     1
*Elset, elset=FLATNODES, instance=FLAT-1, generate
    1,  4800,     1
*Nset, nset=QPOINT
 1,
*Elset, elset=_cylinderUpperSurface_S4, internal, instance=CYLINDER-1, generate
    1,  2381,    20
*Elset, elset=_cylinderUpperSurface_S3, internal, instance=CYLINDER-1, generate
 2781,  2800,     1
*Surface, type=ELEMENT, name=cylinderUpperSurface
_cylinderUpperSurface_S4, S4
_cylinderUpperSurface_S3, S3
*Elset, elset=_flatLowerSurface_S4, internal, instance=FLAT-1, generate
    1,  1981,    20
*Surface, type=ELEMENT, name=flatLowerSurface
_flatLowerSurface_S4, S4
*Elset, elset=_m_Surf-1_S2, internal, instance=CYLINDER-1, generate
 2820,  4800,    20
*Surface, type=ELEMENT, name=m_Surf-1
_m_Surf-1_S2, S2
*Elset, elset=_s_Surf-1_S2, internal, instance=FLAT-1, generate
 2820,  4800,    20
*Surface, type=ELEMENT, name=s_Surf-1
_s_Surf-1_S2, S2
** Constraint: couplingCylinder
*Coupling, constraint name=couplingCylinder, ref node=QPOINT, surface=cylinderUpperSurface
*Kinematic
** Constraint: couplingFlat
*Coupling, constraint name=couplingFlat, ref node=DISP, surface=flatLowerSurface
*Kinematic
*End Assembly
*Amplitude, name=STROKE
             0.,              0.,             10.,              1.,             20.,              0.,             30.,             -1.
            40.,              0.,             41.,              0.
** 
** MATERIALS
** 
*Material, name=Material
*Elastic
200000., 0.3
** 
** INTERACTION PROPERTIES
** 
*Surface Interaction, name=CONTACT_PROP
1.,
*Friction, lagrange
 0.9,
*Surface Behavior, direct
** 
** BOUNDARY CONDITIONS
** 
** Name: CYLINDER Type: Displacement/Rotation
*Boundary
QPOINT, 1, 1
QPOINT, 6, 6
** Name: FLAT Type: Displacement/Rotation
*Boundary
DISP, 1, 1
DISP, 2, 2
DISP, 6, 6
** 
** INTERACTIONS
** 
** Interaction: CONTACT_INT
*Contact Pair, interaction=CONTACT_PROP, type=SURFACE TO SURFACE
s_Surf-1, m_Surf-1
** ----------------------------------------------------------------
** 
** STEP: CONTACT
** 
*Step, name=CONTACT, nlgeom=YES
*Static
0.25, 1., 1e-05, 1.
** 
** LOADS
** 
** Name: CONTACT_LOAD   Type: Concentrated force
*Cload
QPOINT, 2, -18.5
** 
** INTERACTIONS
** 
** Contact Controls for Interaction: CONTACT_INT
*Contact Controls, master=m_Surf-1, slave=s_Surf-1, reset
*Contact Controls, master=m_Surf-1, slave=s_Surf-1, stabilize=1.
** 
** OUTPUT REQUESTS
** 
** 
** FIELD OUTPUT: F-Output-5
** 
*Output, field
*Node Output, nset=ADAPTMN
COORD, 
** 
** FIELD OUTPUT: F-Output-4
** 
*Node Output, nset=ADAPTN
COORD, 
** 
** FIELD OUTPUT: F-Output-2
** 
*Node Output, nset=CYLINDERNODES
COORD, 
** 
** FIELD OUTPUT: F-Output-3
** 
*Node Output, nset=FLATNODES
COORD, 
** 
** FIELD OUTPUT: F-Output-1
** 
*Output, field, variable=PRESELECT
** 
** HISTORY OUTPUT: H-Output-1
** 
*Output, history, variable=PRESELECT
*End Step
** ----------------------------------------------------------------
** 
** STEP: FRETTING_CYCLE
** 
*Step, name=FRETTING_CYCLE, nlgeom=YES, inc=1000
*Static
1., 41., 0.00041, 1.
** 
** BOUNDARY CONDITIONS
** 
** Name: FLAT Type: Displacement/Rotation
*Boundary, amplitude=STROKE
DISP, 1, 1, 0.025
DISP, 2, 2
DISP, 6, 6
** 
** OUTPUT REQUESTS
** 
** 
** FIELD OUTPUT: F-Output-5
** 
*Output, field
*Node Output, nset=ADAPTMN
COORD, 
** 
** FIELD OUTPUT: F-Output-4
** 
*Node Output, nset=ADAPTN
COORD, 
** 
** FIELD OUTPUT: F-Output-2
** 
*Node Output, nset=CYLINDERNODES
COORD, 
** 
** FIELD OUTPUT: F-Output-3
** 
*Node Output, nset=FLATNODES
COORD, 
** 
** FIELD OUTPUT: F-Output-1
** 
*Output, field, frequency=10
*Node Output
RF, U
*Element Output, directions=YES
E, S
*Contact Output
CDISP, CSTRESS
** 
** HISTORY OUTPUT: H-Output-1
** 
*Output, history, variable=PRESELECT
*End Step
**
** WEAR BLOCK 1 (cycles 0 to 100)
**
*Step, name=CYCLE_1, nlgeom=YES, inc=1000
*Static
1., 41.0, 0.004, 1.
**
** BOUNDARY CONDITIONS
**
** Name: CYLINDER Type: Displacement/Rotation
*Boundary, amplitude=STROKE
DISP, 1, 1, 0.025
DISP, 2, 2
DISP, 6, 6
**
*adaptive mesh,elset=ADAPTE,freq=1,mesh=1
*adaptive mesh,elset=ADAPTME,freq=1,mesh=1
*adaptive mesh constraint, 
type=velocity,user
ADAPTN,1, ,2.9e-08
ADAPTMN,1, ,1.9e-08
**
** OUTPUT REQUESTS
**
**
** FIELD OUTPUT: F-Output-1
**
*Output, field, number interval=1
*Node Output
CF, RF, U
*Element Output, directions=YES
LE, EE, E, S, COORD
*Contact Output
CDISP, CDSTRESS, CFORCE, CNAREA, CSTATUS, CSTRESS
**
** FIELD OUTPUT: F-Output-2
**
*Node Output, nset=ADAPTN
U, COORD
*Contact Output, nset=ADAPTN
CDISP, CSTRESS
**
** FIELD OUTPUT: F-Output-3
**
*Node Output, nset=QPOINT
RF,
**
** FIELD OUTPUT: F-Output-3
**
**
*Node Output, nset=ADAPTMN
U, COORD
*Contact Output, nset=ADAPTMN
CDISP, CSTRESS
** HISTORY OUTPUT: H-Output-1
**
*Output, history, variable=PRESELECT
*End Step
**
** WEAR BLOCK 2 (cycles 100 to 200)
**
*Step, name=CYCLE_2, nlgeom=YES, inc=1000
*Static
1., 41.0, 0.004, 1.
**
** BOUNDARY CONDITIONS
**
** Name: CYLINDER Type: Displacement/Rotation
*Boundary, amplitude=STROKE
DISP, 1, 1, 0.025
DISP, 2, 2
DISP, 6, 6
**
*adaptive mesh,elset=ADAPTE,freq=1,mesh=1
*adaptive mesh,elset=ADAPTME,freq=1,mesh=1
*adaptive mesh constraint, 
type=velocity,user
ADAPTN,1, ,2.9e-08
ADAPTMN,1, ,1.9e-08
**
** OUTPUT REQUESTS
**
**
** FIELD OUTPUT: F-Output-1
**
*Output, field, number interval=1
*Node Output
CF, RF, U
*Element Output, directions=YES
LE, EE, E, S, COORD
*Contact Output
CDISP, CDSTRESS, CFORCE, CNAREA, CSTATUS, CSTRESS
**
** FIELD OUTPUT: F-Output-2
**
*Node Output, nset=ADAPTN
U, COORD
*Contact Output, nset=ADAPTN
CDISP, CSTRESS
**
** FIELD OUTPUT: F-Output-3
**
*Node Output, nset=QPOINT
RF,
**
** FIELD OUTPUT: F-Output-3
**
**
*Node Output, nset=ADAPTMN
U, COORD
*Contact Output, nset=ADAPTMN
CDISP, CSTRESS
** HISTORY OUTPUT: H-Output-1
**
*Output, history, variable=PRESELECT
*End Step
**
** WEAR BLOCK 3 (cycles 200 to 300)
**
*Step, name=CYCLE_3, nlgeom=YES, inc=1000
*Static
1., 41.0, 0.004, 1.
**
** BOUNDARY CONDITIONS
**
** Name: CYLINDER Type: Displacement/Rotation
*Boundary, amplitude=STROKE
DISP, 1, 1, 0.025
DISP, 2, 2
DISP, 6, 6
**
*adaptive mesh,elset=ADAPTE,freq=1,mesh=1
*adaptive mesh,elset=ADAPTME,freq=1,mesh=1
*adaptive mesh constraint, 
type=velocity,user
ADAPTN,1, ,2.9e-08
ADAPTMN,1, ,1.9e-08
**
** OUTPUT REQUESTS
**
**
** FIELD OUTPUT: F-Output-1
**
*Output, field, number interval=1
*Node Output
CF, RF, U
*Element Output, directions=YES
LE, EE, E, S, COORD
*Contact Output
CDISP, CDSTRESS, CFORCE, CNAREA, CSTATUS, CSTRESS
**
** FIELD OUTPUT: F-Output-2
**
*Node Output, nset=ADAPTN
U, COORD
*Contact Output, nset=ADAPTN
CDISP, CSTRESS
**
** FIELD OUTPUT: F-Output-3
**
*Node Output, nset=QPOINT
RF,
**
** FIELD OUTPUT: F-Output-3
**
**
*Node Output, nset=ADAPTMN
U, COORD
*Contact Output, nset=ADAPTMN
CDISP, CSTRESS
** HISTORY OUTPUT: H-Output-1
**
*Output, history, variable=PRESELECT
*End Step
**
** WEAR BLOCK 4 (cycles 300 to 400)
**
*Step, name=CYCLE_4, nlgeom=YES, inc=1000
*Static
1., 41.0, 0.004, 1.
**
** BOUNDARY CONDITIONS
**
** Name: CYLINDER Type: Displacement/Rotation
*Boundary, amplitude=STROKE
DISP, 1, 1, 0.025
DISP, 2, 2
DISP, 6, 6
**
*adaptive mesh,elset=ADAPTE,freq=1,mesh=1
*adaptive mesh,elset=ADAPTME,freq=1,mesh=1
*adaptive mesh constraint, 
type=velocity,user
ADAPTN,1, ,2.9e-08
ADAPTMN,1, ,1.9e-08
**
** OUTPUT REQUESTS
**
**
** FIELD OUTPUT: F-Output-1
**
*Output, field, number interval=1
*Node Output
CF, RF, U
*Element Output, directions=YES
LE, EE, E, S, COORD
*Contact Output
CDISP, CDSTRESS, CFORCE, CNAREA, CSTATUS, CSTRESS
**
** FIELD OUTPUT: F-Output-2
**
*Node Output, nset=ADAPTN
U, COORD
*Contact Output, nset=ADAPTN
CDISP, CSTRESS
**
** FIELD OUTPUT: F-Output-3
**
*Node Output, nset=QPOINT
RF,
**
** FIELD OUTPUT: F-Output-3
**
**
*Node Output, nset=ADAPTMN
U, COORD
*Contact Output, nset=ADAPTMN
CDISP, CSTRESS
** HISTORY OUTPUT: H-Output-1
**
*Output, history, variable=PRESELECT
*End Step
**
** WEAR BLOCK 5 (cycles 400 to 500)
**
*Step, name=CYCLE_5, nlgeom=YES, inc=1000
*Static
1., 41.0, 0.004, 1.
**
** BOUNDARY CONDITIONS
**
** Name: CYLINDER Type: Displacement/Rotation
*Boundary, amplitude=STROKE
DISP, 1, 1, 0.025
DISP, 2, 2
DISP, 6, 6
**
*adaptive mesh,elset=ADAPTE,freq=1,mesh=1
*adaptive mesh,elset=ADAPTME,freq=1,mesh=1
*adaptive mesh constraint, 
type=velocity,user
ADAPTN,1, ,2.9e-08
ADAPTMN,1, ,1.9e-08
**
** OUTPUT REQUESTS
**
**
** FIELD OUTPUT: F-Output-1
**
*Output, field, number interval=1
*Node Output
CF, RF, U
*Element Output, directions=YES
LE, EE, E, S, COORD
*Contact Output
CDISP, CDSTRESS, CFORCE, CNAREA, CSTATUS, CSTRESS
**
** FIELD OUTPUT: F-Output-2
**
*Node Output, nset=ADAPTN
U, COORD
*Contact Output, nset=ADAPTN
CDISP, CSTRESS
**
** FIELD OUTPUT: F-Output-3
**
*Node Output, nset=QPOINT
RF,
**
** FIELD OUTPUT: F-Output-3
**
**
*Node Output, nset=ADAPTMN
U, COORD
*Contact Output, nset=ADAPTMN
CDISP, CSTRESS
** HISTORY OUTPUT: H-Output-1
**
*Output, history, variable=PRESELECT
*End Step
**
** WEAR BLOCK 6 (cycles 500 to 600)
**
*Step, name=CYCLE_6, nlgeom=YES, inc=1000
*Static
1., 41.0, 0.004, 1.
**
** BOUNDARY CONDITIONS
**
** Name: CYLINDER Type: Displacement/Rotation
*Boundary, amplitude=STROKE
DISP, 1, 1, 0.025
DISP, 2, 2
DISP, 6, 6
**
*adaptive mesh,elset=ADAPTE,freq=1,mesh=1
*adaptive mesh,elset=ADAPTME,freq=1,mesh=1
*adaptive mesh constraint, 
type=velocity,user
ADAPTN,1, ,2.9e-08
ADAPTMN,1, ,1.9e-08
**
** OUTPUT REQUESTS
**
**
** FIELD OUTPUT: F-Output-1
**
*Output, field, number interval=1
*Node Output
CF, RF, U
*Element Output, directions=YES
LE, EE, E, S, COORD
*Contact Output
CDISP, CDSTRESS, CFORCE, CNAREA, CSTATUS, CSTRESS
**
** FIELD OUTPUT: F-Output-2
**
*Node Output, nset=ADAPTN
U, COORD
*Contact Output, nset=ADAPTN
CDISP, CSTRESS
**
** FIELD OUTPUT: F-Output-3
**
*Node Output, nset=QPOINT
RF,
**
** FIELD OUTPUT: F-Output-3
**
**
*Node Output, nset=ADAPTMN
U, COORD
*Contact Output, nset=ADAPTMN
CDISP, CSTRESS
** HISTORY OUTPUT: H-Output-1
**
*Output, history, variable=PRESELECT
*End Step
**
** WEAR BLOCK 7 (cycles 600 to 700)
**
*Step, name=CYCLE_7, nlgeom=YES, inc=1000
*Static
1., 41.0, 0.004, 1.
**
** BOUNDARY CONDITIONS
**
** Name: CYLINDER Type: Displacement/Rotation
*Boundary, amplitude=STROKE
DISP, 1, 1, 0.025
DISP, 2, 2
DISP, 6, 6
**
*adaptive mesh,elset=ADAPTE,freq=1,mesh=1
*adaptive mesh,elset=ADAPTME,freq=1,mesh=1
*adaptive mesh constraint, 
type=velocity,user
ADAPTN,1, ,2.9e-08
ADAPTMN,1, ,1.9e-08
**
** OUTPUT REQUESTS
**
**
** FIELD OUTPUT: F-Output-1
**
*Output, field, number interval=1
*Node Output
CF, RF, U
*Element Output, directions=YES
LE, EE, E, S, COORD
*Contact Output
CDISP, CDSTRESS, CFORCE, CNAREA, CSTATUS, CSTRESS
**
** FIELD OUTPUT: F-Output-2
**
*Node Output, nset=ADAPTN
U, COORD
*Contact Output, nset=ADAPTN
CDISP, CSTRESS
**
** FIELD OUTPUT: F-Output-3
**
*Node Output, nset=QPOINT
RF,
**
** FIELD OUTPUT: F-Output-3
**
**
*Node Output, nset=ADAPTMN
U, COORD
*Contact Output, nset=ADAPTMN
CDISP, CSTRESS
** HISTORY OUTPUT: H-Output-1
**
*Output, history, variable=PRESELECT
*End Step
**
** WEAR BLOCK 8 (cycles 700 to 800)
**
*Step, name=CYCLE_8, nlgeom=YES, inc=1000
*Static
1., 41.0, 0.004, 1.
**
** BOUNDARY CONDITIONS
**
** Name: CYLINDER Type: Displacement/Rotation
*Boundary, amplitude=STROKE
DISP, 1, 1, 0.025
DISP, 2, 2
DISP, 6, 6
**
*adaptive mesh,elset=ADAPTE,freq=1,mesh=1
*adaptive mesh,elset=ADAPTME,freq=1,mesh=1
*adaptive mesh constraint, 
type=velocity,user
ADAPTN,1, ,2.9e-08
ADAPTMN,1, ,1.9e-08
**
** OUTPUT REQUESTS
**
**
** FIELD OUTPUT: F-Output-1
**
*Output, field, number interval=1
*Node Output
CF, RF, U
*Element Output, directions=YES
LE, EE, E, S, COORD
*Contact Output
CDISP, CDSTRESS, CFORCE, CNAREA, CSTATUS, CSTRESS
**
** FIELD OUTPUT: F-Output-2
**
*Node Output, nset=ADAPTN
U, COORD
*Contact Output, nset=ADAPTN
CDISP, CSTRESS
**
** FIELD OUTPUT: F-Output-3
**
*Node Output, nset=QPOINT
RF,
**
** FIELD OUTPUT: F-Output-3
**
**
*Node Output, nset=ADAPTMN
U, COORD
*Contact Output, nset=ADAPTMN
CDISP, CSTRESS
** HISTORY OUTPUT: H-Output-1
**
*Output, history, variable=PRESELECT
*End Step
**
** WEAR BLOCK 9 (cycles 800 to 900)
**
*Step, name=CYCLE_9, nlgeom=YES, inc=1000
*Static
1., 41.0, 0.004, 1.
**
** BOUNDARY CONDITIONS
**
** Name: CYLINDER Type: Displacement/Rotation
*Boundary, amplitude=STROKE
DISP, 1, 1, 0.025
DISP, 2, 2
DISP, 6, 6
**
*adaptive mesh,elset=ADAPTE,freq=1,mesh=1
*adaptive mesh,elset=ADAPTME,freq=1,mesh=1
*adaptive mesh constraint, 
type=velocity,user
ADAPTN,1, ,2.9e-08
ADAPTMN,1, ,1.9e-08
**
** OUTPUT REQUESTS
**
**
** FIELD OUTPUT: F-Output-1
**
*Output, field, number interval=1
*Node Output
CF, RF, U
*Element Output, directions=YES
LE, EE, E, S, COORD
*Contact Output
CDISP, CDSTRESS, CFORCE, CNAREA, CSTATUS, CSTRESS
**
** FIELD OUTPUT: F-Output-2
**
*Node Output, nset=ADAPTN
U, COORD
*Contact Output, nset=ADAPTN
CDISP, CSTRESS
**
** FIELD OUTPUT: F-Output-3
**
*Node Output, nset=QPOINT
RF,
**
** FIELD OUTPUT: F-Output-3
**
**
*Node Output, nset=ADAPTMN
U, COORD
*Contact Output, nset=ADAPTMN
CDISP, CSTRESS
** HISTORY OUTPUT: H-Output-1
**
*Output, history, variable=PRESELECT
*End Step
**
** WEAR BLOCK 10 (cycles 900 to 1000)
**
*Step, name=CYCLE_10, nlgeom=YES, inc=1000
*Static
1., 41.0, 0.004, 1.
**
** BOUNDARY CONDITIONS
**
** Name: CYLINDER Type: Displacement/Rotation
*Boundary, amplitude=STROKE
DISP, 1, 1, 0.025
DISP, 2, 2
DISP, 6, 6
**
*adaptive mesh,elset=ADAPTE,freq=1,mesh=1
*adaptive mesh,elset=ADAPTME,freq=1,mesh=1
*adaptive mesh constraint, 
type=velocity,user
ADAPTN,1, ,2.9e-08
ADAPTMN,1, ,1.9e-08
**
** OUTPUT REQUESTS
**
**
** FIELD OUTPUT: F-Output-1
**
*Output, field, number interval=1
*Node Output
CF, RF, U
*Element Output, directions=YES
LE, EE, E, S, COORD
*Contact Output
CDISP, CDSTRESS, CFORCE, CNAREA, CSTATUS, CSTRESS
**
** FIELD OUTPUT: F-Output-2
**
*Node Output, nset=ADAPTN
U, COORD
*Contact Output, nset=ADAPTN
CDISP, CSTRESS
**
** FIELD OUTPUT: F-Output-3
**
*Node Output, nset=QPOINT
RF,
**
** FIELD OUTPUT: F-Output-3
**
**
*Node Output, nset=ADAPTMN
U, COORD
*Contact Output, nset=ADAPTMN
CDISP, CSTRESS
** HISTORY OUTPUT: H-Output-1
**
*Output, history, variable=PRESELECT
*End Step
**
** WEAR BLOCK 11 (cycles 1000 to 1100)
**
*Step, name=CYCLE_11, nlgeom=YES, inc=1000
*Static
1., 41.0, 0.004, 1.
**
** BOUNDARY CONDITIONS
**
** Name: CYLINDER Type: Displacement/Rotation
*Boundary, amplitude=STROKE
DISP, 1, 1, 0.025
DISP, 2, 2
DISP, 6, 6
**
*adaptive mesh,elset=ADAPTE,freq=1,mesh=1
*adaptive mesh,elset=ADAPTME,freq=1,mesh=1
*adaptive mesh constraint, 
type=velocity,user
ADAPTN,1, ,2.9e-08
ADAPTMN,1, ,1.9e-08
**
** OUTPUT REQUESTS
**
**
** FIELD OUTPUT: F-Output-1
**
*Output, field, number interval=1
*Node Output
CF, RF, U
*Element Output, directions=YES
LE, EE, E, S, COORD
*Contact Output
CDISP, CDSTRESS, CFORCE, CNAREA, CSTATUS, CSTRESS
**
** FIELD OUTPUT: F-Output-2
**
*Node Output, nset=ADAPTN
U, COORD
*Contact Output, nset=ADAPTN
CDISP, CSTRESS
**
** FIELD OUTPUT: F-Output-3
**
*Node Output, nset=QPOINT
RF,
**
** FIELD OUTPUT: F-Output-3
**
**
*Node Output, nset=ADAPTMN
U, COORD
*Contact Output, nset=ADAPTMN
CDISP, CSTRESS
** HISTORY OUTPUT: H-Output-1
**
*Output, history, variable=PRESELECT
*End Step
**
** WEAR BLOCK 12 (cycles 1100 to 1200)
**
*Step, name=CYCLE_12, nlgeom=YES, inc=1000
*Static
1., 41.0, 0.004, 1.
**
** BOUNDARY CONDITIONS
**
** Name: CYLINDER Type: Displacement/Rotation
*Boundary, amplitude=STROKE
DISP, 1, 1, 0.025
DISP, 2, 2
DISP, 6, 6
**
*adaptive mesh,elset=ADAPTE,freq=1,mesh=1
*adaptive mesh,elset=ADAPTME,freq=1,mesh=1
*adaptive mesh constraint, 
type=velocity,user
ADAPTN,1, ,2.9e-08
ADAPTMN,1, ,1.9e-08
**
** OUTPUT REQUESTS
**
**
** FIELD OUTPUT: F-Output-1
**
*Output, field, number interval=1
*Node Output
CF, RF, U
*Element Output, directions=YES
LE, EE, E, S, COORD
*Contact Output
CDISP, CDSTRESS, CFORCE, CNAREA, CSTATUS, CSTRESS
**
** FIELD OUTPUT: F-Output-2
**
*Node Output, nset=ADAPTN
U, COORD
*Contact Output, nset=ADAPTN
CDISP, CSTRESS
**
** FIELD OUTPUT: F-Output-3
**
*Node Output, nset=QPOINT
RF,
**
** FIELD OUTPUT: F-Output-3
**
**
*Node Output, nset=ADAPTMN
U, COORD
*Contact Output, nset=ADAPTMN
CDISP, CSTRESS
** HISTORY OUTPUT: H-Output-1
**
*Output, history, variable=PRESELECT
*End Step
**
** WEAR BLOCK 13 (cycles 1200 to 1300)
**
*Step, name=CYCLE_13, nlgeom=YES, inc=1000
*Static
1., 41.0, 0.004, 1.
**
** BOUNDARY CONDITIONS
**
** Name: CYLINDER Type: Displacement/Rotation
*Boundary, amplitude=STROKE
DISP, 1, 1, 0.025
DISP, 2, 2
DISP, 6, 6
**
*adaptive mesh,elset=ADAPTE,freq=1,mesh=1
*adaptive mesh,elset=ADAPTME,freq=1,mesh=1
*adaptive mesh constraint, 
type=velocity,user
ADAPTN,1, ,2.9e-08
ADAPTMN,1, ,1.9e-08
**
** OUTPUT REQUESTS
**
**
** FIELD OUTPUT: F-Output-1
**
*Output, field, number interval=1
*Node Output
CF, RF, U
*Element Output, directions=YES
LE, EE, E, S, COORD
*Contact Output
CDISP, CDSTRESS, CFORCE, CNAREA, CSTATUS, CSTRESS
**
** FIELD OUTPUT: F-Output-2
**
*Node Output, nset=ADAPTN
U, COORD
*Contact Output, nset=ADAPTN
CDISP, CSTRESS
**
** FIELD OUTPUT: F-Output-3
**
*Node Output, nset=QPOINT
RF,
**
** FIELD OUTPUT: F-Output-3
**
**
*Node Output, nset=ADAPTMN
U, COORD
*Contact Output, nset=ADAPTMN
CDISP, CSTRESS
** HISTORY OUTPUT: H-Output-1
**
*Output, history, variable=PRESELECT
*End Step
**
** WEAR BLOCK 14 (cycles 1300 to 1400)
**
*Step, name=CYCLE_14, nlgeom=YES, inc=1000
*Static
1., 41.0, 0.004, 1.
**
** BOUNDARY CONDITIONS
**
** Name: CYLINDER Type: Displacement/Rotation
*Boundary, amplitude=STROKE
DISP, 1, 1, 0.025
DISP, 2, 2
DISP, 6, 6
**
*adaptive mesh,elset=ADAPTE,freq=1,mesh=1
*adaptive mesh,elset=ADAPTME,freq=1,mesh=1
*adaptive mesh constraint, 
type=velocity,user
ADAPTN,1, ,2.9e-08
ADAPTMN,1, ,1.9e-08
**
** OUTPUT REQUESTS
**
**
** FIELD OUTPUT: F-Output-1
**
*Output, field, number interval=1
*Node Output
CF, RF, U
*Element Output, directions=YES
LE, EE, E, S, COORD
*Contact Output
CDISP, CDSTRESS, CFORCE, CNAREA, CSTATUS, CSTRESS
**
** FIELD OUTPUT: F-Output-2
**
*Node Output, nset=ADAPTN
U, COORD
*Contact Output, nset=ADAPTN
CDISP, CSTRESS
**
** FIELD OUTPUT: F-Output-3
**
*Node Output, nset=QPOINT
RF,
**
** FIELD OUTPUT: F-Output-3
**
**
*Node Output, nset=ADAPTMN
U, COORD
*Contact Output, nset=ADAPTMN
CDISP, CSTRESS
** HISTORY OUTPUT: H-Output-1
**
*Output, history, variable=PRESELECT
*End Step
**
** WEAR BLOCK 15 (cycles 1400 to 1500)
**
*Step, name=CYCLE_15, nlgeom=YES, inc=1000
*Static
1., 41.0, 0.004, 1.
**
** BOUNDARY CONDITIONS
**
** Name: CYLINDER Type: Displacement/Rotation
*Boundary, amplitude=STROKE
DISP, 1, 1, 0.025
DISP, 2, 2
DISP, 6, 6
**
*adaptive mesh,elset=ADAPTE,freq=1,mesh=1
*adaptive mesh,elset=ADAPTME,freq=1,mesh=1
*adaptive mesh constraint, 
type=velocity,user
ADAPTN,1, ,2.9e-08
ADAPTMN,1, ,1.9e-08
**
** OUTPUT REQUESTS
**
**
** FIELD OUTPUT: F-Output-1
**
*Output, field, number interval=1
*Node Output
CF, RF, U
*Element Output, directions=YES
LE, EE, E, S, COORD
*Contact Output
CDISP, CDSTRESS, CFORCE, CNAREA, CSTATUS, CSTRESS
**
** FIELD OUTPUT: F-Output-2
**
*Node Output, nset=ADAPTN
U, COORD
*Contact Output, nset=ADAPTN
CDISP, CSTRESS
**
** FIELD OUTPUT: F-Output-3
**
*Node Output, nset=QPOINT
RF,
**
** FIELD OUTPUT: F-Output-3
**
**
*Node Output, nset=ADAPTMN
U, COORD
*Contact Output, nset=ADAPTMN
CDISP, CSTRESS
** HISTORY OUTPUT: H-Output-1
**
*Output, history, variable=PRESELECT
*End Step
**
** WEAR BLOCK 16 (cycles 1500 to 1600)
**
*Step, name=CYCLE_16, nlgeom=YES, inc=1000
*Static
1., 41.0, 0.004, 1.
**
** BOUNDARY CONDITIONS
**
** Name: CYLINDER Type: Displacement/Rotation
*Boundary, amplitude=STROKE
DISP, 1, 1, 0.025
DISP, 2, 2
DISP, 6, 6
**
*adaptive mesh,elset=ADAPTE,freq=1,mesh=1
*adaptive mesh,elset=ADAPTME,freq=1,mesh=1
*adaptive mesh constraint, 
type=velocity,user
ADAPTN,1, ,2.9e-08
ADAPTMN,1, ,1.9e-08
**
** OUTPUT REQUESTS
**
**
** FIELD OUTPUT: F-Output-1
**
*Output, field, number interval=1
*Node Output
CF, RF, U
*Element Output, directions=YES
LE, EE, E, S, COORD
*Contact Output
CDISP, CDSTRESS, CFORCE, CNAREA, CSTATUS, CSTRESS
**
** FIELD OUTPUT: F-Output-2
**
*Node Output, nset=ADAPTN
U, COORD
*Contact Output, nset=ADAPTN
CDISP, CSTRESS
**
** FIELD OUTPUT: F-Output-3
**
*Node Output, nset=QPOINT
RF,
**
** FIELD OUTPUT: F-Output-3
**
**
*Node Output, nset=ADAPTMN
U, COORD
*Contact Output, nset=ADAPTMN
CDISP, CSTRESS
** HISTORY OUTPUT: H-Output-1
**
*Output, history, variable=PRESELECT
*End Step
**
** WEAR BLOCK 17 (cycles 1600 to 1700)
**
*Step, name=CYCLE_17, nlgeom=YES, inc=1000
*Static
1., 41.0, 0.004, 1.
**
** BOUNDARY CONDITIONS
**
** Name: CYLINDER Type: Displacement/Rotation
*Boundary, amplitude=STROKE
DISP, 1, 1, 0.025
DISP, 2, 2
DISP, 6, 6
**
*adaptive mesh,elset=ADAPTE,freq=1,mesh=1
*adaptive mesh,elset=ADAPTME,freq=1,mesh=1
*adaptive mesh constraint, 
type=velocity,user
ADAPTN,1, ,2.9e-08
ADAPTMN,1, ,1.9e-08
**
** OUTPUT REQUESTS
**
**
** FIELD OUTPUT: F-Output-1
**
*Output, field, number interval=1
*Node Output
CF, RF, U
*Element Output, directions=YES
LE, EE, E, S, COORD
*Contact Output
CDISP, CDSTRESS, CFORCE, CNAREA, CSTATUS, CSTRESS
**
** FIELD OUTPUT: F-Output-2
**
*Node Output, nset=ADAPTN
U, COORD
*Contact Output, nset=ADAPTN
CDISP, CSTRESS
**
** FIELD OUTPUT: F-Output-3
**
*Node Output, nset=QPOINT
RF,
**
** FIELD OUTPUT: F-Output-3
**
**
*Node Output, nset=ADAPTMN
U, COORD
*Contact Output, nset=ADAPTMN
CDISP, CSTRESS
** HISTORY OUTPUT: H-Output-1
**
*Output, history, variable=PRESELECT
*End Step
**
** WEAR BLOCK 18 (cycles 1700 to 1800)
**
*Step, name=CYCLE_18, nlgeom=YES, inc=1000
*Static
1., 41.0, 0.004, 1.
**
** BOUNDARY CONDITIONS
**
** Name: CYLINDER Type: Displacement/Rotation
*Boundary, amplitude=STROKE
DISP, 1, 1, 0.025
DISP, 2, 2
DISP, 6, 6
**
*adaptive mesh,elset=ADAPTE,freq=1,mesh=1
*adaptive mesh,elset=ADAPTME,freq=1,mesh=1
*adaptive mesh constraint, 
type=velocity,user
ADAPTN,1, ,2.9e-08
ADAPTMN,1, ,1.9e-08
**
** OUTPUT REQUESTS
**
**
** FIELD OUTPUT: F-Output-1
**
*Output, field, number interval=1
*Node Output
CF, RF, U
*Element Output, directions=YES
LE, EE, E, S, COORD
*Contact Output
CDISP, CDSTRESS, CFORCE, CNAREA, CSTATUS, CSTRESS
**
** FIELD OUTPUT: F-Output-2
**
*Node Output, nset=ADAPTN
U, COORD
*Contact Output, nset=ADAPTN
CDISP, CSTRESS
**
** FIELD OUTPUT: F-Output-3
**
*Node Output, nset=QPOINT
RF,
**
** FIELD OUTPUT: F-Output-3
**
**
*Node Output, nset=ADAPTMN
U, COORD
*Contact Output, nset=ADAPTMN
CDISP, CSTRESS
** HISTORY OUTPUT: H-Output-1
**
*Output, history, variable=PRESELECT
*End Step
**
** WEAR BLOCK 19 (cycles 1800 to 1900)
**
*Step, name=CYCLE_19, nlgeom=YES, inc=1000
*Static
1., 41.0, 0.004, 1.
**
** BOUNDARY CONDITIONS
**
** Name: CYLINDER Type: Displacement/Rotation
*Boundary, amplitude=STROKE
DISP, 1, 1, 0.025
DISP, 2, 2
DISP, 6, 6
**
*adaptive mesh,elset=ADAPTE,freq=1,mesh=1
*adaptive mesh,elset=ADAPTME,freq=1,mesh=1
*adaptive mesh constraint, 
type=velocity,user
ADAPTN,1, ,2.9e-08
ADAPTMN,1, ,1.9e-08
**
** OUTPUT REQUESTS
**
**
** FIELD OUTPUT: F-Output-1
**
*Output, field, number interval=1
*Node Output
CF, RF, U
*Element Output, directions=YES
LE, EE, E, S, COORD
*Contact Output
CDISP, CDSTRESS, CFORCE, CNAREA, CSTATUS, CSTRESS
**
** FIELD OUTPUT: F-Output-2
**
*Node Output, nset=ADAPTN
U, COORD
*Contact Output, nset=ADAPTN
CDISP, CSTRESS
**
** FIELD OUTPUT: F-Output-3
**
*Node Output, nset=QPOINT
RF,
**
** FIELD OUTPUT: F-Output-3
**
**
*Node Output, nset=ADAPTMN
U, COORD
*Contact Output, nset=ADAPTMN
CDISP, CSTRESS
** HISTORY OUTPUT: H-Output-1
**
*Output, history, variable=PRESELECT
*End Step
**
** WEAR BLOCK 20 (cycles 1900 to 2000)
**
*Step, name=CYCLE_20, nlgeom=YES, inc=1000
*Static
1., 41.0, 0.004, 1.
**
** BOUNDARY CONDITIONS
**
** Name: CYLINDER Type: Displacement/Rotation
*Boundary, amplitude=STROKE
DISP, 1, 1, 0.025
DISP, 2, 2
DISP, 6, 6
**
*adaptive mesh,elset=ADAPTE,freq=1,mesh=1
*adaptive mesh,elset=ADAPTME,freq=1,mesh=1
*adaptive mesh constraint, 
type=velocity,user
ADAPTN,1, ,2.9e-08
ADAPTMN,1, ,1.9e-08
**
** OUTPUT REQUESTS
**
**
** FIELD OUTPUT: F-Output-1
**
*Output, field, number interval=1
*Node Output
CF, RF, U
*Element Output, directions=YES
LE, EE, E, S, COORD
*Contact Output
CDISP, CDSTRESS, CFORCE, CNAREA, CSTATUS, CSTRESS
**
** FIELD OUTPUT: F-Output-2
**
*Node Output, nset=ADAPTN
U, COORD
*Contact Output, nset=ADAPTN
CDISP, CSTRESS
**
** FIELD OUTPUT: F-Output-3
**
*Node Output, nset=QPOINT
RF,
**
** FIELD OUTPUT: F-Output-3
**
**
*Node Output, nset=ADAPTMN
U, COORD
*Contact Output, nset=ADAPTMN
CDISP, CSTRESS
** HISTORY OUTPUT: H-Output-1
**
*Output, history, variable=PRESELECT
*End Step
**
** WEAR BLOCK 21 (cycles 2000 to 2100)
**
*Step, name=CYCLE_21, nlgeom=YES, inc=1000
*Static
1., 41.0, 0.004, 1.
**
** BOUNDARY CONDITIONS
**
** Name: CYLINDER Type: Displacement/Rotation
*Boundary, amplitude=STROKE
DISP, 1, 1, 0.025
DISP, 2, 2
DISP, 6, 6
**
*adaptive mesh,elset=ADAPTE,freq=1,mesh=1
*adaptive mesh,elset=ADAPTME,freq=1,mesh=1
*adaptive mesh constraint, 
type=velocity,user
ADAPTN,1, ,2.9e-08
ADAPTMN,1, ,1.9e-08
**
** OUTPUT REQUESTS
**
**
** FIELD OUTPUT: F-Output-1
**
*Output, field, number interval=1
*Node Output
CF, RF, U
*Element Output, directions=YES
LE, EE, E, S, COORD
*Contact Output
CDISP, CDSTRESS, CFORCE, CNAREA, CSTATUS, CSTRESS
**
** FIELD OUTPUT: F-Output-2
**
*Node Output, nset=ADAPTN
U, COORD
*Contact Output, nset=ADAPTN
CDISP, CSTRESS
**
** FIELD OUTPUT: F-Output-3
**
*Node Output, nset=QPOINT
RF,
**
** FIELD OUTPUT: F-Output-3
**
**
*Node Output, nset=ADAPTMN
U, COORD
*Contact Output, nset=ADAPTMN
CDISP, CSTRESS
** HISTORY OUTPUT: H-Output-1
**
*Output, history, variable=PRESELECT
*End Step
**
** WEAR BLOCK 22 (cycles 2100 to 2200)
**
*Step, name=CYCLE_22, nlgeom=YES, inc=1000
*Static
1., 41.0, 0.004, 1.
**
** BOUNDARY CONDITIONS
**
** Name: CYLINDER Type: Displacement/Rotation
*Boundary, amplitude=STROKE
DISP, 1, 1, 0.025
DISP, 2, 2
DISP, 6, 6
**
*adaptive mesh,elset=ADAPTE,freq=1,mesh=1
*adaptive mesh,elset=ADAPTME,freq=1,mesh=1
*adaptive mesh constraint, 
type=velocity,user
ADAPTN,1, ,2.9e-08
ADAPTMN,1, ,1.9e-08
**
** OUTPUT REQUESTS
**
**
** FIELD OUTPUT: F-Output-1
**
*Output, field, number interval=1
*Node Output
CF, RF, U
*Element Output, directions=YES
LE, EE, E, S, COORD
*Contact Output
CDISP, CDSTRESS, CFORCE, CNAREA, CSTATUS, CSTRESS
**
** FIELD OUTPUT: F-Output-2
**
*Node Output, nset=ADAPTN
U, COORD
*Contact Output, nset=ADAPTN
CDISP, CSTRESS
**
** FIELD OUTPUT: F-Output-3
**
*Node Output, nset=QPOINT
RF,
**
** FIELD OUTPUT: F-Output-3
**
**
*Node Output, nset=ADAPTMN
U, COORD
*Contact Output, nset=ADAPTMN
CDISP, CSTRESS
** HISTORY OUTPUT: H-Output-1
**
*Output, history, variable=PRESELECT
*End Step
**
** WEAR BLOCK 23 (cycles 2200 to 2300)
**
*Step, name=CYCLE_23, nlgeom=YES, inc=1000
*Static
1., 41.0, 0.004, 1.
**
** BOUNDARY CONDITIONS
**
** Name: CYLINDER Type: Displacement/Rotation
*Boundary, amplitude=STROKE
DISP, 1, 1, 0.025
DISP, 2, 2
DISP, 6, 6
**
*adaptive mesh,elset=ADAPTE,freq=1,mesh=1
*adaptive mesh,elset=ADAPTME,freq=1,mesh=1
*adaptive mesh constraint, 
type=velocity,user
ADAPTN,1, ,2.9e-08
ADAPTMN,1, ,1.9e-08
**
** OUTPUT REQUESTS
**
**
** FIELD OUTPUT: F-Output-1
**
*Output, field, number interval=1
*Node Output
CF, RF, U
*Element Output, directions=YES
LE, EE, E, S, COORD
*Contact Output
CDISP, CDSTRESS, CFORCE, CNAREA, CSTATUS, CSTRESS
**
** FIELD OUTPUT: F-Output-2
**
*Node Output, nset=ADAPTN
U, COORD
*Contact Output, nset=ADAPTN
CDISP, CSTRESS
**
** FIELD OUTPUT: F-Output-3
**
*Node Output, nset=QPOINT
RF,
**
** FIELD OUTPUT: F-Output-3
**
**
*Node Output, nset=ADAPTMN
U, COORD
*Contact Output, nset=ADAPTMN
CDISP, CSTRESS
** HISTORY OUTPUT: H-Output-1
**
*Output, history, variable=PRESELECT
*End Step
**
** WEAR BLOCK 24 (cycles 2300 to 2400)
**
*Step, name=CYCLE_24, nlgeom=YES, inc=1000
*Static
1., 41.0, 0.004, 1.
**
** BOUNDARY CONDITIONS
**
** Name: CYLINDER Type: Displacement/Rotation
*Boundary, amplitude=STROKE
DISP, 1, 1, 0.025
DISP, 2, 2
DISP, 6, 6
**
*adaptive mesh,elset=ADAPTE,freq=1,mesh=1
*adaptive mesh,elset=ADAPTME,freq=1,mesh=1
*adaptive mesh constraint, 
type=velocity,user
ADAPTN,1, ,2.9e-08
ADAPTMN,1, ,1.9e-08
**
** OUTPUT REQUESTS
**
**
** FIELD OUTPUT: F-Output-1
**
*Output, field, number interval=1
*Node Output
CF, RF, U
*Element Output, directions=YES
LE, EE, E, S, COORD
*Contact Output
CDISP, CDSTRESS, CFORCE, CNAREA, CSTATUS, CSTRESS
**
** FIELD OUTPUT: F-Output-2
**
*Node Output, nset=ADAPTN
U, COORD
*Contact Output, nset=ADAPTN
CDISP, CSTRESS
**
** FIELD OUTPUT: F-Output-3
**
*Node Output, nset=QPOINT
RF,
**
** FIELD OUTPUT: F-Output-3
**
**
*Node Output, nset=ADAPTMN
U, COORD
*Contact Output, nset=ADAPTMN
CDISP, CSTRESS
** HISTORY OUTPUT: H-Output-1
**
*Output, history, variable=PRESELECT
*End Step
**
** WEAR BLOCK 25 (cycles 2400 to 2500)
**
*Step, name=CYCLE_25, nlgeom=YES, inc=1000
*Static
1., 41.0, 0.004, 1.
**
** BOUNDARY CONDITIONS
**
** Name: CYLINDER Type: Displacement/Rotation
*Boundary, amplitude=STROKE
DISP, 1, 1, 0.025
DISP, 2, 2
DISP, 6, 6
**
*adaptive mesh,elset=ADAPTE,freq=1,mesh=1
*adaptive mesh,elset=ADAPTME,freq=1,mesh=1
*adaptive mesh constraint, 
type=velocity,user
ADAPTN,1, ,2.9e-08
ADAPTMN,1, ,1.9e-08
**
** OUTPUT REQUESTS
**
**
** FIELD OUTPUT: F-Output-1
**
*Output, field, number interval=1
*Node Output
CF, RF, U
*Element Output, directions=YES
LE, EE, E, S, COORD
*Contact Output
CDISP, CDSTRESS, CFORCE, CNAREA, CSTATUS, CSTRESS
**
** FIELD OUTPUT: F-Output-2
**
*Node Output, nset=ADAPTN
U, COORD
*Contact Output, nset=ADAPTN
CDISP, CSTRESS
**
** FIELD OUTPUT: F-Output-3
**
*Node Output, nset=QPOINT
RF,
**
** FIELD OUTPUT: F-Output-3
**
**
*Node Output, nset=ADAPTMN
U, COORD
*Contact Output, nset=ADAPTMN
CDISP, CSTRESS
** HISTORY OUTPUT: H-Output-1
**
*Output, history, variable=PRESELECT
*End Step
**
** WEAR BLOCK 26 (cycles 2500 to 2600)
**
*Step, name=CYCLE_26, nlgeom=YES, inc=1000
*Static
1., 41.0, 0.004, 1.
**
** BOUNDARY CONDITIONS
**
** Name: CYLINDER Type: Displacement/Rotation
*Boundary, amplitude=STROKE
DISP, 1, 1, 0.025
DISP, 2, 2
DISP, 6, 6
**
*adaptive mesh,elset=ADAPTE,freq=1,mesh=1
*adaptive mesh,elset=ADAPTME,freq=1,mesh=1
*adaptive mesh constraint, 
type=velocity,user
ADAPTN,1, ,2.9e-08
ADAPTMN,1, ,1.9e-08
**
** OUTPUT REQUESTS
**
**
** FIELD OUTPUT: F-Output-1
**
*Output, field, number interval=1
*Node Output
CF, RF, U
*Element Output, directions=YES
LE, EE, E, S, COORD
*Contact Output
CDISP, CDSTRESS, CFORCE, CNAREA, CSTATUS, CSTRESS
**
** FIELD OUTPUT: F-Output-2
**
*Node Output, nset=ADAPTN
U, COORD
*Contact Output, nset=ADAPTN
CDISP, CSTRESS
**
** FIELD OUTPUT: F-Output-3
**
*Node Output, nset=QPOINT
RF,
**
** FIELD OUTPUT: F-Output-3
**
**
*Node Output, nset=ADAPTMN
U, COORD
*Contact Output, nset=ADAPTMN
CDISP, CSTRESS
** HISTORY OUTPUT: H-Output-1
**
*Output, history, variable=PRESELECT
*End Step
**
** WEAR BLOCK 27 (cycles 2600 to 2700)
**
*Step, name=CYCLE_27, nlgeom=YES, inc=1000
*Static
1., 41.0, 0.004, 1.
**
** BOUNDARY CONDITIONS
**
** Name: CYLINDER Type: Displacement/Rotation
*Boundary, amplitude=STROKE
DISP, 1, 1, 0.025
DISP, 2, 2
DISP, 6, 6
**
*adaptive mesh,elset=ADAPTE,freq=1,mesh=1
*adaptive mesh,elset=ADAPTME,freq=1,mesh=1
*adaptive mesh constraint, 
type=velocity,user
ADAPTN,1, ,2.9e-08
ADAPTMN,1, ,1.9e-08
**
** OUTPUT REQUESTS
**
**
** FIELD OUTPUT: F-Output-1
**
*Output, field, number interval=1
*Node Output
CF, RF, U
*Element Output, directions=YES
LE, EE, E, S, COORD
*Contact Output
CDISP, CDSTRESS, CFORCE, CNAREA, CSTATUS, CSTRESS
**
** FIELD OUTPUT: F-Output-2
**
*Node Output, nset=ADAPTN
U, COORD
*Contact Output, nset=ADAPTN
CDISP, CSTRESS
**
** FIELD OUTPUT: F-Output-3
**
*Node Output, nset=QPOINT
RF,
**
** FIELD OUTPUT: F-Output-3
**
**
*Node Output, nset=ADAPTMN
U, COORD
*Contact Output, nset=ADAPTMN
CDISP, CSTRESS
** HISTORY OUTPUT: H-Output-1
**
*Output, history, variable=PRESELECT
*End Step
**
** WEAR BLOCK 28 (cycles 2700 to 2800)
**
*Step, name=CYCLE_28, nlgeom=YES, inc=1000
*Static
1., 41.0, 0.004, 1.
**
** BOUNDARY CONDITIONS
**
** Name: CYLINDER Type: Displacement/Rotation
*Boundary, amplitude=STROKE
DISP, 1, 1, 0.025
DISP, 2, 2
DISP, 6, 6
**
*adaptive mesh,elset=ADAPTE,freq=1,mesh=1
*adaptive mesh,elset=ADAPTME,freq=1,mesh=1
*adaptive mesh constraint, 
type=velocity,user
ADAPTN,1, ,2.9e-08
ADAPTMN,1, ,1.9e-08
**
** OUTPUT REQUESTS
**
**
** FIELD OUTPUT: F-Output-1
**
*Output, field, number interval=1
*Node Output
CF, RF, U
*Element Output, directions=YES
LE, EE, E, S, COORD
*Contact Output
CDISP, CDSTRESS, CFORCE, CNAREA, CSTATUS, CSTRESS
**
** FIELD OUTPUT: F-Output-2
**
*Node Output, nset=ADAPTN
U, COORD
*Contact Output, nset=ADAPTN
CDISP, CSTRESS
**
** FIELD OUTPUT: F-Output-3
**
*Node Output, nset=QPOINT
RF,
**
** FIELD OUTPUT: F-Output-3
**
**
*Node Output, nset=ADAPTMN
U, COORD
*Contact Output, nset=ADAPTMN
CDISP, CSTRESS
** HISTORY OUTPUT: H-Output-1
**
*Output, history, variable=PRESELECT
*End Step
**
** WEAR BLOCK 29 (cycles 2800 to 2900)
**
*Step, name=CYCLE_29, nlgeom=YES, inc=1000
*Static
1., 41.0, 0.004, 1.
**
** BOUNDARY CONDITIONS
**
** Name: CYLINDER Type: Displacement/Rotation
*Boundary, amplitude=STROKE
DISP, 1, 1, 0.025
DISP, 2, 2
DISP, 6, 6
**
*adaptive mesh,elset=ADAPTE,freq=1,mesh=1
*adaptive mesh,elset=ADAPTME,freq=1,mesh=1
*adaptive mesh constraint, 
type=velocity,user
ADAPTN,1, ,2.9e-08
ADAPTMN,1, ,1.9e-08
**
** OUTPUT REQUESTS
**
**
** FIELD OUTPUT: F-Output-1
**
*Output, field, number interval=1
*Node Output
CF, RF, U
*Element Output, directions=YES
LE, EE, E, S, COORD
*Contact Output
CDISP, CDSTRESS, CFORCE, CNAREA, CSTATUS, CSTRESS
**
** FIELD OUTPUT: F-Output-2
**
*Node Output, nset=ADAPTN
U, COORD
*Contact Output, nset=ADAPTN
CDISP, CSTRESS
**
** FIELD OUTPUT: F-Output-3
**
*Node Output, nset=QPOINT
RF,
**
** FIELD OUTPUT: F-Output-3
**
**
*Node Output, nset=ADAPTMN
U, COORD
*Contact Output, nset=ADAPTMN
CDISP, CSTRESS
** HISTORY OUTPUT: H-Output-1
**
*Output, history, variable=PRESELECT
*End Step
**
** WEAR BLOCK 30 (cycles 2900 to 3000)
**
*Step, name=CYCLE_30, nlgeom=YES, inc=1000
*Static
1., 41.0, 0.004, 1.
**
** BOUNDARY CONDITIONS
**
** Name: CYLINDER Type: Displacement/Rotation
*Boundary, amplitude=STROKE
DISP, 1, 1, 0.025
DISP, 2, 2
DISP, 6, 6
**
*adaptive mesh,elset=ADAPTE,freq=1,mesh=1
*adaptive mesh,elset=ADAPTME,freq=1,mesh=1
*adaptive mesh constraint, 
type=velocity,user
ADAPTN,1, ,2.9e-08
ADAPTMN,1, ,1.9e-08
**
** OUTPUT REQUESTS
**
**
** FIELD OUTPUT: F-Output-1
**
*Output, field, number interval=1
*Node Output
CF, RF, U
*Element Output, directions=YES
LE, EE, E, S, COORD
*Contact Output
CDISP, CDSTRESS, CFORCE, CNAREA, CSTATUS, CSTRESS
**
** FIELD OUTPUT: F-Output-2
**
*Node Output, nset=ADAPTN
U, COORD
*Contact Output, nset=ADAPTN
CDISP, CSTRESS
**
** FIELD OUTPUT: F-Output-3
**
*Node Output, nset=QPOINT
RF,
**
** FIELD OUTPUT: F-Output-3
**
**
*Node Output, nset=ADAPTMN
U, COORD
*Contact Output, nset=ADAPTMN
CDISP, CSTRESS
** HISTORY OUTPUT: H-Output-1
**
*Output, history, variable=PRESELECT
*End Step
**
** WEAR BLOCK 31 (cycles 3000 to 3100)
**
*Step, name=CYCLE_31, nlgeom=YES, inc=1000
*Static
1., 41.0, 0.004, 1.
**
** BOUNDARY CONDITIONS
**
** Name: CYLINDER Type: Displacement/Rotation
*Boundary, amplitude=STROKE
DISP, 1, 1, 0.025
DISP, 2, 2
DISP, 6, 6
**
*adaptive mesh,elset=ADAPTE,freq=1,mesh=1
*adaptive mesh,elset=ADAPTME,freq=1,mesh=1
*adaptive mesh constraint, 
type=velocity,user
ADAPTN,1, ,2.9e-08
ADAPTMN,1, ,1.9e-08
**
** OUTPUT REQUESTS
**
**
** FIELD OUTPUT: F-Output-1
**
*Output, field, number interval=1
*Node Output
CF, RF, U
*Element Output, directions=YES
LE, EE, E, S, COORD
*Contact Output
CDISP, CDSTRESS, CFORCE, CNAREA, CSTATUS, CSTRESS
**
** FIELD OUTPUT: F-Output-2
**
*Node Output, nset=ADAPTN
U, COORD
*Contact Output, nset=ADAPTN
CDISP, CSTRESS
**
** FIELD OUTPUT: F-Output-3
**
*Node Output, nset=QPOINT
RF,
**
** FIELD OUTPUT: F-Output-3
**
**
*Node Output, nset=ADAPTMN
U, COORD
*Contact Output, nset=ADAPTMN
CDISP, CSTRESS
** HISTORY OUTPUT: H-Output-1
**
*Output, history, variable=PRESELECT
*End Step
**
** WEAR BLOCK 32 (cycles 3100 to 3200)
**
*Step, name=CYCLE_32, nlgeom=YES, inc=1000
*Static
1., 41.0, 0.004, 1.
**
** BOUNDARY CONDITIONS
**
** Name: CYLINDER Type: Displacement/Rotation
*Boundary, amplitude=STROKE
DISP, 1, 1, 0.025
DISP, 2, 2
DISP, 6, 6
**
*adaptive mesh,elset=ADAPTE,freq=1,mesh=1
*adaptive mesh,elset=ADAPTME,freq=1,mesh=1
*adaptive mesh constraint, 
type=velocity,user
ADAPTN,1, ,2.9e-08
ADAPTMN,1, ,1.9e-08
**
** OUTPUT REQUESTS
**
**
** FIELD OUTPUT: F-Output-1
**
*Output, field, number interval=1
*Node Output
CF, RF, U
*Element Output, directions=YES
LE, EE, E, S, COORD
*Contact Output
CDISP, CDSTRESS, CFORCE, CNAREA, CSTATUS, CSTRESS
**
** FIELD OUTPUT: F-Output-2
**
*Node Output, nset=ADAPTN
U, COORD
*Contact Output, nset=ADAPTN
CDISP, CSTRESS
**
** FIELD OUTPUT: F-Output-3
**
*Node Output, nset=QPOINT
RF,
**
** FIELD OUTPUT: F-Output-3
**
**
*Node Output, nset=ADAPTMN
U, COORD
*Contact Output, nset=ADAPTMN
CDISP, CSTRESS
** HISTORY OUTPUT: H-Output-1
**
*Output, history, variable=PRESELECT
*End Step
**
** WEAR BLOCK 33 (cycles 3200 to 3300)
**
*Step, name=CYCLE_33, nlgeom=YES, inc=1000
*Static
1., 41.0, 0.004, 1.
**
** BOUNDARY CONDITIONS
**
** Name: CYLINDER Type: Displacement/Rotation
*Boundary, amplitude=STROKE
DISP, 1, 1, 0.025
DISP, 2, 2
DISP, 6, 6
**
*adaptive mesh,elset=ADAPTE,freq=1,mesh=1
*adaptive mesh,elset=ADAPTME,freq=1,mesh=1
*adaptive mesh constraint, 
type=velocity,user
ADAPTN,1, ,2.9e-08
ADAPTMN,1, ,1.9e-08
**
** OUTPUT REQUESTS
**
**
** FIELD OUTPUT: F-Output-1
**
*Output, field, number interval=1
*Node Output
CF, RF, U
*Element Output, directions=YES
LE, EE, E, S, COORD
*Contact Output
CDISP, CDSTRESS, CFORCE, CNAREA, CSTATUS, CSTRESS
**
** FIELD OUTPUT: F-Output-2
**
*Node Output, nset=ADAPTN
U, COORD
*Contact Output, nset=ADAPTN
CDISP, CSTRESS
**
** FIELD OUTPUT: F-Output-3
**
*Node Output, nset=QPOINT
RF,
**
** FIELD OUTPUT: F-Output-3
**
**
*Node Output, nset=ADAPTMN
U, COORD
*Contact Output, nset=ADAPTMN
CDISP, CSTRESS
** HISTORY OUTPUT: H-Output-1
**
*Output, history, variable=PRESELECT
*End Step
**
** WEAR BLOCK 34 (cycles 3300 to 3400)
**
*Step, name=CYCLE_34, nlgeom=YES, inc=1000
*Static
1., 41.0, 0.004, 1.
**
** BOUNDARY CONDITIONS
**
** Name: CYLINDER Type: Displacement/Rotation
*Boundary, amplitude=STROKE
DISP, 1, 1, 0.025
DISP, 2, 2
DISP, 6, 6
**
*adaptive mesh,elset=ADAPTE,freq=1,mesh=1
*adaptive mesh,elset=ADAPTME,freq=1,mesh=1
*adaptive mesh constraint, 
type=velocity,user
ADAPTN,1, ,2.9e-08
ADAPTMN,1, ,1.9e-08
**
** OUTPUT REQUESTS
**
**
** FIELD OUTPUT: F-Output-1
**
*Output, field, number interval=1
*Node Output
CF, RF, U
*Element Output, directions=YES
LE, EE, E, S, COORD
*Contact Output
CDISP, CDSTRESS, CFORCE, CNAREA, CSTATUS, CSTRESS
**
** FIELD OUTPUT: F-Output-2
**
*Node Output, nset=ADAPTN
U, COORD
*Contact Output, nset=ADAPTN
CDISP, CSTRESS
**
** FIELD OUTPUT: F-Output-3
**
*Node Output, nset=QPOINT
RF,
**
** FIELD OUTPUT: F-Output-3
**
**
*Node Output, nset=ADAPTMN
U, COORD
*Contact Output, nset=ADAPTMN
CDISP, CSTRESS
** HISTORY OUTPUT: H-Output-1
**
*Output, history, variable=PRESELECT
*End Step
**
** WEAR BLOCK 35 (cycles 3400 to 3500)
**
*Step, name=CYCLE_35, nlgeom=YES, inc=1000
*Static
1., 41.0, 0.004, 1.
**
** BOUNDARY CONDITIONS
**
** Name: CYLINDER Type: Displacement/Rotation
*Boundary, amplitude=STROKE
DISP, 1, 1, 0.025
DISP, 2, 2
DISP, 6, 6
**
*adaptive mesh,elset=ADAPTE,freq=1,mesh=1
*adaptive mesh,elset=ADAPTME,freq=1,mesh=1
*adaptive mesh constraint, 
type=velocity,user
ADAPTN,1, ,2.9e-08
ADAPTMN,1, ,1.9e-08
**
** OUTPUT REQUESTS
**
**
** FIELD OUTPUT: F-Output-1
**
*Output, field, number interval=1
*Node Output
CF, RF, U
*Element Output, directions=YES
LE, EE, E, S, COORD
*Contact Output
CDISP, CDSTRESS, CFORCE, CNAREA, CSTATUS, CSTRESS
**
** FIELD OUTPUT: F-Output-2
**
*Node Output, nset=ADAPTN
U, COORD
*Contact Output, nset=ADAPTN
CDISP, CSTRESS
**
** FIELD OUTPUT: F-Output-3
**
*Node Output, nset=QPOINT
RF,
**
** FIELD OUTPUT: F-Output-3
**
**
*Node Output, nset=ADAPTMN
U, COORD
*Contact Output, nset=ADAPTMN
CDISP, CSTRESS
** HISTORY OUTPUT: H-Output-1
**
*Output, history, variable=PRESELECT
*End Step
**
** WEAR BLOCK 36 (cycles 3500 to 3600)
**
*Step, name=CYCLE_36, nlgeom=YES, inc=1000
*Static
1., 41.0, 0.004, 1.
**
** BOUNDARY CONDITIONS
**
** Name: CYLINDER Type: Displacement/Rotation
*Boundary, amplitude=STROKE
DISP, 1, 1, 0.025
DISP, 2, 2
DISP, 6, 6
**
*adaptive mesh,elset=ADAPTE,freq=1,mesh=1
*adaptive mesh,elset=ADAPTME,freq=1,mesh=1
*adaptive mesh constraint, 
type=velocity,user
ADAPTN,1, ,2.9e-08
ADAPTMN,1, ,1.9e-08
**
** OUTPUT REQUESTS
**
**
** FIELD OUTPUT: F-Output-1
**
*Output, field, number interval=1
*Node Output
CF, RF, U
*Element Output, directions=YES
LE, EE, E, S, COORD
*Contact Output
CDISP, CDSTRESS, CFORCE, CNAREA, CSTATUS, CSTRESS
**
** FIELD OUTPUT: F-Output-2
**
*Node Output, nset=ADAPTN
U, COORD
*Contact Output, nset=ADAPTN
CDISP, CSTRESS
**
** FIELD OUTPUT: F-Output-3
**
*Node Output, nset=QPOINT
RF,
**
** FIELD OUTPUT: F-Output-3
**
**
*Node Output, nset=ADAPTMN
U, COORD
*Contact Output, nset=ADAPTMN
CDISP, CSTRESS
** HISTORY OUTPUT: H-Output-1
**
*Output, history, variable=PRESELECT
*End Step
**
** WEAR BLOCK 37 (cycles 3600 to 3700)
**
*Step, name=CYCLE_37, nlgeom=YES, inc=1000
*Static
1., 41.0, 0.004, 1.
**
** BOUNDARY CONDITIONS
**
** Name: CYLINDER Type: Displacement/Rotation
*Boundary, amplitude=STROKE
DISP, 1, 1, 0.025
DISP, 2, 2
DISP, 6, 6
**
*adaptive mesh,elset=ADAPTE,freq=1,mesh=1
*adaptive mesh,elset=ADAPTME,freq=1,mesh=1
*adaptive mesh constraint, 
type=velocity,user
ADAPTN,1, ,2.9e-08
ADAPTMN,1, ,1.9e-08
**
** OUTPUT REQUESTS
**
**
** FIELD OUTPUT: F-Output-1
**
*Output, field, number interval=1
*Node Output
CF, RF, U
*Element Output, directions=YES
LE, EE, E, S, COORD
*Contact Output
CDISP, CDSTRESS, CFORCE, CNAREA, CSTATUS, CSTRESS
**
** FIELD OUTPUT: F-Output-2
**
*Node Output, nset=ADAPTN
U, COORD
*Contact Output, nset=ADAPTN
CDISP, CSTRESS
**
** FIELD OUTPUT: F-Output-3
**
*Node Output, nset=QPOINT
RF,
**
** FIELD OUTPUT: F-Output-3
**
**
*Node Output, nset=ADAPTMN
U, COORD
*Contact Output, nset=ADAPTMN
CDISP, CSTRESS
** HISTORY OUTPUT: H-Output-1
**
*Output, history, variable=PRESELECT
*End Step
**
** WEAR BLOCK 38 (cycles 3700 to 3800)
**
*Step, name=CYCLE_38, nlgeom=YES, inc=1000
*Static
1., 41.0, 0.004, 1.
**
** BOUNDARY CONDITIONS
**
** Name: CYLINDER Type: Displacement/Rotation
*Boundary, amplitude=STROKE
DISP, 1, 1, 0.025
DISP, 2, 2
DISP, 6, 6
**
*adaptive mesh,elset=ADAPTE,freq=1,mesh=1
*adaptive mesh,elset=ADAPTME,freq=1,mesh=1
*adaptive mesh constraint, 
type=velocity,user
ADAPTN,1, ,2.9e-08
ADAPTMN,1, ,1.9e-08
**
** OUTPUT REQUESTS
**
**
** FIELD OUTPUT: F-Output-1
**
*Output, field, number interval=1
*Node Output
CF, RF, U
*Element Output, directions=YES
LE, EE, E, S, COORD
*Contact Output
CDISP, CDSTRESS, CFORCE, CNAREA, CSTATUS, CSTRESS
**
** FIELD OUTPUT: F-Output-2
**
*Node Output, nset=ADAPTN
U, COORD
*Contact Output, nset=ADAPTN
CDISP, CSTRESS
**
** FIELD OUTPUT: F-Output-3
**
*Node Output, nset=QPOINT
RF,
**
** FIELD OUTPUT: F-Output-3
**
**
*Node Output, nset=ADAPTMN
U, COORD
*Contact Output, nset=ADAPTMN
CDISP, CSTRESS
** HISTORY OUTPUT: H-Output-1
**
*Output, history, variable=PRESELECT
*End Step
**
** WEAR BLOCK 39 (cycles 3800 to 3900)
**
*Step, name=CYCLE_39, nlgeom=YES, inc=1000
*Static
1., 41.0, 0.004, 1.
**
** BOUNDARY CONDITIONS
**
** Name: CYLINDER Type: Displacement/Rotation
*Boundary, amplitude=STROKE
DISP, 1, 1, 0.025
DISP, 2, 2
DISP, 6, 6
**
*adaptive mesh,elset=ADAPTE,freq=1,mesh=1
*adaptive mesh,elset=ADAPTME,freq=1,mesh=1
*adaptive mesh constraint, 
type=velocity,user
ADAPTN,1, ,2.9e-08
ADAPTMN,1, ,1.9e-08
**
** OUTPUT REQUESTS
**
**
** FIELD OUTPUT: F-Output-1
**
*Output, field, number interval=1
*Node Output
CF, RF, U
*Element Output, directions=YES
LE, EE, E, S, COORD
*Contact Output
CDISP, CDSTRESS, CFORCE, CNAREA, CSTATUS, CSTRESS
**
** FIELD OUTPUT: F-Output-2
**
*Node Output, nset=ADAPTN
U, COORD
*Contact Output, nset=ADAPTN
CDISP, CSTRESS
**
** FIELD OUTPUT: F-Output-3
**
*Node Output, nset=QPOINT
RF,
**
** FIELD OUTPUT: F-Output-3
**
**
*Node Output, nset=ADAPTMN
U, COORD
*Contact Output, nset=ADAPTMN
CDISP, CSTRESS
** HISTORY OUTPUT: H-Output-1
**
*Output, history, variable=PRESELECT
*End Step
**
** WEAR BLOCK 40 (cycles 3900 to 4000)
**
*Step, name=CYCLE_40, nlgeom=YES, inc=1000
*Static
1., 41.0, 0.004, 1.
**
** BOUNDARY CONDITIONS
**
** Name: CYLINDER Type: Displacement/Rotation
*Boundary, amplitude=STROKE
DISP, 1, 1, 0.025
DISP, 2, 2
DISP, 6, 6
**
*adaptive mesh,elset=ADAPTE,freq=1,mesh=1
*adaptive mesh,elset=ADAPTME,freq=1,mesh=1
*adaptive mesh constraint, 
type=velocity,user
ADAPTN,1, ,2.9e-08
ADAPTMN,1, ,1.9e-08
**
** OUTPUT REQUESTS
**
**
** FIELD OUTPUT: F-Output-1
**
*Output, field, number interval=1
*Node Output
CF, RF, U
*Element Output, directions=YES
LE, EE, E, S, COORD
*Contact Output
CDISP, CDSTRESS, CFORCE, CNAREA, CSTATUS, CSTRESS
**
** FIELD OUTPUT: F-Output-2
**
*Node Output, nset=ADAPTN
U, COORD
*Contact Output, nset=ADAPTN
CDISP, CSTRESS
**
** FIELD OUTPUT: F-Output-3
**
*Node Output, nset=QPOINT
RF,
**
** FIELD OUTPUT: F-Output-3
**
**
*Node Output, nset=ADAPTMN
U, COORD
*Contact Output, nset=ADAPTMN
CDISP, CSTRESS
** HISTORY OUTPUT: H-Output-1
**
*Output, history, variable=PRESELECT
*End Step
**
** WEAR BLOCK 41 (cycles 4000 to 4100)
**
*Step, name=CYCLE_41, nlgeom=YES, inc=1000
*Static
1., 41.0, 0.004, 1.
**
** BOUNDARY CONDITIONS
**
** Name: CYLINDER Type: Displacement/Rotation
*Boundary, amplitude=STROKE
DISP, 1, 1, 0.025
DISP, 2, 2
DISP, 6, 6
**
*adaptive mesh,elset=ADAPTE,freq=1,mesh=1
*adaptive mesh,elset=ADAPTME,freq=1,mesh=1
*adaptive mesh constraint, 
type=velocity,user
ADAPTN,1, ,2.9e-08
ADAPTMN,1, ,1.9e-08
**
** OUTPUT REQUESTS
**
**
** FIELD OUTPUT: F-Output-1
**
*Output, field, number interval=1
*Node Output
CF, RF, U
*Element Output, directions=YES
LE, EE, E, S, COORD
*Contact Output
CDISP, CDSTRESS, CFORCE, CNAREA, CSTATUS, CSTRESS
**
** FIELD OUTPUT: F-Output-2
**
*Node Output, nset=ADAPTN
U, COORD
*Contact Output, nset=ADAPTN
CDISP, CSTRESS
**
** FIELD OUTPUT: F-Output-3
**
*Node Output, nset=QPOINT
RF,
**
** FIELD OUTPUT: F-Output-3
**
**
*Node Output, nset=ADAPTMN
U, COORD
*Contact Output, nset=ADAPTMN
CDISP, CSTRESS
** HISTORY OUTPUT: H-Output-1
**
*Output, history, variable=PRESELECT
*End Step
**
** WEAR BLOCK 42 (cycles 4100 to 4200)
**
*Step, name=CYCLE_42, nlgeom=YES, inc=1000
*Static
1., 41.0, 0.004, 1.
**
** BOUNDARY CONDITIONS
**
** Name: CYLINDER Type: Displacement/Rotation
*Boundary, amplitude=STROKE
DISP, 1, 1, 0.025
DISP, 2, 2
DISP, 6, 6
**
*adaptive mesh,elset=ADAPTE,freq=1,mesh=1
*adaptive mesh,elset=ADAPTME,freq=1,mesh=1
*adaptive mesh constraint, 
type=velocity,user
ADAPTN,1, ,2.9e-08
ADAPTMN,1, ,1.9e-08
**
** OUTPUT REQUESTS
**
**
** FIELD OUTPUT: F-Output-1
**
*Output, field, number interval=1
*Node Output
CF, RF, U
*Element Output, directions=YES
LE, EE, E, S, COORD
*Contact Output
CDISP, CDSTRESS, CFORCE, CNAREA, CSTATUS, CSTRESS
**
** FIELD OUTPUT: F-Output-2
**
*Node Output, nset=ADAPTN
U, COORD
*Contact Output, nset=ADAPTN
CDISP, CSTRESS
**
** FIELD OUTPUT: F-Output-3
**
*Node Output, nset=QPOINT
RF,
**
** FIELD OUTPUT: F-Output-3
**
**
*Node Output, nset=ADAPTMN
U, COORD
*Contact Output, nset=ADAPTMN
CDISP, CSTRESS
** HISTORY OUTPUT: H-Output-1
**
*Output, history, variable=PRESELECT
*End Step
**
** WEAR BLOCK 43 (cycles 4200 to 4300)
**
*Step, name=CYCLE_43, nlgeom=YES, inc=1000
*Static
1., 41.0, 0.004, 1.
**
** BOUNDARY CONDITIONS
**
** Name: CYLINDER Type: Displacement/Rotation
*Boundary, amplitude=STROKE
DISP, 1, 1, 0.025
DISP, 2, 2
DISP, 6, 6
**
*adaptive mesh,elset=ADAPTE,freq=1,mesh=1
*adaptive mesh,elset=ADAPTME,freq=1,mesh=1
*adaptive mesh constraint, 
type=velocity,user
ADAPTN,1, ,2.9e-08
ADAPTMN,1, ,1.9e-08
**
** OUTPUT REQUESTS
**
**
** FIELD OUTPUT: F-Output-1
**
*Output, field, number interval=1
*Node Output
CF, RF, U
*Element Output, directions=YES
LE, EE, E, S, COORD
*Contact Output
CDISP, CDSTRESS, CFORCE, CNAREA, CSTATUS, CSTRESS
**
** FIELD OUTPUT: F-Output-2
**
*Node Output, nset=ADAPTN
U, COORD
*Contact Output, nset=ADAPTN
CDISP, CSTRESS
**
** FIELD OUTPUT: F-Output-3
**
*Node Output, nset=QPOINT
RF,
**
** FIELD OUTPUT: F-Output-3
**
**
*Node Output, nset=ADAPTMN
U, COORD
*Contact Output, nset=ADAPTMN
CDISP, CSTRESS
** HISTORY OUTPUT: H-Output-1
**
*Output, history, variable=PRESELECT
*End Step
**
** WEAR BLOCK 44 (cycles 4300 to 4400)
**
*Step, name=CYCLE_44, nlgeom=YES, inc=1000
*Static
1., 41.0, 0.004, 1.
**
** BOUNDARY CONDITIONS
**
** Name: CYLINDER Type: Displacement/Rotation
*Boundary, amplitude=STROKE
DISP, 1, 1, 0.025
DISP, 2, 2
DISP, 6, 6
**
*adaptive mesh,elset=ADAPTE,freq=1,mesh=1
*adaptive mesh,elset=ADAPTME,freq=1,mesh=1
*adaptive mesh constraint, 
type=velocity,user
ADAPTN,1, ,2.9e-08
ADAPTMN,1, ,1.9e-08
**
** OUTPUT REQUESTS
**
**
** FIELD OUTPUT: F-Output-1
**
*Output, field, number interval=1
*Node Output
CF, RF, U
*Element Output, directions=YES
LE, EE, E, S, COORD
*Contact Output
CDISP, CDSTRESS, CFORCE, CNAREA, CSTATUS, CSTRESS
**
** FIELD OUTPUT: F-Output-2
**
*Node Output, nset=ADAPTN
U, COORD
*Contact Output, nset=ADAPTN
CDISP, CSTRESS
**
** FIELD OUTPUT: F-Output-3
**
*Node Output, nset=QPOINT
RF,
**
** FIELD OUTPUT: F-Output-3
**
**
*Node Output, nset=ADAPTMN
U, COORD
*Contact Output, nset=ADAPTMN
CDISP, CSTRESS
** HISTORY OUTPUT: H-Output-1
**
*Output, history, variable=PRESELECT
*End Step
**
** WEAR BLOCK 45 (cycles 4400 to 4500)
**
*Step, name=CYCLE_45, nlgeom=YES, inc=1000
*Static
1., 41.0, 0.004, 1.
**
** BOUNDARY CONDITIONS
**
** Name: CYLINDER Type: Displacement/Rotation
*Boundary, amplitude=STROKE
DISP, 1, 1, 0.025
DISP, 2, 2
DISP, 6, 6
**
*adaptive mesh,elset=ADAPTE,freq=1,mesh=1
*adaptive mesh,elset=ADAPTME,freq=1,mesh=1
*adaptive mesh constraint, 
type=velocity,user
ADAPTN,1, ,2.9e-08
ADAPTMN,1, ,1.9e-08
**
** OUTPUT REQUESTS
**
**
** FIELD OUTPUT: F-Output-1
**
*Output, field, number interval=1
*Node Output
CF, RF, U
*Element Output, directions=YES
LE, EE, E, S, COORD
*Contact Output
CDISP, CDSTRESS, CFORCE, CNAREA, CSTATUS, CSTRESS
**
** FIELD OUTPUT: F-Output-2
**
*Node Output, nset=ADAPTN
U, COORD
*Contact Output, nset=ADAPTN
CDISP, CSTRESS
**
** FIELD OUTPUT: F-Output-3
**
*Node Output, nset=QPOINT
RF,
**
** FIELD OUTPUT: F-Output-3
**
**
*Node Output, nset=ADAPTMN
U, COORD
*Contact Output, nset=ADAPTMN
CDISP, CSTRESS
** HISTORY OUTPUT: H-Output-1
**
*Output, history, variable=PRESELECT
*End Step
**
** WEAR BLOCK 46 (cycles 4500 to 4600)
**
*Step, name=CYCLE_46, nlgeom=YES, inc=1000
*Static
1., 41.0, 0.004, 1.
**
** BOUNDARY CONDITIONS
**
** Name: CYLINDER Type: Displacement/Rotation
*Boundary, amplitude=STROKE
DISP, 1, 1, 0.025
DISP, 2, 2
DISP, 6, 6
**
*adaptive mesh,elset=ADAPTE,freq=1,mesh=1
*adaptive mesh,elset=ADAPTME,freq=1,mesh=1
*adaptive mesh constraint, 
type=velocity,user
ADAPTN,1, ,2.9e-08
ADAPTMN,1, ,1.9e-08
**
** OUTPUT REQUESTS
**
**
** FIELD OUTPUT: F-Output-1
**
*Output, field, number interval=1
*Node Output
CF, RF, U
*Element Output, directions=YES
LE, EE, E, S, COORD
*Contact Output
CDISP, CDSTRESS, CFORCE, CNAREA, CSTATUS, CSTRESS
**
** FIELD OUTPUT: F-Output-2
**
*Node Output, nset=ADAPTN
U, COORD
*Contact Output, nset=ADAPTN
CDISP, CSTRESS
**
** FIELD OUTPUT: F-Output-3
**
*Node Output, nset=QPOINT
RF,
**
** FIELD OUTPUT: F-Output-3
**
**
*Node Output, nset=ADAPTMN
U, COORD
*Contact Output, nset=ADAPTMN
CDISP, CSTRESS
** HISTORY OUTPUT: H-Output-1
**
*Output, history, variable=PRESELECT
*End Step
**
** WEAR BLOCK 47 (cycles 4600 to 4700)
**
*Step, name=CYCLE_47, nlgeom=YES, inc=1000
*Static
1., 41.0, 0.004, 1.
**
** BOUNDARY CONDITIONS
**
** Name: CYLINDER Type: Displacement/Rotation
*Boundary, amplitude=STROKE
DISP, 1, 1, 0.025
DISP, 2, 2
DISP, 6, 6
**
*adaptive mesh,elset=ADAPTE,freq=1,mesh=1
*adaptive mesh,elset=ADAPTME,freq=1,mesh=1
*adaptive mesh constraint, 
type=velocity,user
ADAPTN,1, ,2.9e-08
ADAPTMN,1, ,1.9e-08
**
** OUTPUT REQUESTS
**
**
** FIELD OUTPUT: F-Output-1
**
*Output, field, number interval=1
*Node Output
CF, RF, U
*Element Output, directions=YES
LE, EE, E, S, COORD
*Contact Output
CDISP, CDSTRESS, CFORCE, CNAREA, CSTATUS, CSTRESS
**
** FIELD OUTPUT: F-Output-2
**
*Node Output, nset=ADAPTN
U, COORD
*Contact Output, nset=ADAPTN
CDISP, CSTRESS
**
** FIELD OUTPUT: F-Output-3
**
*Node Output, nset=QPOINT
RF,
**
** FIELD OUTPUT: F-Output-3
**
**
*Node Output, nset=ADAPTMN
U, COORD
*Contact Output, nset=ADAPTMN
CDISP, CSTRESS
** HISTORY OUTPUT: H-Output-1
**
*Output, history, variable=PRESELECT
*End Step
**
** WEAR BLOCK 48 (cycles 4700 to 4800)
**
*Step, name=CYCLE_48, nlgeom=YES, inc=1000
*Static
1., 41.0, 0.004, 1.
**
** BOUNDARY CONDITIONS
**
** Name: CYLINDER Type: Displacement/Rotation
*Boundary, amplitude=STROKE
DISP, 1, 1, 0.025
DISP, 2, 2
DISP, 6, 6
**
*adaptive mesh,elset=ADAPTE,freq=1,mesh=1
*adaptive mesh,elset=ADAPTME,freq=1,mesh=1
*adaptive mesh constraint, 
type=velocity,user
ADAPTN,1, ,2.9e-08
ADAPTMN,1, ,1.9e-08
**
** OUTPUT REQUESTS
**
**
** FIELD OUTPUT: F-Output-1
**
*Output, field, number interval=1
*Node Output
CF, RF, U
*Element Output, directions=YES
LE, EE, E, S, COORD
*Contact Output
CDISP, CDSTRESS, CFORCE, CNAREA, CSTATUS, CSTRESS
**
** FIELD OUTPUT: F-Output-2
**
*Node Output, nset=ADAPTN
U, COORD
*Contact Output, nset=ADAPTN
CDISP, CSTRESS
**
** FIELD OUTPUT: F-Output-3
**
*Node Output, nset=QPOINT
RF,
**
** FIELD OUTPUT: F-Output-3
**
**
*Node Output, nset=ADAPTMN
U, COORD
*Contact Output, nset=ADAPTMN
CDISP, CSTRESS
** HISTORY OUTPUT: H-Output-1
**
*Output, history, variable=PRESELECT
*End Step
**
** WEAR BLOCK 49 (cycles 4800 to 4900)
**
*Step, name=CYCLE_49, nlgeom=YES, inc=1000
*Static
1., 41.0, 0.004, 1.
**
** BOUNDARY CONDITIONS
**
** Name: CYLINDER Type: Displacement/Rotation
*Boundary, amplitude=STROKE
DISP, 1, 1, 0.025
DISP, 2, 2
DISP, 6, 6
**
*adaptive mesh,elset=ADAPTE,freq=1,mesh=1
*adaptive mesh,elset=ADAPTME,freq=1,mesh=1
*adaptive mesh constraint, 
type=velocity,user
ADAPTN,1, ,2.9e-08
ADAPTMN,1, ,1.9e-08
**
** OUTPUT REQUESTS
**
**
** FIELD OUTPUT: F-Output-1
**
*Output, field, number interval=1
*Node Output
CF, RF, U
*Element Output, directions=YES
LE, EE, E, S, COORD
*Contact Output
CDISP, CDSTRESS, CFORCE, CNAREA, CSTATUS, CSTRESS
**
** FIELD OUTPUT: F-Output-2
**
*Node Output, nset=ADAPTN
U, COORD
*Contact Output, nset=ADAPTN
CDISP, CSTRESS
**
** FIELD OUTPUT: F-Output-3
**
*Node Output, nset=QPOINT
RF,
**
** FIELD OUTPUT: F-Output-3
**
**
*Node Output, nset=ADAPTMN
U, COORD
*Contact Output, nset=ADAPTMN
CDISP, CSTRESS
** HISTORY OUTPUT: H-Output-1
**
*Output, history, variable=PRESELECT
*End Step
**
** WEAR BLOCK 50 (cycles 4900 to 5000)
**
*Step, name=CYCLE_50, nlgeom=YES, inc=1000
*Static
1., 41.0, 0.004, 1.
**
** BOUNDARY CONDITIONS
**
** Name: CYLINDER Type: Displacement/Rotation
*Boundary, amplitude=STROKE
DISP, 1, 1, 0.025
DISP, 2, 2
DISP, 6, 6
**
*adaptive mesh,elset=ADAPTE,freq=1,mesh=1
*adaptive mesh,elset=ADAPTME,freq=1,mesh=1
*adaptive mesh constraint, 
type=velocity,user
ADAPTN,1, ,2.9e-08
ADAPTMN,1, ,1.9e-08
**
** OUTPUT REQUESTS
**
**
** FIELD OUTPUT: F-Output-1
**
*Output, field, number interval=1
*Node Output
CF, RF, U
*Element Output, directions=YES
LE, EE, E, S, COORD
*Contact Output
CDISP, CDSTRESS, CFORCE, CNAREA, CSTATUS, CSTRESS
**
** FIELD OUTPUT: F-Output-2
**
*Node Output, nset=ADAPTN
U, COORD
*Contact Output, nset=ADAPTN
CDISP, CSTRESS
**
** FIELD OUTPUT: F-Output-3
**
*Node Output, nset=QPOINT
RF,
**
** FIELD OUTPUT: F-Output-3
**
**
*Node Output, nset=ADAPTMN
U, COORD
*Contact Output, nset=ADAPTMN
CDISP, CSTRESS
** HISTORY OUTPUT: H-Output-1
**
*Output, history, variable=PRESELECT
*End Step
**
** WEAR BLOCK 51 (cycles 5000 to 5100)
**
*Step, name=CYCLE_51, nlgeom=YES, inc=1000
*Static
1., 41.0, 0.004, 1.
**
** BOUNDARY CONDITIONS
**
** Name: CYLINDER Type: Displacement/Rotation
*Boundary, amplitude=STROKE
DISP, 1, 1, 0.025
DISP, 2, 2
DISP, 6, 6
**
*adaptive mesh,elset=ADAPTE,freq=1,mesh=1
*adaptive mesh,elset=ADAPTME,freq=1,mesh=1
*adaptive mesh constraint, 
type=velocity,user
ADAPTN,1, ,2.9e-08
ADAPTMN,1, ,1.9e-08
**
** OUTPUT REQUESTS
**
**
** FIELD OUTPUT: F-Output-1
**
*Output, field, number interval=1
*Node Output
CF, RF, U
*Element Output, directions=YES
LE, EE, E, S, COORD
*Contact Output
CDISP, CDSTRESS, CFORCE, CNAREA, CSTATUS, CSTRESS
**
** FIELD OUTPUT: F-Output-2
**
*Node Output, nset=ADAPTN
U, COORD
*Contact Output, nset=ADAPTN
CDISP, CSTRESS
**
** FIELD OUTPUT: F-Output-3
**
*Node Output, nset=QPOINT
RF,
**
** FIELD OUTPUT: F-Output-3
**
**
*Node Output, nset=ADAPTMN
U, COORD
*Contact Output, nset=ADAPTMN
CDISP, CSTRESS
** HISTORY OUTPUT: H-Output-1
**
*Output, history, variable=PRESELECT
*End Step
**
** WEAR BLOCK 52 (cycles 5100 to 5200)
**
*Step, name=CYCLE_52, nlgeom=YES, inc=1000
*Static
1., 41.0, 0.004, 1.
**
** BOUNDARY CONDITIONS
**
** Name: CYLINDER Type: Displacement/Rotation
*Boundary, amplitude=STROKE
DISP, 1, 1, 0.025
DISP, 2, 2
DISP, 6, 6
**
*adaptive mesh,elset=ADAPTE,freq=1,mesh=1
*adaptive mesh,elset=ADAPTME,freq=1,mesh=1
*adaptive mesh constraint, 
type=velocity,user
ADAPTN,1, ,2.9e-08
ADAPTMN,1, ,1.9e-08
**
** OUTPUT REQUESTS
**
**
** FIELD OUTPUT: F-Output-1
**
*Output, field, number interval=1
*Node Output
CF, RF, U
*Element Output, directions=YES
LE, EE, E, S, COORD
*Contact Output
CDISP, CDSTRESS, CFORCE, CNAREA, CSTATUS, CSTRESS
**
** FIELD OUTPUT: F-Output-2
**
*Node Output, nset=ADAPTN
U, COORD
*Contact Output, nset=ADAPTN
CDISP, CSTRESS
**
** FIELD OUTPUT: F-Output-3
**
*Node Output, nset=QPOINT
RF,
**
** FIELD OUTPUT: F-Output-3
**
**
*Node Output, nset=ADAPTMN
U, COORD
*Contact Output, nset=ADAPTMN
CDISP, CSTRESS
** HISTORY OUTPUT: H-Output-1
**
*Output, history, variable=PRESELECT
*End Step
**
** WEAR BLOCK 53 (cycles 5200 to 5300)
**
*Step, name=CYCLE_53, nlgeom=YES, inc=1000
*Static
1., 41.0, 0.004, 1.
**
** BOUNDARY CONDITIONS
**
** Name: CYLINDER Type: Displacement/Rotation
*Boundary, amplitude=STROKE
DISP, 1, 1, 0.025
DISP, 2, 2
DISP, 6, 6
**
*adaptive mesh,elset=ADAPTE,freq=1,mesh=1
*adaptive mesh,elset=ADAPTME,freq=1,mesh=1
*adaptive mesh constraint, 
type=velocity,user
ADAPTN,1, ,2.9e-08
ADAPTMN,1, ,1.9e-08
**
** OUTPUT REQUESTS
**
**
** FIELD OUTPUT: F-Output-1
**
*Output, field, number interval=1
*Node Output
CF, RF, U
*Element Output, directions=YES
LE, EE, E, S, COORD
*Contact Output
CDISP, CDSTRESS, CFORCE, CNAREA, CSTATUS, CSTRESS
**
** FIELD OUTPUT: F-Output-2
**
*Node Output, nset=ADAPTN
U, COORD
*Contact Output, nset=ADAPTN
CDISP, CSTRESS
**
** FIELD OUTPUT: F-Output-3
**
*Node Output, nset=QPOINT
RF,
**
** FIELD OUTPUT: F-Output-3
**
**
*Node Output, nset=ADAPTMN
U, COORD
*Contact Output, nset=ADAPTMN
CDISP, CSTRESS
** HISTORY OUTPUT: H-Output-1
**
*Output, history, variable=PRESELECT
*End Step
**
** WEAR BLOCK 54 (cycles 5300 to 5400)
**
*Step, name=CYCLE_54, nlgeom=YES, inc=1000
*Static
1., 41.0, 0.004, 1.
**
** BOUNDARY CONDITIONS
**
** Name: CYLINDER Type: Displacement/Rotation
*Boundary, amplitude=STROKE
DISP, 1, 1, 0.025
DISP, 2, 2
DISP, 6, 6
**
*adaptive mesh,elset=ADAPTE,freq=1,mesh=1
*adaptive mesh,elset=ADAPTME,freq=1,mesh=1
*adaptive mesh constraint, 
type=velocity,user
ADAPTN,1, ,2.9e-08
ADAPTMN,1, ,1.9e-08
**
** OUTPUT REQUESTS
**
**
** FIELD OUTPUT: F-Output-1
**
*Output, field, number interval=1
*Node Output
CF, RF, U
*Element Output, directions=YES
LE, EE, E, S, COORD
*Contact Output
CDISP, CDSTRESS, CFORCE, CNAREA, CSTATUS, CSTRESS
**
** FIELD OUTPUT: F-Output-2
**
*Node Output, nset=ADAPTN
U, COORD
*Contact Output, nset=ADAPTN
CDISP, CSTRESS
**
** FIELD OUTPUT: F-Output-3
**
*Node Output, nset=QPOINT
RF,
**
** FIELD OUTPUT: F-Output-3
**
**
*Node Output, nset=ADAPTMN
U, COORD
*Contact Output, nset=ADAPTMN
CDISP, CSTRESS
** HISTORY OUTPUT: H-Output-1
**
*Output, history, variable=PRESELECT
*End Step
**
** WEAR BLOCK 55 (cycles 5400 to 5500)
**
*Step, name=CYCLE_55, nlgeom=YES, inc=1000
*Static
1., 41.0, 0.004, 1.
**
** BOUNDARY CONDITIONS
**
** Name: CYLINDER Type: Displacement/Rotation
*Boundary, amplitude=STROKE
DISP, 1, 1, 0.025
DISP, 2, 2
DISP, 6, 6
**
*adaptive mesh,elset=ADAPTE,freq=1,mesh=1
*adaptive mesh,elset=ADAPTME,freq=1,mesh=1
*adaptive mesh constraint, 
type=velocity,user
ADAPTN,1, ,2.9e-08
ADAPTMN,1, ,1.9e-08
**
** OUTPUT REQUESTS
**
**
** FIELD OUTPUT: F-Output-1
**
*Output, field, number interval=1
*Node Output
CF, RF, U
*Element Output, directions=YES
LE, EE, E, S, COORD
*Contact Output
CDISP, CDSTRESS, CFORCE, CNAREA, CSTATUS, CSTRESS
**
** FIELD OUTPUT: F-Output-2
**
*Node Output, nset=ADAPTN
U, COORD
*Contact Output, nset=ADAPTN
CDISP, CSTRESS
**
** FIELD OUTPUT: F-Output-3
**
*Node Output, nset=QPOINT
RF,
**
** FIELD OUTPUT: F-Output-3
**
**
*Node Output, nset=ADAPTMN
U, COORD
*Contact Output, nset=ADAPTMN
CDISP, CSTRESS
** HISTORY OUTPUT: H-Output-1
**
*Output, history, variable=PRESELECT
*End Step
**
** WEAR BLOCK 56 (cycles 5500 to 5600)
**
*Step, name=CYCLE_56, nlgeom=YES, inc=1000
*Static
1., 41.0, 0.004, 1.
**
** BOUNDARY CONDITIONS
**
** Name: CYLINDER Type: Displacement/Rotation
*Boundary, amplitude=STROKE
DISP, 1, 1, 0.025
DISP, 2, 2
DISP, 6, 6
**
*adaptive mesh,elset=ADAPTE,freq=1,mesh=1
*adaptive mesh,elset=ADAPTME,freq=1,mesh=1
*adaptive mesh constraint, 
type=velocity,user
ADAPTN,1, ,2.9e-08
ADAPTMN,1, ,1.9e-08
**
** OUTPUT REQUESTS
**
**
** FIELD OUTPUT: F-Output-1
**
*Output, field, number interval=1
*Node Output
CF, RF, U
*Element Output, directions=YES
LE, EE, E, S, COORD
*Contact Output
CDISP, CDSTRESS, CFORCE, CNAREA, CSTATUS, CSTRESS
**
** FIELD OUTPUT: F-Output-2
**
*Node Output, nset=ADAPTN
U, COORD
*Contact Output, nset=ADAPTN
CDISP, CSTRESS
**
** FIELD OUTPUT: F-Output-3
**
*Node Output, nset=QPOINT
RF,
**
** FIELD OUTPUT: F-Output-3
**
**
*Node Output, nset=ADAPTMN
U, COORD
*Contact Output, nset=ADAPTMN
CDISP, CSTRESS
** HISTORY OUTPUT: H-Output-1
**
*Output, history, variable=PRESELECT
*End Step
**
** WEAR BLOCK 57 (cycles 5600 to 5700)
**
*Step, name=CYCLE_57, nlgeom=YES, inc=1000
*Static
1., 41.0, 0.004, 1.
**
** BOUNDARY CONDITIONS
**
** Name: CYLINDER Type: Displacement/Rotation
*Boundary, amplitude=STROKE
DISP, 1, 1, 0.025
DISP, 2, 2
DISP, 6, 6
**
*adaptive mesh,elset=ADAPTE,freq=1,mesh=1
*adaptive mesh,elset=ADAPTME,freq=1,mesh=1
*adaptive mesh constraint, 
type=velocity,user
ADAPTN,1, ,2.9e-08
ADAPTMN,1, ,1.9e-08
**
** OUTPUT REQUESTS
**
**
** FIELD OUTPUT: F-Output-1
**
*Output, field, number interval=1
*Node Output
CF, RF, U
*Element Output, directions=YES
LE, EE, E, S, COORD
*Contact Output
CDISP, CDSTRESS, CFORCE, CNAREA, CSTATUS, CSTRESS
**
** FIELD OUTPUT: F-Output-2
**
*Node Output, nset=ADAPTN
U, COORD
*Contact Output, nset=ADAPTN
CDISP, CSTRESS
**
** FIELD OUTPUT: F-Output-3
**
*Node Output, nset=QPOINT
RF,
**
** FIELD OUTPUT: F-Output-3
**
**
*Node Output, nset=ADAPTMN
U, COORD
*Contact Output, nset=ADAPTMN
CDISP, CSTRESS
** HISTORY OUTPUT: H-Output-1
**
*Output, history, variable=PRESELECT
*End Step
**
** WEAR BLOCK 58 (cycles 5700 to 5800)
**
*Step, name=CYCLE_58, nlgeom=YES, inc=1000
*Static
1., 41.0, 0.004, 1.
**
** BOUNDARY CONDITIONS
**
** Name: CYLINDER Type: Displacement/Rotation
*Boundary, amplitude=STROKE
DISP, 1, 1, 0.025
DISP, 2, 2
DISP, 6, 6
**
*adaptive mesh,elset=ADAPTE,freq=1,mesh=1
*adaptive mesh,elset=ADAPTME,freq=1,mesh=1
*adaptive mesh constraint, 
type=velocity,user
ADAPTN,1, ,2.9e-08
ADAPTMN,1, ,1.9e-08
**
** OUTPUT REQUESTS
**
**
** FIELD OUTPUT: F-Output-1
**
*Output, field, number interval=1
*Node Output
CF, RF, U
*Element Output, directions=YES
LE, EE, E, S, COORD
*Contact Output
CDISP, CDSTRESS, CFORCE, CNAREA, CSTATUS, CSTRESS
**
** FIELD OUTPUT: F-Output-2
**
*Node Output, nset=ADAPTN
U, COORD
*Contact Output, nset=ADAPTN
CDISP, CSTRESS
**
** FIELD OUTPUT: F-Output-3
**
*Node Output, nset=QPOINT
RF,
**
** FIELD OUTPUT: F-Output-3
**
**
*Node Output, nset=ADAPTMN
U, COORD
*Contact Output, nset=ADAPTMN
CDISP, CSTRESS
** HISTORY OUTPUT: H-Output-1
**
*Output, history, variable=PRESELECT
*End Step
**
** WEAR BLOCK 59 (cycles 5800 to 5900)
**
*Step, name=CYCLE_59, nlgeom=YES, inc=1000
*Static
1., 41.0, 0.004, 1.
**
** BOUNDARY CONDITIONS
**
** Name: CYLINDER Type: Displacement/Rotation
*Boundary, amplitude=STROKE
DISP, 1, 1, 0.025
DISP, 2, 2
DISP, 6, 6
**
*adaptive mesh,elset=ADAPTE,freq=1,mesh=1
*adaptive mesh,elset=ADAPTME,freq=1,mesh=1
*adaptive mesh constraint, 
type=velocity,user
ADAPTN,1, ,2.9e-08
ADAPTMN,1, ,1.9e-08
**
** OUTPUT REQUESTS
**
**
** FIELD OUTPUT: F-Output-1
**
*Output, field, number interval=1
*Node Output
CF, RF, U
*Element Output, directions=YES
LE, EE, E, S, COORD
*Contact Output
CDISP, CDSTRESS, CFORCE, CNAREA, CSTATUS, CSTRESS
**
** FIELD OUTPUT: F-Output-2
**
*Node Output, nset=ADAPTN
U, COORD
*Contact Output, nset=ADAPTN
CDISP, CSTRESS
**
** FIELD OUTPUT: F-Output-3
**
*Node Output, nset=QPOINT
RF,
**
** FIELD OUTPUT: F-Output-3
**
**
*Node Output, nset=ADAPTMN
U, COORD
*Contact Output, nset=ADAPTMN
CDISP, CSTRESS
** HISTORY OUTPUT: H-Output-1
**
*Output, history, variable=PRESELECT
*End Step
**
** WEAR BLOCK 60 (cycles 5900 to 6000)
**
*Step, name=CYCLE_60, nlgeom=YES, inc=1000
*Static
1., 41.0, 0.004, 1.
**
** BOUNDARY CONDITIONS
**
** Name: CYLINDER Type: Displacement/Rotation
*Boundary, amplitude=STROKE
DISP, 1, 1, 0.025
DISP, 2, 2
DISP, 6, 6
**
*adaptive mesh,elset=ADAPTE,freq=1,mesh=1
*adaptive mesh,elset=ADAPTME,freq=1,mesh=1
*adaptive mesh constraint, 
type=velocity,user
ADAPTN,1, ,2.9e-08
ADAPTMN,1, ,1.9e-08
**
** OUTPUT REQUESTS
**
**
** FIELD OUTPUT: F-Output-1
**
*Output, field, number interval=1
*Node Output
CF, RF, U
*Element Output, directions=YES
LE, EE, E, S, COORD
*Contact Output
CDISP, CDSTRESS, CFORCE, CNAREA, CSTATUS, CSTRESS
**
** FIELD OUTPUT: F-Output-2
**
*Node Output, nset=ADAPTN
U, COORD
*Contact Output, nset=ADAPTN
CDISP, CSTRESS
**
** FIELD OUTPUT: F-Output-3
**
*Node Output, nset=QPOINT
RF,
**
** FIELD OUTPUT: F-Output-3
**
**
*Node Output, nset=ADAPTMN
U, COORD
*Contact Output, nset=ADAPTMN
CDISP, CSTRESS
** HISTORY OUTPUT: H-Output-1
**
*Output, history, variable=PRESELECT
*End Step
**
** WEAR BLOCK 61 (cycles 6000 to 6100)
**
*Step, name=CYCLE_61, nlgeom=YES, inc=1000
*Static
1., 41.0, 0.004, 1.
**
** BOUNDARY CONDITIONS
**
** Name: CYLINDER Type: Displacement/Rotation
*Boundary, amplitude=STROKE
DISP, 1, 1, 0.025
DISP, 2, 2
DISP, 6, 6
**
*adaptive mesh,elset=ADAPTE,freq=1,mesh=1
*adaptive mesh,elset=ADAPTME,freq=1,mesh=1
*adaptive mesh constraint, 
type=velocity,user
ADAPTN,1, ,2.9e-08
ADAPTMN,1, ,1.9e-08
**
** OUTPUT REQUESTS
**
**
** FIELD OUTPUT: F-Output-1
**
*Output, field, number interval=1
*Node Output
CF, RF, U
*Element Output, directions=YES
LE, EE, E, S, COORD
*Contact Output
CDISP, CDSTRESS, CFORCE, CNAREA, CSTATUS, CSTRESS
**
** FIELD OUTPUT: F-Output-2
**
*Node Output, nset=ADAPTN
U, COORD
*Contact Output, nset=ADAPTN
CDISP, CSTRESS
**
** FIELD OUTPUT: F-Output-3
**
*Node Output, nset=QPOINT
RF,
**
** FIELD OUTPUT: F-Output-3
**
**
*Node Output, nset=ADAPTMN
U, COORD
*Contact Output, nset=ADAPTMN
CDISP, CSTRESS
** HISTORY OUTPUT: H-Output-1
**
*Output, history, variable=PRESELECT
*End Step
**
** WEAR BLOCK 62 (cycles 6100 to 6200)
**
*Step, name=CYCLE_62, nlgeom=YES, inc=1000
*Static
1., 41.0, 0.004, 1.
**
** BOUNDARY CONDITIONS
**
** Name: CYLINDER Type: Displacement/Rotation
*Boundary, amplitude=STROKE
DISP, 1, 1, 0.025
DISP, 2, 2
DISP, 6, 6
**
*adaptive mesh,elset=ADAPTE,freq=1,mesh=1
*adaptive mesh,elset=ADAPTME,freq=1,mesh=1
*adaptive mesh constraint, 
type=velocity,user
ADAPTN,1, ,2.9e-08
ADAPTMN,1, ,1.9e-08
**
** OUTPUT REQUESTS
**
**
** FIELD OUTPUT: F-Output-1
**
*Output, field, number interval=1
*Node Output
CF, RF, U
*Element Output, directions=YES
LE, EE, E, S, COORD
*Contact Output
CDISP, CDSTRESS, CFORCE, CNAREA, CSTATUS, CSTRESS
**
** FIELD OUTPUT: F-Output-2
**
*Node Output, nset=ADAPTN
U, COORD
*Contact Output, nset=ADAPTN
CDISP, CSTRESS
**
** FIELD OUTPUT: F-Output-3
**
*Node Output, nset=QPOINT
RF,
**
** FIELD OUTPUT: F-Output-3
**
**
*Node Output, nset=ADAPTMN
U, COORD
*Contact Output, nset=ADAPTMN
CDISP, CSTRESS
** HISTORY OUTPUT: H-Output-1
**
*Output, history, variable=PRESELECT
*End Step
**
** WEAR BLOCK 63 (cycles 6200 to 6300)
**
*Step, name=CYCLE_63, nlgeom=YES, inc=1000
*Static
1., 41.0, 0.004, 1.
**
** BOUNDARY CONDITIONS
**
** Name: CYLINDER Type: Displacement/Rotation
*Boundary, amplitude=STROKE
DISP, 1, 1, 0.025
DISP, 2, 2
DISP, 6, 6
**
*adaptive mesh,elset=ADAPTE,freq=1,mesh=1
*adaptive mesh,elset=ADAPTME,freq=1,mesh=1
*adaptive mesh constraint, 
type=velocity,user
ADAPTN,1, ,2.9e-08
ADAPTMN,1, ,1.9e-08
**
** OUTPUT REQUESTS
**
**
** FIELD OUTPUT: F-Output-1
**
*Output, field, number interval=1
*Node Output
CF, RF, U
*Element Output, directions=YES
LE, EE, E, S, COORD
*Contact Output
CDISP, CDSTRESS, CFORCE, CNAREA, CSTATUS, CSTRESS
**
** FIELD OUTPUT: F-Output-2
**
*Node Output, nset=ADAPTN
U, COORD
*Contact Output, nset=ADAPTN
CDISP, CSTRESS
**
** FIELD OUTPUT: F-Output-3
**
*Node Output, nset=QPOINT
RF,
**
** FIELD OUTPUT: F-Output-3
**
**
*Node Output, nset=ADAPTMN
U, COORD
*Contact Output, nset=ADAPTMN
CDISP, CSTRESS
** HISTORY OUTPUT: H-Output-1
**
*Output, history, variable=PRESELECT
*End Step
**
** WEAR BLOCK 64 (cycles 6300 to 6400)
**
*Step, name=CYCLE_64, nlgeom=YES, inc=1000
*Static
1., 41.0, 0.004, 1.
**
** BOUNDARY CONDITIONS
**
** Name: CYLINDER Type: Displacement/Rotation
*Boundary, amplitude=STROKE
DISP, 1, 1, 0.025
DISP, 2, 2
DISP, 6, 6
**
*adaptive mesh,elset=ADAPTE,freq=1,mesh=1
*adaptive mesh,elset=ADAPTME,freq=1,mesh=1
*adaptive mesh constraint, 
type=velocity,user
ADAPTN,1, ,2.9e-08
ADAPTMN,1, ,1.9e-08
**
** OUTPUT REQUESTS
**
**
** FIELD OUTPUT: F-Output-1
**
*Output, field, number interval=1
*Node Output
CF, RF, U
*Element Output, directions=YES
LE, EE, E, S, COORD
*Contact Output
CDISP, CDSTRESS, CFORCE, CNAREA, CSTATUS, CSTRESS
**
** FIELD OUTPUT: F-Output-2
**
*Node Output, nset=ADAPTN
U, COORD
*Contact Output, nset=ADAPTN
CDISP, CSTRESS
**
** FIELD OUTPUT: F-Output-3
**
*Node Output, nset=QPOINT
RF,
**
** FIELD OUTPUT: F-Output-3
**
**
*Node Output, nset=ADAPTMN
U, COORD
*Contact Output, nset=ADAPTMN
CDISP, CSTRESS
** HISTORY OUTPUT: H-Output-1
**
*Output, history, variable=PRESELECT
*End Step
**
** WEAR BLOCK 65 (cycles 6400 to 6500)
**
*Step, name=CYCLE_65, nlgeom=YES, inc=1000
*Static
1., 41.0, 0.004, 1.
**
** BOUNDARY CONDITIONS
**
** Name: CYLINDER Type: Displacement/Rotation
*Boundary, amplitude=STROKE
DISP, 1, 1, 0.025
DISP, 2, 2
DISP, 6, 6
**
*adaptive mesh,elset=ADAPTE,freq=1,mesh=1
*adaptive mesh,elset=ADAPTME,freq=1,mesh=1
*adaptive mesh constraint, 
type=velocity,user
ADAPTN,1, ,2.9e-08
ADAPTMN,1, ,1.9e-08
**
** OUTPUT REQUESTS
**
**
** FIELD OUTPUT: F-Output-1
**
*Output, field, number interval=1
*Node Output
CF, RF, U
*Element Output, directions=YES
LE, EE, E, S, COORD
*Contact Output
CDISP, CDSTRESS, CFORCE, CNAREA, CSTATUS, CSTRESS
**
** FIELD OUTPUT: F-Output-2
**
*Node Output, nset=ADAPTN
U, COORD
*Contact Output, nset=ADAPTN
CDISP, CSTRESS
**
** FIELD OUTPUT: F-Output-3
**
*Node Output, nset=QPOINT
RF,
**
** FIELD OUTPUT: F-Output-3
**
**
*Node Output, nset=ADAPTMN
U, COORD
*Contact Output, nset=ADAPTMN
CDISP, CSTRESS
** HISTORY OUTPUT: H-Output-1
**
*Output, history, variable=PRESELECT
*End Step
**
** WEAR BLOCK 66 (cycles 6500 to 6600)
**
*Step, name=CYCLE_66, nlgeom=YES, inc=1000
*Static
1., 41.0, 0.004, 1.
**
** BOUNDARY CONDITIONS
**
** Name: CYLINDER Type: Displacement/Rotation
*Boundary, amplitude=STROKE
DISP, 1, 1, 0.025
DISP, 2, 2
DISP, 6, 6
**
*adaptive mesh,elset=ADAPTE,freq=1,mesh=1
*adaptive mesh,elset=ADAPTME,freq=1,mesh=1
*adaptive mesh constraint, 
type=velocity,user
ADAPTN,1, ,2.9e-08
ADAPTMN,1, ,1.9e-08
**
** OUTPUT REQUESTS
**
**
** FIELD OUTPUT: F-Output-1
**
*Output, field, number interval=1
*Node Output
CF, RF, U
*Element Output, directions=YES
LE, EE, E, S, COORD
*Contact Output
CDISP, CDSTRESS, CFORCE, CNAREA, CSTATUS, CSTRESS
**
** FIELD OUTPUT: F-Output-2
**
*Node Output, nset=ADAPTN
U, COORD
*Contact Output, nset=ADAPTN
CDISP, CSTRESS
**
** FIELD OUTPUT: F-Output-3
**
*Node Output, nset=QPOINT
RF,
**
** FIELD OUTPUT: F-Output-3
**
**
*Node Output, nset=ADAPTMN
U, COORD
*Contact Output, nset=ADAPTMN
CDISP, CSTRESS
** HISTORY OUTPUT: H-Output-1
**
*Output, history, variable=PRESELECT
*End Step
**
** WEAR BLOCK 67 (cycles 6600 to 6700)
**
*Step, name=CYCLE_67, nlgeom=YES, inc=1000
*Static
1., 41.0, 0.004, 1.
**
** BOUNDARY CONDITIONS
**
** Name: CYLINDER Type: Displacement/Rotation
*Boundary, amplitude=STROKE
DISP, 1, 1, 0.025
DISP, 2, 2
DISP, 6, 6
**
*adaptive mesh,elset=ADAPTE,freq=1,mesh=1
*adaptive mesh,elset=ADAPTME,freq=1,mesh=1
*adaptive mesh constraint, 
type=velocity,user
ADAPTN,1, ,2.9e-08
ADAPTMN,1, ,1.9e-08
**
** OUTPUT REQUESTS
**
**
** FIELD OUTPUT: F-Output-1
**
*Output, field, number interval=1
*Node Output
CF, RF, U
*Element Output, directions=YES
LE, EE, E, S, COORD
*Contact Output
CDISP, CDSTRESS, CFORCE, CNAREA, CSTATUS, CSTRESS
**
** FIELD OUTPUT: F-Output-2
**
*Node Output, nset=ADAPTN
U, COORD
*Contact Output, nset=ADAPTN
CDISP, CSTRESS
**
** FIELD OUTPUT: F-Output-3
**
*Node Output, nset=QPOINT
RF,
**
** FIELD OUTPUT: F-Output-3
**
**
*Node Output, nset=ADAPTMN
U, COORD
*Contact Output, nset=ADAPTMN
CDISP, CSTRESS
** HISTORY OUTPUT: H-Output-1
**
*Output, history, variable=PRESELECT
*End Step
**
** WEAR BLOCK 68 (cycles 6700 to 6800)
**
*Step, name=CYCLE_68, nlgeom=YES, inc=1000
*Static
1., 41.0, 0.004, 1.
**
** BOUNDARY CONDITIONS
**
** Name: CYLINDER Type: Displacement/Rotation
*Boundary, amplitude=STROKE
DISP, 1, 1, 0.025
DISP, 2, 2
DISP, 6, 6
**
*adaptive mesh,elset=ADAPTE,freq=1,mesh=1
*adaptive mesh,elset=ADAPTME,freq=1,mesh=1
*adaptive mesh constraint, 
type=velocity,user
ADAPTN,1, ,2.9e-08
ADAPTMN,1, ,1.9e-08
**
** OUTPUT REQUESTS
**
**
** FIELD OUTPUT: F-Output-1
**
*Output, field, number interval=1
*Node Output
CF, RF, U
*Element Output, directions=YES
LE, EE, E, S, COORD
*Contact Output
CDISP, CDSTRESS, CFORCE, CNAREA, CSTATUS, CSTRESS
**
** FIELD OUTPUT: F-Output-2
**
*Node Output, nset=ADAPTN
U, COORD
*Contact Output, nset=ADAPTN
CDISP, CSTRESS
**
** FIELD OUTPUT: F-Output-3
**
*Node Output, nset=QPOINT
RF,
**
** FIELD OUTPUT: F-Output-3
**
**
*Node Output, nset=ADAPTMN
U, COORD
*Contact Output, nset=ADAPTMN
CDISP, CSTRESS
** HISTORY OUTPUT: H-Output-1
**
*Output, history, variable=PRESELECT
*End Step
**
** WEAR BLOCK 69 (cycles 6800 to 6900)
**
*Step, name=CYCLE_69, nlgeom=YES, inc=1000
*Static
1., 41.0, 0.004, 1.
**
** BOUNDARY CONDITIONS
**
** Name: CYLINDER Type: Displacement/Rotation
*Boundary, amplitude=STROKE
DISP, 1, 1, 0.025
DISP, 2, 2
DISP, 6, 6
**
*adaptive mesh,elset=ADAPTE,freq=1,mesh=1
*adaptive mesh,elset=ADAPTME,freq=1,mesh=1
*adaptive mesh constraint, 
type=velocity,user
ADAPTN,1, ,2.9e-08
ADAPTMN,1, ,1.9e-08
**
** OUTPUT REQUESTS
**
**
** FIELD OUTPUT: F-Output-1
**
*Output, field, number interval=1
*Node Output
CF, RF, U
*Element Output, directions=YES
LE, EE, E, S, COORD
*Contact Output
CDISP, CDSTRESS, CFORCE, CNAREA, CSTATUS, CSTRESS
**
** FIELD OUTPUT: F-Output-2
**
*Node Output, nset=ADAPTN
U, COORD
*Contact Output, nset=ADAPTN
CDISP, CSTRESS
**
** FIELD OUTPUT: F-Output-3
**
*Node Output, nset=QPOINT
RF,
**
** FIELD OUTPUT: F-Output-3
**
**
*Node Output, nset=ADAPTMN
U, COORD
*Contact Output, nset=ADAPTMN
CDISP, CSTRESS
** HISTORY OUTPUT: H-Output-1
**
*Output, history, variable=PRESELECT
*End Step
**
** WEAR BLOCK 70 (cycles 6900 to 7000)
**
*Step, name=CYCLE_70, nlgeom=YES, inc=1000
*Static
1., 41.0, 0.004, 1.
**
** BOUNDARY CONDITIONS
**
** Name: CYLINDER Type: Displacement/Rotation
*Boundary, amplitude=STROKE
DISP, 1, 1, 0.025
DISP, 2, 2
DISP, 6, 6
**
*adaptive mesh,elset=ADAPTE,freq=1,mesh=1
*adaptive mesh,elset=ADAPTME,freq=1,mesh=1
*adaptive mesh constraint, 
type=velocity,user
ADAPTN,1, ,2.9e-08
ADAPTMN,1, ,1.9e-08
**
** OUTPUT REQUESTS
**
**
** FIELD OUTPUT: F-Output-1
**
*Output, field, number interval=1
*Node Output
CF, RF, U
*Element Output, directions=YES
LE, EE, E, S, COORD
*Contact Output
CDISP, CDSTRESS, CFORCE, CNAREA, CSTATUS, CSTRESS
**
** FIELD OUTPUT: F-Output-2
**
*Node Output, nset=ADAPTN
U, COORD
*Contact Output, nset=ADAPTN
CDISP, CSTRESS
**
** FIELD OUTPUT: F-Output-3
**
*Node Output, nset=QPOINT
RF,
**
** FIELD OUTPUT: F-Output-3
**
**
*Node Output, nset=ADAPTMN
U, COORD
*Contact Output, nset=ADAPTMN
CDISP, CSTRESS
** HISTORY OUTPUT: H-Output-1
**
*Output, history, variable=PRESELECT
*End Step
**
** WEAR BLOCK 71 (cycles 7000 to 7100)
**
*Step, name=CYCLE_71, nlgeom=YES, inc=1000
*Static
1., 41.0, 0.004, 1.
**
** BOUNDARY CONDITIONS
**
** Name: CYLINDER Type: Displacement/Rotation
*Boundary, amplitude=STROKE
DISP, 1, 1, 0.025
DISP, 2, 2
DISP, 6, 6
**
*adaptive mesh,elset=ADAPTE,freq=1,mesh=1
*adaptive mesh,elset=ADAPTME,freq=1,mesh=1
*adaptive mesh constraint, 
type=velocity,user
ADAPTN,1, ,2.9e-08
ADAPTMN,1, ,1.9e-08
**
** OUTPUT REQUESTS
**
**
** FIELD OUTPUT: F-Output-1
**
*Output, field, number interval=1
*Node Output
CF, RF, U
*Element Output, directions=YES
LE, EE, E, S, COORD
*Contact Output
CDISP, CDSTRESS, CFORCE, CNAREA, CSTATUS, CSTRESS
**
** FIELD OUTPUT: F-Output-2
**
*Node Output, nset=ADAPTN
U, COORD
*Contact Output, nset=ADAPTN
CDISP, CSTRESS
**
** FIELD OUTPUT: F-Output-3
**
*Node Output, nset=QPOINT
RF,
**
** FIELD OUTPUT: F-Output-3
**
**
*Node Output, nset=ADAPTMN
U, COORD
*Contact Output, nset=ADAPTMN
CDISP, CSTRESS
** HISTORY OUTPUT: H-Output-1
**
*Output, history, variable=PRESELECT
*End Step
**
** WEAR BLOCK 72 (cycles 7100 to 7200)
**
*Step, name=CYCLE_72, nlgeom=YES, inc=1000
*Static
1., 41.0, 0.004, 1.
**
** BOUNDARY CONDITIONS
**
** Name: CYLINDER Type: Displacement/Rotation
*Boundary, amplitude=STROKE
DISP, 1, 1, 0.025
DISP, 2, 2
DISP, 6, 6
**
*adaptive mesh,elset=ADAPTE,freq=1,mesh=1
*adaptive mesh,elset=ADAPTME,freq=1,mesh=1
*adaptive mesh constraint, 
type=velocity,user
ADAPTN,1, ,2.9e-08
ADAPTMN,1, ,1.9e-08
**
** OUTPUT REQUESTS
**
**
** FIELD OUTPUT: F-Output-1
**
*Output, field, number interval=1
*Node Output
CF, RF, U
*Element Output, directions=YES
LE, EE, E, S, COORD
*Contact Output
CDISP, CDSTRESS, CFORCE, CNAREA, CSTATUS, CSTRESS
**
** FIELD OUTPUT: F-Output-2
**
*Node Output, nset=ADAPTN
U, COORD
*Contact Output, nset=ADAPTN
CDISP, CSTRESS
**
** FIELD OUTPUT: F-Output-3
**
*Node Output, nset=QPOINT
RF,
**
** FIELD OUTPUT: F-Output-3
**
**
*Node Output, nset=ADAPTMN
U, COORD
*Contact Output, nset=ADAPTMN
CDISP, CSTRESS
** HISTORY OUTPUT: H-Output-1
**
*Output, history, variable=PRESELECT
*End Step
**
** WEAR BLOCK 73 (cycles 7200 to 7300)
**
*Step, name=CYCLE_73, nlgeom=YES, inc=1000
*Static
1., 41.0, 0.004, 1.
**
** BOUNDARY CONDITIONS
**
** Name: CYLINDER Type: Displacement/Rotation
*Boundary, amplitude=STROKE
DISP, 1, 1, 0.025
DISP, 2, 2
DISP, 6, 6
**
*adaptive mesh,elset=ADAPTE,freq=1,mesh=1
*adaptive mesh,elset=ADAPTME,freq=1,mesh=1
*adaptive mesh constraint, 
type=velocity,user
ADAPTN,1, ,2.9e-08
ADAPTMN,1, ,1.9e-08
**
** OUTPUT REQUESTS
**
**
** FIELD OUTPUT: F-Output-1
**
*Output, field, number interval=1
*Node Output
CF, RF, U
*Element Output, directions=YES
LE, EE, E, S, COORD
*Contact Output
CDISP, CDSTRESS, CFORCE, CNAREA, CSTATUS, CSTRESS
**
** FIELD OUTPUT: F-Output-2
**
*Node Output, nset=ADAPTN
U, COORD
*Contact Output, nset=ADAPTN
CDISP, CSTRESS
**
** FIELD OUTPUT: F-Output-3
**
*Node Output, nset=QPOINT
RF,
**
** FIELD OUTPUT: F-Output-3
**
**
*Node Output, nset=ADAPTMN
U, COORD
*Contact Output, nset=ADAPTMN
CDISP, CSTRESS
** HISTORY OUTPUT: H-Output-1
**
*Output, history, variable=PRESELECT
*End Step
**
** WEAR BLOCK 74 (cycles 7300 to 7400)
**
*Step, name=CYCLE_74, nlgeom=YES, inc=1000
*Static
1., 41.0, 0.004, 1.
**
** BOUNDARY CONDITIONS
**
** Name: CYLINDER Type: Displacement/Rotation
*Boundary, amplitude=STROKE
DISP, 1, 1, 0.025
DISP, 2, 2
DISP, 6, 6
**
*adaptive mesh,elset=ADAPTE,freq=1,mesh=1
*adaptive mesh,elset=ADAPTME,freq=1,mesh=1
*adaptive mesh constraint, 
type=velocity,user
ADAPTN,1, ,2.9e-08
ADAPTMN,1, ,1.9e-08
**
** OUTPUT REQUESTS
**
**
** FIELD OUTPUT: F-Output-1
**
*Output, field, number interval=1
*Node Output
CF, RF, U
*Element Output, directions=YES
LE, EE, E, S, COORD
*Contact Output
CDISP, CDSTRESS, CFORCE, CNAREA, CSTATUS, CSTRESS
**
** FIELD OUTPUT: F-Output-2
**
*Node Output, nset=ADAPTN
U, COORD
*Contact Output, nset=ADAPTN
CDISP, CSTRESS
**
** FIELD OUTPUT: F-Output-3
**
*Node Output, nset=QPOINT
RF,
**
** FIELD OUTPUT: F-Output-3
**
**
*Node Output, nset=ADAPTMN
U, COORD
*Contact Output, nset=ADAPTMN
CDISP, CSTRESS
** HISTORY OUTPUT: H-Output-1
**
*Output, history, variable=PRESELECT
*End Step
**
** WEAR BLOCK 75 (cycles 7400 to 7500)
**
*Step, name=CYCLE_75, nlgeom=YES, inc=1000
*Static
1., 41.0, 0.004, 1.
**
** BOUNDARY CONDITIONS
**
** Name: CYLINDER Type: Displacement/Rotation
*Boundary, amplitude=STROKE
DISP, 1, 1, 0.025
DISP, 2, 2
DISP, 6, 6
**
*adaptive mesh,elset=ADAPTE,freq=1,mesh=1
*adaptive mesh,elset=ADAPTME,freq=1,mesh=1
*adaptive mesh constraint, 
type=velocity,user
ADAPTN,1, ,2.9e-08
ADAPTMN,1, ,1.9e-08
**
** OUTPUT REQUESTS
**
**
** FIELD OUTPUT: F-Output-1
**
*Output, field, number interval=1
*Node Output
CF, RF, U
*Element Output, directions=YES
LE, EE, E, S, COORD
*Contact Output
CDISP, CDSTRESS, CFORCE, CNAREA, CSTATUS, CSTRESS
**
** FIELD OUTPUT: F-Output-2
**
*Node Output, nset=ADAPTN
U, COORD
*Contact Output, nset=ADAPTN
CDISP, CSTRESS
**
** FIELD OUTPUT: F-Output-3
**
*Node Output, nset=QPOINT
RF,
**
** FIELD OUTPUT: F-Output-3
**
**
*Node Output, nset=ADAPTMN
U, COORD
*Contact Output, nset=ADAPTMN
CDISP, CSTRESS
** HISTORY OUTPUT: H-Output-1
**
*Output, history, variable=PRESELECT
*End Step
**
** WEAR BLOCK 76 (cycles 7500 to 7600)
**
*Step, name=CYCLE_76, nlgeom=YES, inc=1000
*Static
1., 41.0, 0.004, 1.
**
** BOUNDARY CONDITIONS
**
** Name: CYLINDER Type: Displacement/Rotation
*Boundary, amplitude=STROKE
DISP, 1, 1, 0.025
DISP, 2, 2
DISP, 6, 6
**
*adaptive mesh,elset=ADAPTE,freq=1,mesh=1
*adaptive mesh,elset=ADAPTME,freq=1,mesh=1
*adaptive mesh constraint, 
type=velocity,user
ADAPTN,1, ,2.9e-08
ADAPTMN,1, ,1.9e-08
**
** OUTPUT REQUESTS
**
**
** FIELD OUTPUT: F-Output-1
**
*Output, field, number interval=1
*Node Output
CF, RF, U
*Element Output, directions=YES
LE, EE, E, S, COORD
*Contact Output
CDISP, CDSTRESS, CFORCE, CNAREA, CSTATUS, CSTRESS
**
** FIELD OUTPUT: F-Output-2
**
*Node Output, nset=ADAPTN
U, COORD
*Contact Output, nset=ADAPTN
CDISP, CSTRESS
**
** FIELD OUTPUT: F-Output-3
**
*Node Output, nset=QPOINT
RF,
**
** FIELD OUTPUT: F-Output-3
**
**
*Node Output, nset=ADAPTMN
U, COORD
*Contact Output, nset=ADAPTMN
CDISP, CSTRESS
** HISTORY OUTPUT: H-Output-1
**
*Output, history, variable=PRESELECT
*End Step
**
** WEAR BLOCK 77 (cycles 7600 to 7700)
**
*Step, name=CYCLE_77, nlgeom=YES, inc=1000
*Static
1., 41.0, 0.004, 1.
**
** BOUNDARY CONDITIONS
**
** Name: CYLINDER Type: Displacement/Rotation
*Boundary, amplitude=STROKE
DISP, 1, 1, 0.025
DISP, 2, 2
DISP, 6, 6
**
*adaptive mesh,elset=ADAPTE,freq=1,mesh=1
*adaptive mesh,elset=ADAPTME,freq=1,mesh=1
*adaptive mesh constraint, 
type=velocity,user
ADAPTN,1, ,2.9e-08
ADAPTMN,1, ,1.9e-08
**
** OUTPUT REQUESTS
**
**
** FIELD OUTPUT: F-Output-1
**
*Output, field, number interval=1
*Node Output
CF, RF, U
*Element Output, directions=YES
LE, EE, E, S, COORD
*Contact Output
CDISP, CDSTRESS, CFORCE, CNAREA, CSTATUS, CSTRESS
**
** FIELD OUTPUT: F-Output-2
**
*Node Output, nset=ADAPTN
U, COORD
*Contact Output, nset=ADAPTN
CDISP, CSTRESS
**
** FIELD OUTPUT: F-Output-3
**
*Node Output, nset=QPOINT
RF,
**
** FIELD OUTPUT: F-Output-3
**
**
*Node Output, nset=ADAPTMN
U, COORD
*Contact Output, nset=ADAPTMN
CDISP, CSTRESS
** HISTORY OUTPUT: H-Output-1
**
*Output, history, variable=PRESELECT
*End Step
**
** WEAR BLOCK 78 (cycles 7700 to 7800)
**
*Step, name=CYCLE_78, nlgeom=YES, inc=1000
*Static
1., 41.0, 0.004, 1.
**
** BOUNDARY CONDITIONS
**
** Name: CYLINDER Type: Displacement/Rotation
*Boundary, amplitude=STROKE
DISP, 1, 1, 0.025
DISP, 2, 2
DISP, 6, 6
**
*adaptive mesh,elset=ADAPTE,freq=1,mesh=1
*adaptive mesh,elset=ADAPTME,freq=1,mesh=1
*adaptive mesh constraint, 
type=velocity,user
ADAPTN,1, ,2.9e-08
ADAPTMN,1, ,1.9e-08
**
** OUTPUT REQUESTS
**
**
** FIELD OUTPUT: F-Output-1
**
*Output, field, number interval=1
*Node Output
CF, RF, U
*Element Output, directions=YES
LE, EE, E, S, COORD
*Contact Output
CDISP, CDSTRESS, CFORCE, CNAREA, CSTATUS, CSTRESS
**
** FIELD OUTPUT: F-Output-2
**
*Node Output, nset=ADAPTN
U, COORD
*Contact Output, nset=ADAPTN
CDISP, CSTRESS
**
** FIELD OUTPUT: F-Output-3
**
*Node Output, nset=QPOINT
RF,
**
** FIELD OUTPUT: F-Output-3
**
**
*Node Output, nset=ADAPTMN
U, COORD
*Contact Output, nset=ADAPTMN
CDISP, CSTRESS
** HISTORY OUTPUT: H-Output-1
**
*Output, history, variable=PRESELECT
*End Step
**
** WEAR BLOCK 79 (cycles 7800 to 7900)
**
*Step, name=CYCLE_79, nlgeom=YES, inc=1000
*Static
1., 41.0, 0.004, 1.
**
** BOUNDARY CONDITIONS
**
** Name: CYLINDER Type: Displacement/Rotation
*Boundary, amplitude=STROKE
DISP, 1, 1, 0.025
DISP, 2, 2
DISP, 6, 6
**
*adaptive mesh,elset=ADAPTE,freq=1,mesh=1
*adaptive mesh,elset=ADAPTME,freq=1,mesh=1
*adaptive mesh constraint, 
type=velocity,user
ADAPTN,1, ,2.9e-08
ADAPTMN,1, ,1.9e-08
**
** OUTPUT REQUESTS
**
**
** FIELD OUTPUT: F-Output-1
**
*Output, field, number interval=1
*Node Output
CF, RF, U
*Element Output, directions=YES
LE, EE, E, S, COORD
*Contact Output
CDISP, CDSTRESS, CFORCE, CNAREA, CSTATUS, CSTRESS
**
** FIELD OUTPUT: F-Output-2
**
*Node Output, nset=ADAPTN
U, COORD
*Contact Output, nset=ADAPTN
CDISP, CSTRESS
**
** FIELD OUTPUT: F-Output-3
**
*Node Output, nset=QPOINT
RF,
**
** FIELD OUTPUT: F-Output-3
**
**
*Node Output, nset=ADAPTMN
U, COORD
*Contact Output, nset=ADAPTMN
CDISP, CSTRESS
** HISTORY OUTPUT: H-Output-1
**
*Output, history, variable=PRESELECT
*End Step
**
** WEAR BLOCK 80 (cycles 7900 to 8000)
**
*Step, name=CYCLE_80, nlgeom=YES, inc=1000
*Static
1., 41.0, 0.004, 1.
**
** BOUNDARY CONDITIONS
**
** Name: CYLINDER Type: Displacement/Rotation
*Boundary, amplitude=STROKE
DISP, 1, 1, 0.025
DISP, 2, 2
DISP, 6, 6
**
*adaptive mesh,elset=ADAPTE,freq=1,mesh=1
*adaptive mesh,elset=ADAPTME,freq=1,mesh=1
*adaptive mesh constraint, 
type=velocity,user
ADAPTN,1, ,2.9e-08
ADAPTMN,1, ,1.9e-08
**
** OUTPUT REQUESTS
**
**
** FIELD OUTPUT: F-Output-1
**
*Output, field, number interval=1
*Node Output
CF, RF, U
*Element Output, directions=YES
LE, EE, E, S, COORD
*Contact Output
CDISP, CDSTRESS, CFORCE, CNAREA, CSTATUS, CSTRESS
**
** FIELD OUTPUT: F-Output-2
**
*Node Output, nset=ADAPTN
U, COORD
*Contact Output, nset=ADAPTN
CDISP, CSTRESS
**
** FIELD OUTPUT: F-Output-3
**
*Node Output, nset=QPOINT
RF,
**
** FIELD OUTPUT: F-Output-3
**
**
*Node Output, nset=ADAPTMN
U, COORD
*Contact Output, nset=ADAPTMN
CDISP, CSTRESS
** HISTORY OUTPUT: H-Output-1
**
*Output, history, variable=PRESELECT
*End Step
**
** WEAR BLOCK 81 (cycles 8000 to 8100)
**
*Step, name=CYCLE_81, nlgeom=YES, inc=1000
*Static
1., 41.0, 0.004, 1.
**
** BOUNDARY CONDITIONS
**
** Name: CYLINDER Type: Displacement/Rotation
*Boundary, amplitude=STROKE
DISP, 1, 1, 0.025
DISP, 2, 2
DISP, 6, 6
**
*adaptive mesh,elset=ADAPTE,freq=1,mesh=1
*adaptive mesh,elset=ADAPTME,freq=1,mesh=1
*adaptive mesh constraint, 
type=velocity,user
ADAPTN,1, ,2.9e-08
ADAPTMN,1, ,1.9e-08
**
** OUTPUT REQUESTS
**
**
** FIELD OUTPUT: F-Output-1
**
*Output, field, number interval=1
*Node Output
CF, RF, U
*Element Output, directions=YES
LE, EE, E, S, COORD
*Contact Output
CDISP, CDSTRESS, CFORCE, CNAREA, CSTATUS, CSTRESS
**
** FIELD OUTPUT: F-Output-2
**
*Node Output, nset=ADAPTN
U, COORD
*Contact Output, nset=ADAPTN
CDISP, CSTRESS
**
** FIELD OUTPUT: F-Output-3
**
*Node Output, nset=QPOINT
RF,
**
** FIELD OUTPUT: F-Output-3
**
**
*Node Output, nset=ADAPTMN
U, COORD
*Contact Output, nset=ADAPTMN
CDISP, CSTRESS
** HISTORY OUTPUT: H-Output-1
**
*Output, history, variable=PRESELECT
*End Step
**
** WEAR BLOCK 82 (cycles 8100 to 8200)
**
*Step, name=CYCLE_82, nlgeom=YES, inc=1000
*Static
1., 41.0, 0.004, 1.
**
** BOUNDARY CONDITIONS
**
** Name: CYLINDER Type: Displacement/Rotation
*Boundary, amplitude=STROKE
DISP, 1, 1, 0.025
DISP, 2, 2
DISP, 6, 6
**
*adaptive mesh,elset=ADAPTE,freq=1,mesh=1
*adaptive mesh,elset=ADAPTME,freq=1,mesh=1
*adaptive mesh constraint, 
type=velocity,user
ADAPTN,1, ,2.9e-08
ADAPTMN,1, ,1.9e-08
**
** OUTPUT REQUESTS
**
**
** FIELD OUTPUT: F-Output-1
**
*Output, field, number interval=1
*Node Output
CF, RF, U
*Element Output, directions=YES
LE, EE, E, S, COORD
*Contact Output
CDISP, CDSTRESS, CFORCE, CNAREA, CSTATUS, CSTRESS
**
** FIELD OUTPUT: F-Output-2
**
*Node Output, nset=ADAPTN
U, COORD
*Contact Output, nset=ADAPTN
CDISP, CSTRESS
**
** FIELD OUTPUT: F-Output-3
**
*Node Output, nset=QPOINT
RF,
**
** FIELD OUTPUT: F-Output-3
**
**
*Node Output, nset=ADAPTMN
U, COORD
*Contact Output, nset=ADAPTMN
CDISP, CSTRESS
** HISTORY OUTPUT: H-Output-1
**
*Output, history, variable=PRESELECT
*End Step
**
** WEAR BLOCK 83 (cycles 8200 to 8300)
**
*Step, name=CYCLE_83, nlgeom=YES, inc=1000
*Static
1., 41.0, 0.004, 1.
**
** BOUNDARY CONDITIONS
**
** Name: CYLINDER Type: Displacement/Rotation
*Boundary, amplitude=STROKE
DISP, 1, 1, 0.025
DISP, 2, 2
DISP, 6, 6
**
*adaptive mesh,elset=ADAPTE,freq=1,mesh=1
*adaptive mesh,elset=ADAPTME,freq=1,mesh=1
*adaptive mesh constraint, 
type=velocity,user
ADAPTN,1, ,2.9e-08
ADAPTMN,1, ,1.9e-08
**
** OUTPUT REQUESTS
**
**
** FIELD OUTPUT: F-Output-1
**
*Output, field, number interval=1
*Node Output
CF, RF, U
*Element Output, directions=YES
LE, EE, E, S, COORD
*Contact Output
CDISP, CDSTRESS, CFORCE, CNAREA, CSTATUS, CSTRESS
**
** FIELD OUTPUT: F-Output-2
**
*Node Output, nset=ADAPTN
U, COORD
*Contact Output, nset=ADAPTN
CDISP, CSTRESS
**
** FIELD OUTPUT: F-Output-3
**
*Node Output, nset=QPOINT
RF,
**
** FIELD OUTPUT: F-Output-3
**
**
*Node Output, nset=ADAPTMN
U, COORD
*Contact Output, nset=ADAPTMN
CDISP, CSTRESS
** HISTORY OUTPUT: H-Output-1
**
*Output, history, variable=PRESELECT
*End Step
**
** WEAR BLOCK 84 (cycles 8300 to 8400)
**
*Step, name=CYCLE_84, nlgeom=YES, inc=1000
*Static
1., 41.0, 0.004, 1.
**
** BOUNDARY CONDITIONS
**
** Name: CYLINDER Type: Displacement/Rotation
*Boundary, amplitude=STROKE
DISP, 1, 1, 0.025
DISP, 2, 2
DISP, 6, 6
**
*adaptive mesh,elset=ADAPTE,freq=1,mesh=1
*adaptive mesh,elset=ADAPTME,freq=1,mesh=1
*adaptive mesh constraint, 
type=velocity,user
ADAPTN,1, ,2.9e-08
ADAPTMN,1, ,1.9e-08
**
** OUTPUT REQUESTS
**
**
** FIELD OUTPUT: F-Output-1
**
*Output, field, number interval=1
*Node Output
CF, RF, U
*Element Output, directions=YES
LE, EE, E, S, COORD
*Contact Output
CDISP, CDSTRESS, CFORCE, CNAREA, CSTATUS, CSTRESS
**
** FIELD OUTPUT: F-Output-2
**
*Node Output, nset=ADAPTN
U, COORD
*Contact Output, nset=ADAPTN
CDISP, CSTRESS
**
** FIELD OUTPUT: F-Output-3
**
*Node Output, nset=QPOINT
RF,
**
** FIELD OUTPUT: F-Output-3
**
**
*Node Output, nset=ADAPTMN
U, COORD
*Contact Output, nset=ADAPTMN
CDISP, CSTRESS
** HISTORY OUTPUT: H-Output-1
**
*Output, history, variable=PRESELECT
*End Step
**
** WEAR BLOCK 85 (cycles 8400 to 8500)
**
*Step, name=CYCLE_85, nlgeom=YES, inc=1000
*Static
1., 41.0, 0.004, 1.
**
** BOUNDARY CONDITIONS
**
** Name: CYLINDER Type: Displacement/Rotation
*Boundary, amplitude=STROKE
DISP, 1, 1, 0.025
DISP, 2, 2
DISP, 6, 6
**
*adaptive mesh,elset=ADAPTE,freq=1,mesh=1
*adaptive mesh,elset=ADAPTME,freq=1,mesh=1
*adaptive mesh constraint, 
type=velocity,user
ADAPTN,1, ,2.9e-08
ADAPTMN,1, ,1.9e-08
**
** OUTPUT REQUESTS
**
**
** FIELD OUTPUT: F-Output-1
**
*Output, field, number interval=1
*Node Output
CF, RF, U
*Element Output, directions=YES
LE, EE, E, S, COORD
*Contact Output
CDISP, CDSTRESS, CFORCE, CNAREA, CSTATUS, CSTRESS
**
** FIELD OUTPUT: F-Output-2
**
*Node Output, nset=ADAPTN
U, COORD
*Contact Output, nset=ADAPTN
CDISP, CSTRESS
**
** FIELD OUTPUT: F-Output-3
**
*Node Output, nset=QPOINT
RF,
**
** FIELD OUTPUT: F-Output-3
**
**
*Node Output, nset=ADAPTMN
U, COORD
*Contact Output, nset=ADAPTMN
CDISP, CSTRESS
** HISTORY OUTPUT: H-Output-1
**
*Output, history, variable=PRESELECT
*End Step
**
** WEAR BLOCK 86 (cycles 8500 to 8600)
**
*Step, name=CYCLE_86, nlgeom=YES, inc=1000
*Static
1., 41.0, 0.004, 1.
**
** BOUNDARY CONDITIONS
**
** Name: CYLINDER Type: Displacement/Rotation
*Boundary, amplitude=STROKE
DISP, 1, 1, 0.025
DISP, 2, 2
DISP, 6, 6
**
*adaptive mesh,elset=ADAPTE,freq=1,mesh=1
*adaptive mesh,elset=ADAPTME,freq=1,mesh=1
*adaptive mesh constraint, 
type=velocity,user
ADAPTN,1, ,2.9e-08
ADAPTMN,1, ,1.9e-08
**
** OUTPUT REQUESTS
**
**
** FIELD OUTPUT: F-Output-1
**
*Output, field, number interval=1
*Node Output
CF, RF, U
*Element Output, directions=YES
LE, EE, E, S, COORD
*Contact Output
CDISP, CDSTRESS, CFORCE, CNAREA, CSTATUS, CSTRESS
**
** FIELD OUTPUT: F-Output-2
**
*Node Output, nset=ADAPTN
U, COORD
*Contact Output, nset=ADAPTN
CDISP, CSTRESS
**
** FIELD OUTPUT: F-Output-3
**
*Node Output, nset=QPOINT
RF,
**
** FIELD OUTPUT: F-Output-3
**
**
*Node Output, nset=ADAPTMN
U, COORD
*Contact Output, nset=ADAPTMN
CDISP, CSTRESS
** HISTORY OUTPUT: H-Output-1
**
*Output, history, variable=PRESELECT
*End Step
**
** WEAR BLOCK 87 (cycles 8600 to 8700)
**
*Step, name=CYCLE_87, nlgeom=YES, inc=1000
*Static
1., 41.0, 0.004, 1.
**
** BOUNDARY CONDITIONS
**
** Name: CYLINDER Type: Displacement/Rotation
*Boundary, amplitude=STROKE
DISP, 1, 1, 0.025
DISP, 2, 2
DISP, 6, 6
**
*adaptive mesh,elset=ADAPTE,freq=1,mesh=1
*adaptive mesh,elset=ADAPTME,freq=1,mesh=1
*adaptive mesh constraint, 
type=velocity,user
ADAPTN,1, ,2.9e-08
ADAPTMN,1, ,1.9e-08
**
** OUTPUT REQUESTS
**
**
** FIELD OUTPUT: F-Output-1
**
*Output, field, number interval=1
*Node Output
CF, RF, U
*Element Output, directions=YES
LE, EE, E, S, COORD
*Contact Output
CDISP, CDSTRESS, CFORCE, CNAREA, CSTATUS, CSTRESS
**
** FIELD OUTPUT: F-Output-2
**
*Node Output, nset=ADAPTN
U, COORD
*Contact Output, nset=ADAPTN
CDISP, CSTRESS
**
** FIELD OUTPUT: F-Output-3
**
*Node Output, nset=QPOINT
RF,
**
** FIELD OUTPUT: F-Output-3
**
**
*Node Output, nset=ADAPTMN
U, COORD
*Contact Output, nset=ADAPTMN
CDISP, CSTRESS
** HISTORY OUTPUT: H-Output-1
**
*Output, history, variable=PRESELECT
*End Step
**
** WEAR BLOCK 88 (cycles 8700 to 8800)
**
*Step, name=CYCLE_88, nlgeom=YES, inc=1000
*Static
1., 41.0, 0.004, 1.
**
** BOUNDARY CONDITIONS
**
** Name: CYLINDER Type: Displacement/Rotation
*Boundary, amplitude=STROKE
DISP, 1, 1, 0.025
DISP, 2, 2
DISP, 6, 6
**
*adaptive mesh,elset=ADAPTE,freq=1,mesh=1
*adaptive mesh,elset=ADAPTME,freq=1,mesh=1
*adaptive mesh constraint, 
type=velocity,user
ADAPTN,1, ,2.9e-08
ADAPTMN,1, ,1.9e-08
**
** OUTPUT REQUESTS
**
**
** FIELD OUTPUT: F-Output-1
**
*Output, field, number interval=1
*Node Output
CF, RF, U
*Element Output, directions=YES
LE, EE, E, S, COORD
*Contact Output
CDISP, CDSTRESS, CFORCE, CNAREA, CSTATUS, CSTRESS
**
** FIELD OUTPUT: F-Output-2
**
*Node Output, nset=ADAPTN
U, COORD
*Contact Output, nset=ADAPTN
CDISP, CSTRESS
**
** FIELD OUTPUT: F-Output-3
**
*Node Output, nset=QPOINT
RF,
**
** FIELD OUTPUT: F-Output-3
**
**
*Node Output, nset=ADAPTMN
U, COORD
*Contact Output, nset=ADAPTMN
CDISP, CSTRESS
** HISTORY OUTPUT: H-Output-1
**
*Output, history, variable=PRESELECT
*End Step
**
** WEAR BLOCK 89 (cycles 8800 to 8900)
**
*Step, name=CYCLE_89, nlgeom=YES, inc=1000
*Static
1., 41.0, 0.004, 1.
**
** BOUNDARY CONDITIONS
**
** Name: CYLINDER Type: Displacement/Rotation
*Boundary, amplitude=STROKE
DISP, 1, 1, 0.025
DISP, 2, 2
DISP, 6, 6
**
*adaptive mesh,elset=ADAPTE,freq=1,mesh=1
*adaptive mesh,elset=ADAPTME,freq=1,mesh=1
*adaptive mesh constraint, 
type=velocity,user
ADAPTN,1, ,2.9e-08
ADAPTMN,1, ,1.9e-08
**
** OUTPUT REQUESTS
**
**
** FIELD OUTPUT: F-Output-1
**
*Output, field, number interval=1
*Node Output
CF, RF, U
*Element Output, directions=YES
LE, EE, E, S, COORD
*Contact Output
CDISP, CDSTRESS, CFORCE, CNAREA, CSTATUS, CSTRESS
**
** FIELD OUTPUT: F-Output-2
**
*Node Output, nset=ADAPTN
U, COORD
*Contact Output, nset=ADAPTN
CDISP, CSTRESS
**
** FIELD OUTPUT: F-Output-3
**
*Node Output, nset=QPOINT
RF,
**
** FIELD OUTPUT: F-Output-3
**
**
*Node Output, nset=ADAPTMN
U, COORD
*Contact Output, nset=ADAPTMN
CDISP, CSTRESS
** HISTORY OUTPUT: H-Output-1
**
*Output, history, variable=PRESELECT
*End Step
**
** WEAR BLOCK 90 (cycles 8900 to 9000)
**
*Step, name=CYCLE_90, nlgeom=YES, inc=1000
*Static
1., 41.0, 0.004, 1.
**
** BOUNDARY CONDITIONS
**
** Name: CYLINDER Type: Displacement/Rotation
*Boundary, amplitude=STROKE
DISP, 1, 1, 0.025
DISP, 2, 2
DISP, 6, 6
**
*adaptive mesh,elset=ADAPTE,freq=1,mesh=1
*adaptive mesh,elset=ADAPTME,freq=1,mesh=1
*adaptive mesh constraint, 
type=velocity,user
ADAPTN,1, ,2.9e-08
ADAPTMN,1, ,1.9e-08
**
** OUTPUT REQUESTS
**
**
** FIELD OUTPUT: F-Output-1
**
*Output, field, number interval=1
*Node Output
CF, RF, U
*Element Output, directions=YES
LE, EE, E, S, COORD
*Contact Output
CDISP, CDSTRESS, CFORCE, CNAREA, CSTATUS, CSTRESS
**
** FIELD OUTPUT: F-Output-2
**
*Node Output, nset=ADAPTN
U, COORD
*Contact Output, nset=ADAPTN
CDISP, CSTRESS
**
** FIELD OUTPUT: F-Output-3
**
*Node Output, nset=QPOINT
RF,
**
** FIELD OUTPUT: F-Output-3
**
**
*Node Output, nset=ADAPTMN
U, COORD
*Contact Output, nset=ADAPTMN
CDISP, CSTRESS
** HISTORY OUTPUT: H-Output-1
**
*Output, history, variable=PRESELECT
*End Step
**
** WEAR BLOCK 91 (cycles 9000 to 9100)
**
*Step, name=CYCLE_91, nlgeom=YES, inc=1000
*Static
1., 41.0, 0.004, 1.
**
** BOUNDARY CONDITIONS
**
** Name: CYLINDER Type: Displacement/Rotation
*Boundary, amplitude=STROKE
DISP, 1, 1, 0.025
DISP, 2, 2
DISP, 6, 6
**
*adaptive mesh,elset=ADAPTE,freq=1,mesh=1
*adaptive mesh,elset=ADAPTME,freq=1,mesh=1
*adaptive mesh constraint, 
type=velocity,user
ADAPTN,1, ,2.9e-08
ADAPTMN,1, ,1.9e-08
**
** OUTPUT REQUESTS
**
**
** FIELD OUTPUT: F-Output-1
**
*Output, field, number interval=1
*Node Output
CF, RF, U
*Element Output, directions=YES
LE, EE, E, S, COORD
*Contact Output
CDISP, CDSTRESS, CFORCE, CNAREA, CSTATUS, CSTRESS
**
** FIELD OUTPUT: F-Output-2
**
*Node Output, nset=ADAPTN
U, COORD
*Contact Output, nset=ADAPTN
CDISP, CSTRESS
**
** FIELD OUTPUT: F-Output-3
**
*Node Output, nset=QPOINT
RF,
**
** FIELD OUTPUT: F-Output-3
**
**
*Node Output, nset=ADAPTMN
U, COORD
*Contact Output, nset=ADAPTMN
CDISP, CSTRESS
** HISTORY OUTPUT: H-Output-1
**
*Output, history, variable=PRESELECT
*End Step
**
** WEAR BLOCK 92 (cycles 9100 to 9200)
**
*Step, name=CYCLE_92, nlgeom=YES, inc=1000
*Static
1., 41.0, 0.004, 1.
**
** BOUNDARY CONDITIONS
**
** Name: CYLINDER Type: Displacement/Rotation
*Boundary, amplitude=STROKE
DISP, 1, 1, 0.025
DISP, 2, 2
DISP, 6, 6
**
*adaptive mesh,elset=ADAPTE,freq=1,mesh=1
*adaptive mesh,elset=ADAPTME,freq=1,mesh=1
*adaptive mesh constraint, 
type=velocity,user
ADAPTN,1, ,2.9e-08
ADAPTMN,1, ,1.9e-08
**
** OUTPUT REQUESTS
**
**
** FIELD OUTPUT: F-Output-1
**
*Output, field, number interval=1
*Node Output
CF, RF, U
*Element Output, directions=YES
LE, EE, E, S, COORD
*Contact Output
CDISP, CDSTRESS, CFORCE, CNAREA, CSTATUS, CSTRESS
**
** FIELD OUTPUT: F-Output-2
**
*Node Output, nset=ADAPTN
U, COORD
*Contact Output, nset=ADAPTN
CDISP, CSTRESS
**
** FIELD OUTPUT: F-Output-3
**
*Node Output, nset=QPOINT
RF,
**
** FIELD OUTPUT: F-Output-3
**
**
*Node Output, nset=ADAPTMN
U, COORD
*Contact Output, nset=ADAPTMN
CDISP, CSTRESS
** HISTORY OUTPUT: H-Output-1
**
*Output, history, variable=PRESELECT
*End Step
**
** WEAR BLOCK 93 (cycles 9200 to 9300)
**
*Step, name=CYCLE_93, nlgeom=YES, inc=1000
*Static
1., 41.0, 0.004, 1.
**
** BOUNDARY CONDITIONS
**
** Name: CYLINDER Type: Displacement/Rotation
*Boundary, amplitude=STROKE
DISP, 1, 1, 0.025
DISP, 2, 2
DISP, 6, 6
**
*adaptive mesh,elset=ADAPTE,freq=1,mesh=1
*adaptive mesh,elset=ADAPTME,freq=1,mesh=1
*adaptive mesh constraint, 
type=velocity,user
ADAPTN,1, ,2.9e-08
ADAPTMN,1, ,1.9e-08
**
** OUTPUT REQUESTS
**
**
** FIELD OUTPUT: F-Output-1
**
*Output, field, number interval=1
*Node Output
CF, RF, U
*Element Output, directions=YES
LE, EE, E, S, COORD
*Contact Output
CDISP, CDSTRESS, CFORCE, CNAREA, CSTATUS, CSTRESS
**
** FIELD OUTPUT: F-Output-2
**
*Node Output, nset=ADAPTN
U, COORD
*Contact Output, nset=ADAPTN
CDISP, CSTRESS
**
** FIELD OUTPUT: F-Output-3
**
*Node Output, nset=QPOINT
RF,
**
** FIELD OUTPUT: F-Output-3
**
**
*Node Output, nset=ADAPTMN
U, COORD
*Contact Output, nset=ADAPTMN
CDISP, CSTRESS
** HISTORY OUTPUT: H-Output-1
**
*Output, history, variable=PRESELECT
*End Step
**
** WEAR BLOCK 94 (cycles 9300 to 9400)
**
*Step, name=CYCLE_94, nlgeom=YES, inc=1000
*Static
1., 41.0, 0.004, 1.
**
** BOUNDARY CONDITIONS
**
** Name: CYLINDER Type: Displacement/Rotation
*Boundary, amplitude=STROKE
DISP, 1, 1, 0.025
DISP, 2, 2
DISP, 6, 6
**
*adaptive mesh,elset=ADAPTE,freq=1,mesh=1
*adaptive mesh,elset=ADAPTME,freq=1,mesh=1
*adaptive mesh constraint, 
type=velocity,user
ADAPTN,1, ,2.9e-08
ADAPTMN,1, ,1.9e-08
**
** OUTPUT REQUESTS
**
**
** FIELD OUTPUT: F-Output-1
**
*Output, field, number interval=1
*Node Output
CF, RF, U
*Element Output, directions=YES
LE, EE, E, S, COORD
*Contact Output
CDISP, CDSTRESS, CFORCE, CNAREA, CSTATUS, CSTRESS
**
** FIELD OUTPUT: F-Output-2
**
*Node Output, nset=ADAPTN
U, COORD
*Contact Output, nset=ADAPTN
CDISP, CSTRESS
**
** FIELD OUTPUT: F-Output-3
**
*Node Output, nset=QPOINT
RF,
**
** FIELD OUTPUT: F-Output-3
**
**
*Node Output, nset=ADAPTMN
U, COORD
*Contact Output, nset=ADAPTMN
CDISP, CSTRESS
** HISTORY OUTPUT: H-Output-1
**
*Output, history, variable=PRESELECT
*End Step
**
** WEAR BLOCK 95 (cycles 9400 to 9500)
**
*Step, name=CYCLE_95, nlgeom=YES, inc=1000
*Static
1., 41.0, 0.004, 1.
**
** BOUNDARY CONDITIONS
**
** Name: CYLINDER Type: Displacement/Rotation
*Boundary, amplitude=STROKE
DISP, 1, 1, 0.025
DISP, 2, 2
DISP, 6, 6
**
*adaptive mesh,elset=ADAPTE,freq=1,mesh=1
*adaptive mesh,elset=ADAPTME,freq=1,mesh=1
*adaptive mesh constraint, 
type=velocity,user
ADAPTN,1, ,2.9e-08
ADAPTMN,1, ,1.9e-08
**
** OUTPUT REQUESTS
**
**
** FIELD OUTPUT: F-Output-1
**
*Output, field, number interval=1
*Node Output
CF, RF, U
*Element Output, directions=YES
LE, EE, E, S, COORD
*Contact Output
CDISP, CDSTRESS, CFORCE, CNAREA, CSTATUS, CSTRESS
**
** FIELD OUTPUT: F-Output-2
**
*Node Output, nset=ADAPTN
U, COORD
*Contact Output, nset=ADAPTN
CDISP, CSTRESS
**
** FIELD OUTPUT: F-Output-3
**
*Node Output, nset=QPOINT
RF,
**
** FIELD OUTPUT: F-Output-3
**
**
*Node Output, nset=ADAPTMN
U, COORD
*Contact Output, nset=ADAPTMN
CDISP, CSTRESS
** HISTORY OUTPUT: H-Output-1
**
*Output, history, variable=PRESELECT
*End Step
**
** WEAR BLOCK 96 (cycles 9500 to 9600)
**
*Step, name=CYCLE_96, nlgeom=YES, inc=1000
*Static
1., 41.0, 0.004, 1.
**
** BOUNDARY CONDITIONS
**
** Name: CYLINDER Type: Displacement/Rotation
*Boundary, amplitude=STROKE
DISP, 1, 1, 0.025
DISP, 2, 2
DISP, 6, 6
**
*adaptive mesh,elset=ADAPTE,freq=1,mesh=1
*adaptive mesh,elset=ADAPTME,freq=1,mesh=1
*adaptive mesh constraint, 
type=velocity,user
ADAPTN,1, ,2.9e-08
ADAPTMN,1, ,1.9e-08
**
** OUTPUT REQUESTS
**
**
** FIELD OUTPUT: F-Output-1
**
*Output, field, number interval=1
*Node Output
CF, RF, U
*Element Output, directions=YES
LE, EE, E, S, COORD
*Contact Output
CDISP, CDSTRESS, CFORCE, CNAREA, CSTATUS, CSTRESS
**
** FIELD OUTPUT: F-Output-2
**
*Node Output, nset=ADAPTN
U, COORD
*Contact Output, nset=ADAPTN
CDISP, CSTRESS
**
** FIELD OUTPUT: F-Output-3
**
*Node Output, nset=QPOINT
RF,
**
** FIELD OUTPUT: F-Output-3
**
**
*Node Output, nset=ADAPTMN
U, COORD
*Contact Output, nset=ADAPTMN
CDISP, CSTRESS
** HISTORY OUTPUT: H-Output-1
**
*Output, history, variable=PRESELECT
*End Step
**
** WEAR BLOCK 97 (cycles 9600 to 9700)
**
*Step, name=CYCLE_97, nlgeom=YES, inc=1000
*Static
1., 41.0, 0.004, 1.
**
** BOUNDARY CONDITIONS
**
** Name: CYLINDER Type: Displacement/Rotation
*Boundary, amplitude=STROKE
DISP, 1, 1, 0.025
DISP, 2, 2
DISP, 6, 6
**
*adaptive mesh,elset=ADAPTE,freq=1,mesh=1
*adaptive mesh,elset=ADAPTME,freq=1,mesh=1
*adaptive mesh constraint, 
type=velocity,user
ADAPTN,1, ,2.9e-08
ADAPTMN,1, ,1.9e-08
**
** OUTPUT REQUESTS
**
**
** FIELD OUTPUT: F-Output-1
**
*Output, field, number interval=1
*Node Output
CF, RF, U
*Element Output, directions=YES
LE, EE, E, S, COORD
*Contact Output
CDISP, CDSTRESS, CFORCE, CNAREA, CSTATUS, CSTRESS
**
** FIELD OUTPUT: F-Output-2
**
*Node Output, nset=ADAPTN
U, COORD
*Contact Output, nset=ADAPTN
CDISP, CSTRESS
**
** FIELD OUTPUT: F-Output-3
**
*Node Output, nset=QPOINT
RF,
**
** FIELD OUTPUT: F-Output-3
**
**
*Node Output, nset=ADAPTMN
U, COORD
*Contact Output, nset=ADAPTMN
CDISP, CSTRESS
** HISTORY OUTPUT: H-Output-1
**
*Output, history, variable=PRESELECT
*End Step
**
** WEAR BLOCK 98 (cycles 9700 to 9800)
**
*Step, name=CYCLE_98, nlgeom=YES, inc=1000
*Static
1., 41.0, 0.004, 1.
**
** BOUNDARY CONDITIONS
**
** Name: CYLINDER Type: Displacement/Rotation
*Boundary, amplitude=STROKE
DISP, 1, 1, 0.025
DISP, 2, 2
DISP, 6, 6
**
*adaptive mesh,elset=ADAPTE,freq=1,mesh=1
*adaptive mesh,elset=ADAPTME,freq=1,mesh=1
*adaptive mesh constraint, 
type=velocity,user
ADAPTN,1, ,2.9e-08
ADAPTMN,1, ,1.9e-08
**
** OUTPUT REQUESTS
**
**
** FIELD OUTPUT: F-Output-1
**
*Output, field, number interval=1
*Node Output
CF, RF, U
*Element Output, directions=YES
LE, EE, E, S, COORD
*Contact Output
CDISP, CDSTRESS, CFORCE, CNAREA, CSTATUS, CSTRESS
**
** FIELD OUTPUT: F-Output-2
**
*Node Output, nset=ADAPTN
U, COORD
*Contact Output, nset=ADAPTN
CDISP, CSTRESS
**
** FIELD OUTPUT: F-Output-3
**
*Node Output, nset=QPOINT
RF,
**
** FIELD OUTPUT: F-Output-3
**
**
*Node Output, nset=ADAPTMN
U, COORD
*Contact Output, nset=ADAPTMN
CDISP, CSTRESS
** HISTORY OUTPUT: H-Output-1
**
*Output, history, variable=PRESELECT
*End Step
**
** WEAR BLOCK 99 (cycles 9800 to 9900)
**
*Step, name=CYCLE_99, nlgeom=YES, inc=1000
*Static
1., 41.0, 0.004, 1.
**
** BOUNDARY CONDITIONS
**
** Name: CYLINDER Type: Displacement/Rotation
*Boundary, amplitude=STROKE
DISP, 1, 1, 0.025
DISP, 2, 2
DISP, 6, 6
**
*adaptive mesh,elset=ADAPTE,freq=1,mesh=1
*adaptive mesh,elset=ADAPTME,freq=1,mesh=1
*adaptive mesh constraint, 
type=velocity,user
ADAPTN,1, ,2.9e-08
ADAPTMN,1, ,1.9e-08
**
** OUTPUT REQUESTS
**
**
** FIELD OUTPUT: F-Output-1
**
*Output, field, number interval=1
*Node Output
CF, RF, U
*Element Output, directions=YES
LE, EE, E, S, COORD
*Contact Output
CDISP, CDSTRESS, CFORCE, CNAREA, CSTATUS, CSTRESS
**
** FIELD OUTPUT: F-Output-2
**
*Node Output, nset=ADAPTN
U, COORD
*Contact Output, nset=ADAPTN
CDISP, CSTRESS
**
** FIELD OUTPUT: F-Output-3
**
*Node Output, nset=QPOINT
RF,
**
** FIELD OUTPUT: F-Output-3
**
**
*Node Output, nset=ADAPTMN
U, COORD
*Contact Output, nset=ADAPTMN
CDISP, CSTRESS
** HISTORY OUTPUT: H-Output-1
**
*Output, history, variable=PRESELECT
*End Step
**
** WEAR BLOCK 100 (cycles 9900 to 10000)
**
*Step, name=CYCLE_100, nlgeom=YES, inc=1000
*Static
1., 41.0, 0.004, 1.
**
** BOUNDARY CONDITIONS
**
** Name: CYLINDER Type: Displacement/Rotation
*Boundary, amplitude=STROKE
DISP, 1, 1, 0.025
DISP, 2, 2
DISP, 6, 6
**
*adaptive mesh,elset=ADAPTE,freq=1,mesh=1
*adaptive mesh,elset=ADAPTME,freq=1,mesh=1
*adaptive mesh constraint, 
type=velocity,user
ADAPTN,1, ,2.9e-08
ADAPTMN,1, ,1.9e-08
**
** OUTPUT REQUESTS
**
**
** FIELD OUTPUT: F-Output-1
**
*Output, field, number interval=1
*Node Output
CF, RF, U
*Element Output, directions=YES
LE, EE, E, S, COORD
*Contact Output
CDISP, CDSTRESS, CFORCE, CNAREA, CSTATUS, CSTRESS
**
** FIELD OUTPUT: F-Output-2
**
*Node Output, nset=ADAPTN
U, COORD
*Contact Output, nset=ADAPTN
CDISP, CSTRESS
**
** FIELD OUTPUT: F-Output-3
**
*Node Output, nset=QPOINT
RF,
**
** FIELD OUTPUT: F-Output-3
**
**
*Node Output, nset=ADAPTMN
U, COORD
*Contact Output, nset=ADAPTMN
CDISP, CSTRESS
** HISTORY OUTPUT: H-Output-1
**
*Output, history, variable=PRESELECT
*End Step
**
** WEAR BLOCK 101 (cycles 10000 to 10100)
**
*Step, name=CYCLE_101, nlgeom=YES, inc=1000
*Static
1., 41.0, 0.004, 1.
**
** BOUNDARY CONDITIONS
**
** Name: CYLINDER Type: Displacement/Rotation
*Boundary, amplitude=STROKE
DISP, 1, 1, 0.025
DISP, 2, 2
DISP, 6, 6
**
*adaptive mesh,elset=ADAPTE,freq=1,mesh=1
*adaptive mesh,elset=ADAPTME,freq=1,mesh=1
*adaptive mesh constraint, 
type=velocity,user
ADAPTN,1, ,2.9e-08
ADAPTMN,1, ,1.9e-08
**
** OUTPUT REQUESTS
**
**
** FIELD OUTPUT: F-Output-1
**
*Output, field, number interval=1
*Node Output
CF, RF, U
*Element Output, directions=YES
LE, EE, E, S, COORD
*Contact Output
CDISP, CDSTRESS, CFORCE, CNAREA, CSTATUS, CSTRESS
**
** FIELD OUTPUT: F-Output-2
**
*Node Output, nset=ADAPTN
U, COORD
*Contact Output, nset=ADAPTN
CDISP, CSTRESS
**
** FIELD OUTPUT: F-Output-3
**
*Node Output, nset=QPOINT
RF,
**
** FIELD OUTPUT: F-Output-3
**
**
*Node Output, nset=ADAPTMN
U, COORD
*Contact Output, nset=ADAPTMN
CDISP, CSTRESS
** HISTORY OUTPUT: H-Output-1
**
*Output, history, variable=PRESELECT
*End Step
**
** WEAR BLOCK 102 (cycles 10100 to 10200)
**
*Step, name=CYCLE_102, nlgeom=YES, inc=1000
*Static
1., 41.0, 0.004, 1.
**
** BOUNDARY CONDITIONS
**
** Name: CYLINDER Type: Displacement/Rotation
*Boundary, amplitude=STROKE
DISP, 1, 1, 0.025
DISP, 2, 2
DISP, 6, 6
**
*adaptive mesh,elset=ADAPTE,freq=1,mesh=1
*adaptive mesh,elset=ADAPTME,freq=1,mesh=1
*adaptive mesh constraint, 
type=velocity,user
ADAPTN,1, ,2.9e-08
ADAPTMN,1, ,1.9e-08
**
** OUTPUT REQUESTS
**
**
** FIELD OUTPUT: F-Output-1
**
*Output, field, number interval=1
*Node Output
CF, RF, U
*Element Output, directions=YES
LE, EE, E, S, COORD
*Contact Output
CDISP, CDSTRESS, CFORCE, CNAREA, CSTATUS, CSTRESS
**
** FIELD OUTPUT: F-Output-2
**
*Node Output, nset=ADAPTN
U, COORD
*Contact Output, nset=ADAPTN
CDISP, CSTRESS
**
** FIELD OUTPUT: F-Output-3
**
*Node Output, nset=QPOINT
RF,
**
** FIELD OUTPUT: F-Output-3
**
**
*Node Output, nset=ADAPTMN
U, COORD
*Contact Output, nset=ADAPTMN
CDISP, CSTRESS
** HISTORY OUTPUT: H-Output-1
**
*Output, history, variable=PRESELECT
*End Step
**
** WEAR BLOCK 103 (cycles 10200 to 10300)
**
*Step, name=CYCLE_103, nlgeom=YES, inc=1000
*Static
1., 41.0, 0.004, 1.
**
** BOUNDARY CONDITIONS
**
** Name: CYLINDER Type: Displacement/Rotation
*Boundary, amplitude=STROKE
DISP, 1, 1, 0.025
DISP, 2, 2
DISP, 6, 6
**
*adaptive mesh,elset=ADAPTE,freq=1,mesh=1
*adaptive mesh,elset=ADAPTME,freq=1,mesh=1
*adaptive mesh constraint, 
type=velocity,user
ADAPTN,1, ,2.9e-08
ADAPTMN,1, ,1.9e-08
**
** OUTPUT REQUESTS
**
**
** FIELD OUTPUT: F-Output-1
**
*Output, field, number interval=1
*Node Output
CF, RF, U
*Element Output, directions=YES
LE, EE, E, S, COORD
*Contact Output
CDISP, CDSTRESS, CFORCE, CNAREA, CSTATUS, CSTRESS
**
** FIELD OUTPUT: F-Output-2
**
*Node Output, nset=ADAPTN
U, COORD
*Contact Output, nset=ADAPTN
CDISP, CSTRESS
**
** FIELD OUTPUT: F-Output-3
**
*Node Output, nset=QPOINT
RF,
**
** FIELD OUTPUT: F-Output-3
**
**
*Node Output, nset=ADAPTMN
U, COORD
*Contact Output, nset=ADAPTMN
CDISP, CSTRESS
** HISTORY OUTPUT: H-Output-1
**
*Output, history, variable=PRESELECT
*End Step
**
** WEAR BLOCK 104 (cycles 10300 to 10400)
**
*Step, name=CYCLE_104, nlgeom=YES, inc=1000
*Static
1., 41.0, 0.004, 1.
**
** BOUNDARY CONDITIONS
**
** Name: CYLINDER Type: Displacement/Rotation
*Boundary, amplitude=STROKE
DISP, 1, 1, 0.025
DISP, 2, 2
DISP, 6, 6
**
*adaptive mesh,elset=ADAPTE,freq=1,mesh=1
*adaptive mesh,elset=ADAPTME,freq=1,mesh=1
*adaptive mesh constraint, 
type=velocity,user
ADAPTN,1, ,2.9e-08
ADAPTMN,1, ,1.9e-08
**
** OUTPUT REQUESTS
**
**
** FIELD OUTPUT: F-Output-1
**
*Output, field, number interval=1
*Node Output
CF, RF, U
*Element Output, directions=YES
LE, EE, E, S, COORD
*Contact Output
CDISP, CDSTRESS, CFORCE, CNAREA, CSTATUS, CSTRESS
**
** FIELD OUTPUT: F-Output-2
**
*Node Output, nset=ADAPTN
U, COORD
*Contact Output, nset=ADAPTN
CDISP, CSTRESS
**
** FIELD OUTPUT: F-Output-3
**
*Node Output, nset=QPOINT
RF,
**
** FIELD OUTPUT: F-Output-3
**
**
*Node Output, nset=ADAPTMN
U, COORD
*Contact Output, nset=ADAPTMN
CDISP, CSTRESS
** HISTORY OUTPUT: H-Output-1
**
*Output, history, variable=PRESELECT
*End Step
**
** WEAR BLOCK 105 (cycles 10400 to 10500)
**
*Step, name=CYCLE_105, nlgeom=YES, inc=1000
*Static
1., 41.0, 0.004, 1.
**
** BOUNDARY CONDITIONS
**
** Name: CYLINDER Type: Displacement/Rotation
*Boundary, amplitude=STROKE
DISP, 1, 1, 0.025
DISP, 2, 2
DISP, 6, 6
**
*adaptive mesh,elset=ADAPTE,freq=1,mesh=1
*adaptive mesh,elset=ADAPTME,freq=1,mesh=1
*adaptive mesh constraint, 
type=velocity,user
ADAPTN,1, ,2.9e-08
ADAPTMN,1, ,1.9e-08
**
** OUTPUT REQUESTS
**
**
** FIELD OUTPUT: F-Output-1
**
*Output, field, number interval=1
*Node Output
CF, RF, U
*Element Output, directions=YES
LE, EE, E, S, COORD
*Contact Output
CDISP, CDSTRESS, CFORCE, CNAREA, CSTATUS, CSTRESS
**
** FIELD OUTPUT: F-Output-2
**
*Node Output, nset=ADAPTN
U, COORD
*Contact Output, nset=ADAPTN
CDISP, CSTRESS
**
** FIELD OUTPUT: F-Output-3
**
*Node Output, nset=QPOINT
RF,
**
** FIELD OUTPUT: F-Output-3
**
**
*Node Output, nset=ADAPTMN
U, COORD
*Contact Output, nset=ADAPTMN
CDISP, CSTRESS
** HISTORY OUTPUT: H-Output-1
**
*Output, history, variable=PRESELECT
*End Step
**
** WEAR BLOCK 106 (cycles 10500 to 10600)
**
*Step, name=CYCLE_106, nlgeom=YES, inc=1000
*Static
1., 41.0, 0.004, 1.
**
** BOUNDARY CONDITIONS
**
** Name: CYLINDER Type: Displacement/Rotation
*Boundary, amplitude=STROKE
DISP, 1, 1, 0.025
DISP, 2, 2
DISP, 6, 6
**
*adaptive mesh,elset=ADAPTE,freq=1,mesh=1
*adaptive mesh,elset=ADAPTME,freq=1,mesh=1
*adaptive mesh constraint, 
type=velocity,user
ADAPTN,1, ,2.9e-08
ADAPTMN,1, ,1.9e-08
**
** OUTPUT REQUESTS
**
**
** FIELD OUTPUT: F-Output-1
**
*Output, field, number interval=1
*Node Output
CF, RF, U
*Element Output, directions=YES
LE, EE, E, S, COORD
*Contact Output
CDISP, CDSTRESS, CFORCE, CNAREA, CSTATUS, CSTRESS
**
** FIELD OUTPUT: F-Output-2
**
*Node Output, nset=ADAPTN
U, COORD
*Contact Output, nset=ADAPTN
CDISP, CSTRESS
**
** FIELD OUTPUT: F-Output-3
**
*Node Output, nset=QPOINT
RF,
**
** FIELD OUTPUT: F-Output-3
**
**
*Node Output, nset=ADAPTMN
U, COORD
*Contact Output, nset=ADAPTMN
CDISP, CSTRESS
** HISTORY OUTPUT: H-Output-1
**
*Output, history, variable=PRESELECT
*End Step
**
** WEAR BLOCK 107 (cycles 10600 to 10700)
**
*Step, name=CYCLE_107, nlgeom=YES, inc=1000
*Static
1., 41.0, 0.004, 1.
**
** BOUNDARY CONDITIONS
**
** Name: CYLINDER Type: Displacement/Rotation
*Boundary, amplitude=STROKE
DISP, 1, 1, 0.025
DISP, 2, 2
DISP, 6, 6
**
*adaptive mesh,elset=ADAPTE,freq=1,mesh=1
*adaptive mesh,elset=ADAPTME,freq=1,mesh=1
*adaptive mesh constraint, 
type=velocity,user
ADAPTN,1, ,2.9e-08
ADAPTMN,1, ,1.9e-08
**
** OUTPUT REQUESTS
**
**
** FIELD OUTPUT: F-Output-1
**
*Output, field, number interval=1
*Node Output
CF, RF, U
*Element Output, directions=YES
LE, EE, E, S, COORD
*Contact Output
CDISP, CDSTRESS, CFORCE, CNAREA, CSTATUS, CSTRESS
**
** FIELD OUTPUT: F-Output-2
**
*Node Output, nset=ADAPTN
U, COORD
*Contact Output, nset=ADAPTN
CDISP, CSTRESS
**
** FIELD OUTPUT: F-Output-3
**
*Node Output, nset=QPOINT
RF,
**
** FIELD OUTPUT: F-Output-3
**
**
*Node Output, nset=ADAPTMN
U, COORD
*Contact Output, nset=ADAPTMN
CDISP, CSTRESS
** HISTORY OUTPUT: H-Output-1
**
*Output, history, variable=PRESELECT
*End Step
**
** WEAR BLOCK 108 (cycles 10700 to 10800)
**
*Step, name=CYCLE_108, nlgeom=YES, inc=1000
*Static
1., 41.0, 0.004, 1.
**
** BOUNDARY CONDITIONS
**
** Name: CYLINDER Type: Displacement/Rotation
*Boundary, amplitude=STROKE
DISP, 1, 1, 0.025
DISP, 2, 2
DISP, 6, 6
**
*adaptive mesh,elset=ADAPTE,freq=1,mesh=1
*adaptive mesh,elset=ADAPTME,freq=1,mesh=1
*adaptive mesh constraint, 
type=velocity,user
ADAPTN,1, ,2.9e-08
ADAPTMN,1, ,1.9e-08
**
** OUTPUT REQUESTS
**
**
** FIELD OUTPUT: F-Output-1
**
*Output, field, number interval=1
*Node Output
CF, RF, U
*Element Output, directions=YES
LE, EE, E, S, COORD
*Contact Output
CDISP, CDSTRESS, CFORCE, CNAREA, CSTATUS, CSTRESS
**
** FIELD OUTPUT: F-Output-2
**
*Node Output, nset=ADAPTN
U, COORD
*Contact Output, nset=ADAPTN
CDISP, CSTRESS
**
** FIELD OUTPUT: F-Output-3
**
*Node Output, nset=QPOINT
RF,
**
** FIELD OUTPUT: F-Output-3
**
**
*Node Output, nset=ADAPTMN
U, COORD
*Contact Output, nset=ADAPTMN
CDISP, CSTRESS
** HISTORY OUTPUT: H-Output-1
**
*Output, history, variable=PRESELECT
*End Step
**
** WEAR BLOCK 109 (cycles 10800 to 10900)
**
*Step, name=CYCLE_109, nlgeom=YES, inc=1000
*Static
1., 41.0, 0.004, 1.
**
** BOUNDARY CONDITIONS
**
** Name: CYLINDER Type: Displacement/Rotation
*Boundary, amplitude=STROKE
DISP, 1, 1, 0.025
DISP, 2, 2
DISP, 6, 6
**
*adaptive mesh,elset=ADAPTE,freq=1,mesh=1
*adaptive mesh,elset=ADAPTME,freq=1,mesh=1
*adaptive mesh constraint, 
type=velocity,user
ADAPTN,1, ,2.9e-08
ADAPTMN,1, ,1.9e-08
**
** OUTPUT REQUESTS
**
**
** FIELD OUTPUT: F-Output-1
**
*Output, field, number interval=1
*Node Output
CF, RF, U
*Element Output, directions=YES
LE, EE, E, S, COORD
*Contact Output
CDISP, CDSTRESS, CFORCE, CNAREA, CSTATUS, CSTRESS
**
** FIELD OUTPUT: F-Output-2
**
*Node Output, nset=ADAPTN
U, COORD
*Contact Output, nset=ADAPTN
CDISP, CSTRESS
**
** FIELD OUTPUT: F-Output-3
**
*Node Output, nset=QPOINT
RF,
**
** FIELD OUTPUT: F-Output-3
**
**
*Node Output, nset=ADAPTMN
U, COORD
*Contact Output, nset=ADAPTMN
CDISP, CSTRESS
** HISTORY OUTPUT: H-Output-1
**
*Output, history, variable=PRESELECT
*End Step
**
** WEAR BLOCK 110 (cycles 10900 to 11000)
**
*Step, name=CYCLE_110, nlgeom=YES, inc=1000
*Static
1., 41.0, 0.004, 1.
**
** BOUNDARY CONDITIONS
**
** Name: CYLINDER Type: Displacement/Rotation
*Boundary, amplitude=STROKE
DISP, 1, 1, 0.025
DISP, 2, 2
DISP, 6, 6
**
*adaptive mesh,elset=ADAPTE,freq=1,mesh=1
*adaptive mesh,elset=ADAPTME,freq=1,mesh=1
*adaptive mesh constraint, 
type=velocity,user
ADAPTN,1, ,2.9e-08
ADAPTMN,1, ,1.9e-08
**
** OUTPUT REQUESTS
**
**
** FIELD OUTPUT: F-Output-1
**
*Output, field, number interval=1
*Node Output
CF, RF, U
*Element Output, directions=YES
LE, EE, E, S, COORD
*Contact Output
CDISP, CDSTRESS, CFORCE, CNAREA, CSTATUS, CSTRESS
**
** FIELD OUTPUT: F-Output-2
**
*Node Output, nset=ADAPTN
U, COORD
*Contact Output, nset=ADAPTN
CDISP, CSTRESS
**
** FIELD OUTPUT: F-Output-3
**
*Node Output, nset=QPOINT
RF,
**
** FIELD OUTPUT: F-Output-3
**
**
*Node Output, nset=ADAPTMN
U, COORD
*Contact Output, nset=ADAPTMN
CDISP, CSTRESS
** HISTORY OUTPUT: H-Output-1
**
*Output, history, variable=PRESELECT
*End Step
**
** WEAR BLOCK 111 (cycles 11000 to 11100)
**
*Step, name=CYCLE_111, nlgeom=YES, inc=1000
*Static
1., 41.0, 0.004, 1.
**
** BOUNDARY CONDITIONS
**
** Name: CYLINDER Type: Displacement/Rotation
*Boundary, amplitude=STROKE
DISP, 1, 1, 0.025
DISP, 2, 2
DISP, 6, 6
**
*adaptive mesh,elset=ADAPTE,freq=1,mesh=1
*adaptive mesh,elset=ADAPTME,freq=1,mesh=1
*adaptive mesh constraint, 
type=velocity,user
ADAPTN,1, ,2.9e-08
ADAPTMN,1, ,1.9e-08
**
** OUTPUT REQUESTS
**
**
** FIELD OUTPUT: F-Output-1
**
*Output, field, number interval=1
*Node Output
CF, RF, U
*Element Output, directions=YES
LE, EE, E, S, COORD
*Contact Output
CDISP, CDSTRESS, CFORCE, CNAREA, CSTATUS, CSTRESS
**
** FIELD OUTPUT: F-Output-2
**
*Node Output, nset=ADAPTN
U, COORD
*Contact Output, nset=ADAPTN
CDISP, CSTRESS
**
** FIELD OUTPUT: F-Output-3
**
*Node Output, nset=QPOINT
RF,
**
** FIELD OUTPUT: F-Output-3
**
**
*Node Output, nset=ADAPTMN
U, COORD
*Contact Output, nset=ADAPTMN
CDISP, CSTRESS
** HISTORY OUTPUT: H-Output-1
**
*Output, history, variable=PRESELECT
*End Step
**
** WEAR BLOCK 112 (cycles 11100 to 11200)
**
*Step, name=CYCLE_112, nlgeom=YES, inc=1000
*Static
1., 41.0, 0.004, 1.
**
** BOUNDARY CONDITIONS
**
** Name: CYLINDER Type: Displacement/Rotation
*Boundary, amplitude=STROKE
DISP, 1, 1, 0.025
DISP, 2, 2
DISP, 6, 6
**
*adaptive mesh,elset=ADAPTE,freq=1,mesh=1
*adaptive mesh,elset=ADAPTME,freq=1,mesh=1
*adaptive mesh constraint, 
type=velocity,user
ADAPTN,1, ,2.9e-08
ADAPTMN,1, ,1.9e-08
**
** OUTPUT REQUESTS
**
**
** FIELD OUTPUT: F-Output-1
**
*Output, field, number interval=1
*Node Output
CF, RF, U
*Element Output, directions=YES
LE, EE, E, S, COORD
*Contact Output
CDISP, CDSTRESS, CFORCE, CNAREA, CSTATUS, CSTRESS
**
** FIELD OUTPUT: F-Output-2
**
*Node Output, nset=ADAPTN
U, COORD
*Contact Output, nset=ADAPTN
CDISP, CSTRESS
**
** FIELD OUTPUT: F-Output-3
**
*Node Output, nset=QPOINT
RF,
**
** FIELD OUTPUT: F-Output-3
**
**
*Node Output, nset=ADAPTMN
U, COORD
*Contact Output, nset=ADAPTMN
CDISP, CSTRESS
** HISTORY OUTPUT: H-Output-1
**
*Output, history, variable=PRESELECT
*End Step
**
** WEAR BLOCK 113 (cycles 11200 to 11300)
**
*Step, name=CYCLE_113, nlgeom=YES, inc=1000
*Static
1., 41.0, 0.004, 1.
**
** BOUNDARY CONDITIONS
**
** Name: CYLINDER Type: Displacement/Rotation
*Boundary, amplitude=STROKE
DISP, 1, 1, 0.025
DISP, 2, 2
DISP, 6, 6
**
*adaptive mesh,elset=ADAPTE,freq=1,mesh=1
*adaptive mesh,elset=ADAPTME,freq=1,mesh=1
*adaptive mesh constraint, 
type=velocity,user
ADAPTN,1, ,2.9e-08
ADAPTMN,1, ,1.9e-08
**
** OUTPUT REQUESTS
**
**
** FIELD OUTPUT: F-Output-1
**
*Output, field, number interval=1
*Node Output
CF, RF, U
*Element Output, directions=YES
LE, EE, E, S, COORD
*Contact Output
CDISP, CDSTRESS, CFORCE, CNAREA, CSTATUS, CSTRESS
**
** FIELD OUTPUT: F-Output-2
**
*Node Output, nset=ADAPTN
U, COORD
*Contact Output, nset=ADAPTN
CDISP, CSTRESS
**
** FIELD OUTPUT: F-Output-3
**
*Node Output, nset=QPOINT
RF,
**
** FIELD OUTPUT: F-Output-3
**
**
*Node Output, nset=ADAPTMN
U, COORD
*Contact Output, nset=ADAPTMN
CDISP, CSTRESS
** HISTORY OUTPUT: H-Output-1
**
*Output, history, variable=PRESELECT
*End Step
**
** WEAR BLOCK 114 (cycles 11300 to 11400)
**
*Step, name=CYCLE_114, nlgeom=YES, inc=1000
*Static
1., 41.0, 0.004, 1.
**
** BOUNDARY CONDITIONS
**
** Name: CYLINDER Type: Displacement/Rotation
*Boundary, amplitude=STROKE
DISP, 1, 1, 0.025
DISP, 2, 2
DISP, 6, 6
**
*adaptive mesh,elset=ADAPTE,freq=1,mesh=1
*adaptive mesh,elset=ADAPTME,freq=1,mesh=1
*adaptive mesh constraint, 
type=velocity,user
ADAPTN,1, ,2.9e-08
ADAPTMN,1, ,1.9e-08
**
** OUTPUT REQUESTS
**
**
** FIELD OUTPUT: F-Output-1
**
*Output, field, number interval=1
*Node Output
CF, RF, U
*Element Output, directions=YES
LE, EE, E, S, COORD
*Contact Output
CDISP, CDSTRESS, CFORCE, CNAREA, CSTATUS, CSTRESS
**
** FIELD OUTPUT: F-Output-2
**
*Node Output, nset=ADAPTN
U, COORD
*Contact Output, nset=ADAPTN
CDISP, CSTRESS
**
** FIELD OUTPUT: F-Output-3
**
*Node Output, nset=QPOINT
RF,
**
** FIELD OUTPUT: F-Output-3
**
**
*Node Output, nset=ADAPTMN
U, COORD
*Contact Output, nset=ADAPTMN
CDISP, CSTRESS
** HISTORY OUTPUT: H-Output-1
**
*Output, history, variable=PRESELECT
*End Step
**
** WEAR BLOCK 115 (cycles 11400 to 11500)
**
*Step, name=CYCLE_115, nlgeom=YES, inc=1000
*Static
1., 41.0, 0.004, 1.
**
** BOUNDARY CONDITIONS
**
** Name: CYLINDER Type: Displacement/Rotation
*Boundary, amplitude=STROKE
DISP, 1, 1, 0.025
DISP, 2, 2
DISP, 6, 6
**
*adaptive mesh,elset=ADAPTE,freq=1,mesh=1
*adaptive mesh,elset=ADAPTME,freq=1,mesh=1
*adaptive mesh constraint, 
type=velocity,user
ADAPTN,1, ,2.9e-08
ADAPTMN,1, ,1.9e-08
**
** OUTPUT REQUESTS
**
**
** FIELD OUTPUT: F-Output-1
**
*Output, field, number interval=1
*Node Output
CF, RF, U
*Element Output, directions=YES
LE, EE, E, S, COORD
*Contact Output
CDISP, CDSTRESS, CFORCE, CNAREA, CSTATUS, CSTRESS
**
** FIELD OUTPUT: F-Output-2
**
*Node Output, nset=ADAPTN
U, COORD
*Contact Output, nset=ADAPTN
CDISP, CSTRESS
**
** FIELD OUTPUT: F-Output-3
**
*Node Output, nset=QPOINT
RF,
**
** FIELD OUTPUT: F-Output-3
**
**
*Node Output, nset=ADAPTMN
U, COORD
*Contact Output, nset=ADAPTMN
CDISP, CSTRESS
** HISTORY OUTPUT: H-Output-1
**
*Output, history, variable=PRESELECT
*End Step
**
** WEAR BLOCK 116 (cycles 11500 to 11600)
**
*Step, name=CYCLE_116, nlgeom=YES, inc=1000
*Static
1., 41.0, 0.004, 1.
**
** BOUNDARY CONDITIONS
**
** Name: CYLINDER Type: Displacement/Rotation
*Boundary, amplitude=STROKE
DISP, 1, 1, 0.025
DISP, 2, 2
DISP, 6, 6
**
*adaptive mesh,elset=ADAPTE,freq=1,mesh=1
*adaptive mesh,elset=ADAPTME,freq=1,mesh=1
*adaptive mesh constraint, 
type=velocity,user
ADAPTN,1, ,2.9e-08
ADAPTMN,1, ,1.9e-08
**
** OUTPUT REQUESTS
**
**
** FIELD OUTPUT: F-Output-1
**
*Output, field, number interval=1
*Node Output
CF, RF, U
*Element Output, directions=YES
LE, EE, E, S, COORD
*Contact Output
CDISP, CDSTRESS, CFORCE, CNAREA, CSTATUS, CSTRESS
**
** FIELD OUTPUT: F-Output-2
**
*Node Output, nset=ADAPTN
U, COORD
*Contact Output, nset=ADAPTN
CDISP, CSTRESS
**
** FIELD OUTPUT: F-Output-3
**
*Node Output, nset=QPOINT
RF,
**
** FIELD OUTPUT: F-Output-3
**
**
*Node Output, nset=ADAPTMN
U, COORD
*Contact Output, nset=ADAPTMN
CDISP, CSTRESS
** HISTORY OUTPUT: H-Output-1
**
*Output, history, variable=PRESELECT
*End Step
**
** WEAR BLOCK 117 (cycles 11600 to 11700)
**
*Step, name=CYCLE_117, nlgeom=YES, inc=1000
*Static
1., 41.0, 0.004, 1.
**
** BOUNDARY CONDITIONS
**
** Name: CYLINDER Type: Displacement/Rotation
*Boundary, amplitude=STROKE
DISP, 1, 1, 0.025
DISP, 2, 2
DISP, 6, 6
**
*adaptive mesh,elset=ADAPTE,freq=1,mesh=1
*adaptive mesh,elset=ADAPTME,freq=1,mesh=1
*adaptive mesh constraint, 
type=velocity,user
ADAPTN,1, ,2.9e-08
ADAPTMN,1, ,1.9e-08
**
** OUTPUT REQUESTS
**
**
** FIELD OUTPUT: F-Output-1
**
*Output, field, number interval=1
*Node Output
CF, RF, U
*Element Output, directions=YES
LE, EE, E, S, COORD
*Contact Output
CDISP, CDSTRESS, CFORCE, CNAREA, CSTATUS, CSTRESS
**
** FIELD OUTPUT: F-Output-2
**
*Node Output, nset=ADAPTN
U, COORD
*Contact Output, nset=ADAPTN
CDISP, CSTRESS
**
** FIELD OUTPUT: F-Output-3
**
*Node Output, nset=QPOINT
RF,
**
** FIELD OUTPUT: F-Output-3
**
**
*Node Output, nset=ADAPTMN
U, COORD
*Contact Output, nset=ADAPTMN
CDISP, CSTRESS
** HISTORY OUTPUT: H-Output-1
**
*Output, history, variable=PRESELECT
*End Step
**
** WEAR BLOCK 118 (cycles 11700 to 11800)
**
*Step, name=CYCLE_118, nlgeom=YES, inc=1000
*Static
1., 41.0, 0.004, 1.
**
** BOUNDARY CONDITIONS
**
** Name: CYLINDER Type: Displacement/Rotation
*Boundary, amplitude=STROKE
DISP, 1, 1, 0.025
DISP, 2, 2
DISP, 6, 6
**
*adaptive mesh,elset=ADAPTE,freq=1,mesh=1
*adaptive mesh,elset=ADAPTME,freq=1,mesh=1
*adaptive mesh constraint, 
type=velocity,user
ADAPTN,1, ,2.9e-08
ADAPTMN,1, ,1.9e-08
**
** OUTPUT REQUESTS
**
**
** FIELD OUTPUT: F-Output-1
**
*Output, field, number interval=1
*Node Output
CF, RF, U
*Element Output, directions=YES
LE, EE, E, S, COORD
*Contact Output
CDISP, CDSTRESS, CFORCE, CNAREA, CSTATUS, CSTRESS
**
** FIELD OUTPUT: F-Output-2
**
*Node Output, nset=ADAPTN
U, COORD
*Contact Output, nset=ADAPTN
CDISP, CSTRESS
**
** FIELD OUTPUT: F-Output-3
**
*Node Output, nset=QPOINT
RF,
**
** FIELD OUTPUT: F-Output-3
**
**
*Node Output, nset=ADAPTMN
U, COORD
*Contact Output, nset=ADAPTMN
CDISP, CSTRESS
** HISTORY OUTPUT: H-Output-1
**
*Output, history, variable=PRESELECT
*End Step
**
** WEAR BLOCK 119 (cycles 11800 to 11900)
**
*Step, name=CYCLE_119, nlgeom=YES, inc=1000
*Static
1., 41.0, 0.004, 1.
**
** BOUNDARY CONDITIONS
**
** Name: CYLINDER Type: Displacement/Rotation
*Boundary, amplitude=STROKE
DISP, 1, 1, 0.025
DISP, 2, 2
DISP, 6, 6
**
*adaptive mesh,elset=ADAPTE,freq=1,mesh=1
*adaptive mesh,elset=ADAPTME,freq=1,mesh=1
*adaptive mesh constraint, 
type=velocity,user
ADAPTN,1, ,2.9e-08
ADAPTMN,1, ,1.9e-08
**
** OUTPUT REQUESTS
**
**
** FIELD OUTPUT: F-Output-1
**
*Output, field, number interval=1
*Node Output
CF, RF, U
*Element Output, directions=YES
LE, EE, E, S, COORD
*Contact Output
CDISP, CDSTRESS, CFORCE, CNAREA, CSTATUS, CSTRESS
**
** FIELD OUTPUT: F-Output-2
**
*Node Output, nset=ADAPTN
U, COORD
*Contact Output, nset=ADAPTN
CDISP, CSTRESS
**
** FIELD OUTPUT: F-Output-3
**
*Node Output, nset=QPOINT
RF,
**
** FIELD OUTPUT: F-Output-3
**
**
*Node Output, nset=ADAPTMN
U, COORD
*Contact Output, nset=ADAPTMN
CDISP, CSTRESS
** HISTORY OUTPUT: H-Output-1
**
*Output, history, variable=PRESELECT
*End Step
**
** WEAR BLOCK 120 (cycles 11900 to 12000)
**
*Step, name=CYCLE_120, nlgeom=YES, inc=1000
*Static
1., 41.0, 0.004, 1.
**
** BOUNDARY CONDITIONS
**
** Name: CYLINDER Type: Displacement/Rotation
*Boundary, amplitude=STROKE
DISP, 1, 1, 0.025
DISP, 2, 2
DISP, 6, 6
**
*adaptive mesh,elset=ADAPTE,freq=1,mesh=1
*adaptive mesh,elset=ADAPTME,freq=1,mesh=1
*adaptive mesh constraint, 
type=velocity,user
ADAPTN,1, ,2.9e-08
ADAPTMN,1, ,1.9e-08
**
** OUTPUT REQUESTS
**
**
** FIELD OUTPUT: F-Output-1
**
*Output, field, number interval=1
*Node Output
CF, RF, U
*Element Output, directions=YES
LE, EE, E, S, COORD
*Contact Output
CDISP, CDSTRESS, CFORCE, CNAREA, CSTATUS, CSTRESS
**
** FIELD OUTPUT: F-Output-2
**
*Node Output, nset=ADAPTN
U, COORD
*Contact Output, nset=ADAPTN
CDISP, CSTRESS
**
** FIELD OUTPUT: F-Output-3
**
*Node Output, nset=QPOINT
RF,
**
** FIELD OUTPUT: F-Output-3
**
**
*Node Output, nset=ADAPTMN
U, COORD
*Contact Output, nset=ADAPTMN
CDISP, CSTRESS
** HISTORY OUTPUT: H-Output-1
**
*Output, history, variable=PRESELECT
*End Step
**
** WEAR BLOCK 121 (cycles 12000 to 12100)
**
*Step, name=CYCLE_121, nlgeom=YES, inc=1000
*Static
1., 41.0, 0.004, 1.
**
** BOUNDARY CONDITIONS
**
** Name: CYLINDER Type: Displacement/Rotation
*Boundary, amplitude=STROKE
DISP, 1, 1, 0.025
DISP, 2, 2
DISP, 6, 6
**
*adaptive mesh,elset=ADAPTE,freq=1,mesh=1
*adaptive mesh,elset=ADAPTME,freq=1,mesh=1
*adaptive mesh constraint, 
type=velocity,user
ADAPTN,1, ,2.9e-08
ADAPTMN,1, ,1.9e-08
**
** OUTPUT REQUESTS
**
**
** FIELD OUTPUT: F-Output-1
**
*Output, field, number interval=1
*Node Output
CF, RF, U
*Element Output, directions=YES
LE, EE, E, S, COORD
*Contact Output
CDISP, CDSTRESS, CFORCE, CNAREA, CSTATUS, CSTRESS
**
** FIELD OUTPUT: F-Output-2
**
*Node Output, nset=ADAPTN
U, COORD
*Contact Output, nset=ADAPTN
CDISP, CSTRESS
**
** FIELD OUTPUT: F-Output-3
**
*Node Output, nset=QPOINT
RF,
**
** FIELD OUTPUT: F-Output-3
**
**
*Node Output, nset=ADAPTMN
U, COORD
*Contact Output, nset=ADAPTMN
CDISP, CSTRESS
** HISTORY OUTPUT: H-Output-1
**
*Output, history, variable=PRESELECT
*End Step
**
** WEAR BLOCK 122 (cycles 12100 to 12200)
**
*Step, name=CYCLE_122, nlgeom=YES, inc=1000
*Static
1., 41.0, 0.004, 1.
**
** BOUNDARY CONDITIONS
**
** Name: CYLINDER Type: Displacement/Rotation
*Boundary, amplitude=STROKE
DISP, 1, 1, 0.025
DISP, 2, 2
DISP, 6, 6
**
*adaptive mesh,elset=ADAPTE,freq=1,mesh=1
*adaptive mesh,elset=ADAPTME,freq=1,mesh=1
*adaptive mesh constraint, 
type=velocity,user
ADAPTN,1, ,2.9e-08
ADAPTMN,1, ,1.9e-08
**
** OUTPUT REQUESTS
**
**
** FIELD OUTPUT: F-Output-1
**
*Output, field, number interval=1
*Node Output
CF, RF, U
*Element Output, directions=YES
LE, EE, E, S, COORD
*Contact Output
CDISP, CDSTRESS, CFORCE, CNAREA, CSTATUS, CSTRESS
**
** FIELD OUTPUT: F-Output-2
**
*Node Output, nset=ADAPTN
U, COORD
*Contact Output, nset=ADAPTN
CDISP, CSTRESS
**
** FIELD OUTPUT: F-Output-3
**
*Node Output, nset=QPOINT
RF,
**
** FIELD OUTPUT: F-Output-3
**
**
*Node Output, nset=ADAPTMN
U, COORD
*Contact Output, nset=ADAPTMN
CDISP, CSTRESS
** HISTORY OUTPUT: H-Output-1
**
*Output, history, variable=PRESELECT
*End Step
**
** WEAR BLOCK 123 (cycles 12200 to 12300)
**
*Step, name=CYCLE_123, nlgeom=YES, inc=1000
*Static
1., 41.0, 0.004, 1.
**
** BOUNDARY CONDITIONS
**
** Name: CYLINDER Type: Displacement/Rotation
*Boundary, amplitude=STROKE
DISP, 1, 1, 0.025
DISP, 2, 2
DISP, 6, 6
**
*adaptive mesh,elset=ADAPTE,freq=1,mesh=1
*adaptive mesh,elset=ADAPTME,freq=1,mesh=1
*adaptive mesh constraint, 
type=velocity,user
ADAPTN,1, ,2.9e-08
ADAPTMN,1, ,1.9e-08
**
** OUTPUT REQUESTS
**
**
** FIELD OUTPUT: F-Output-1
**
*Output, field, number interval=1
*Node Output
CF, RF, U
*Element Output, directions=YES
LE, EE, E, S, COORD
*Contact Output
CDISP, CDSTRESS, CFORCE, CNAREA, CSTATUS, CSTRESS
**
** FIELD OUTPUT: F-Output-2
**
*Node Output, nset=ADAPTN
U, COORD
*Contact Output, nset=ADAPTN
CDISP, CSTRESS
**
** FIELD OUTPUT: F-Output-3
**
*Node Output, nset=QPOINT
RF,
**
** FIELD OUTPUT: F-Output-3
**
**
*Node Output, nset=ADAPTMN
U, COORD
*Contact Output, nset=ADAPTMN
CDISP, CSTRESS
** HISTORY OUTPUT: H-Output-1
**
*Output, history, variable=PRESELECT
*End Step
**
** WEAR BLOCK 124 (cycles 12300 to 12400)
**
*Step, name=CYCLE_124, nlgeom=YES, inc=1000
*Static
1., 41.0, 0.004, 1.
**
** BOUNDARY CONDITIONS
**
** Name: CYLINDER Type: Displacement/Rotation
*Boundary, amplitude=STROKE
DISP, 1, 1, 0.025
DISP, 2, 2
DISP, 6, 6
**
*adaptive mesh,elset=ADAPTE,freq=1,mesh=1
*adaptive mesh,elset=ADAPTME,freq=1,mesh=1
*adaptive mesh constraint, 
type=velocity,user
ADAPTN,1, ,2.9e-08
ADAPTMN,1, ,1.9e-08
**
** OUTPUT REQUESTS
**
**
** FIELD OUTPUT: F-Output-1
**
*Output, field, number interval=1
*Node Output
CF, RF, U
*Element Output, directions=YES
LE, EE, E, S, COORD
*Contact Output
CDISP, CDSTRESS, CFORCE, CNAREA, CSTATUS, CSTRESS
**
** FIELD OUTPUT: F-Output-2
**
*Node Output, nset=ADAPTN
U, COORD
*Contact Output, nset=ADAPTN
CDISP, CSTRESS
**
** FIELD OUTPUT: F-Output-3
**
*Node Output, nset=QPOINT
RF,
**
** FIELD OUTPUT: F-Output-3
**
**
*Node Output, nset=ADAPTMN
U, COORD
*Contact Output, nset=ADAPTMN
CDISP, CSTRESS
** HISTORY OUTPUT: H-Output-1
**
*Output, history, variable=PRESELECT
*End Step
**
** WEAR BLOCK 125 (cycles 12400 to 12500)
**
*Step, name=CYCLE_125, nlgeom=YES, inc=1000
*Static
1., 41.0, 0.004, 1.
**
** BOUNDARY CONDITIONS
**
** Name: CYLINDER Type: Displacement/Rotation
*Boundary, amplitude=STROKE
DISP, 1, 1, 0.025
DISP, 2, 2
DISP, 6, 6
**
*adaptive mesh,elset=ADAPTE,freq=1,mesh=1
*adaptive mesh,elset=ADAPTME,freq=1,mesh=1
*adaptive mesh constraint, 
type=velocity,user
ADAPTN,1, ,2.9e-08
ADAPTMN,1, ,1.9e-08
**
** OUTPUT REQUESTS
**
**
** FIELD OUTPUT: F-Output-1
**
*Output, field, number interval=1
*Node Output
CF, RF, U
*Element Output, directions=YES
LE, EE, E, S, COORD
*Contact Output
CDISP, CDSTRESS, CFORCE, CNAREA, CSTATUS, CSTRESS
**
** FIELD OUTPUT: F-Output-2
**
*Node Output, nset=ADAPTN
U, COORD
*Contact Output, nset=ADAPTN
CDISP, CSTRESS
**
** FIELD OUTPUT: F-Output-3
**
*Node Output, nset=QPOINT
RF,
**
** FIELD OUTPUT: F-Output-3
**
**
*Node Output, nset=ADAPTMN
U, COORD
*Contact Output, nset=ADAPTMN
CDISP, CSTRESS
** HISTORY OUTPUT: H-Output-1
**
*Output, history, variable=PRESELECT
*End Step
**
** WEAR BLOCK 126 (cycles 12500 to 12600)
**
*Step, name=CYCLE_126, nlgeom=YES, inc=1000
*Static
1., 41.0, 0.004, 1.
**
** BOUNDARY CONDITIONS
**
** Name: CYLINDER Type: Displacement/Rotation
*Boundary, amplitude=STROKE
DISP, 1, 1, 0.025
DISP, 2, 2
DISP, 6, 6
**
*adaptive mesh,elset=ADAPTE,freq=1,mesh=1
*adaptive mesh,elset=ADAPTME,freq=1,mesh=1
*adaptive mesh constraint, 
type=velocity,user
ADAPTN,1, ,2.9e-08
ADAPTMN,1, ,1.9e-08
**
** OUTPUT REQUESTS
**
**
** FIELD OUTPUT: F-Output-1
**
*Output, field, number interval=1
*Node Output
CF, RF, U
*Element Output, directions=YES
LE, EE, E, S, COORD
*Contact Output
CDISP, CDSTRESS, CFORCE, CNAREA, CSTATUS, CSTRESS
**
** FIELD OUTPUT: F-Output-2
**
*Node Output, nset=ADAPTN
U, COORD
*Contact Output, nset=ADAPTN
CDISP, CSTRESS
**
** FIELD OUTPUT: F-Output-3
**
*Node Output, nset=QPOINT
RF,
**
** FIELD OUTPUT: F-Output-3
**
**
*Node Output, nset=ADAPTMN
U, COORD
*Contact Output, nset=ADAPTMN
CDISP, CSTRESS
** HISTORY OUTPUT: H-Output-1
**
*Output, history, variable=PRESELECT
*End Step
**
** WEAR BLOCK 127 (cycles 12600 to 12700)
**
*Step, name=CYCLE_127, nlgeom=YES, inc=1000
*Static
1., 41.0, 0.004, 1.
**
** BOUNDARY CONDITIONS
**
** Name: CYLINDER Type: Displacement/Rotation
*Boundary, amplitude=STROKE
DISP, 1, 1, 0.025
DISP, 2, 2
DISP, 6, 6
**
*adaptive mesh,elset=ADAPTE,freq=1,mesh=1
*adaptive mesh,elset=ADAPTME,freq=1,mesh=1
*adaptive mesh constraint, 
type=velocity,user
ADAPTN,1, ,2.9e-08
ADAPTMN,1, ,1.9e-08
**
** OUTPUT REQUESTS
**
**
** FIELD OUTPUT: F-Output-1
**
*Output, field, number interval=1
*Node Output
CF, RF, U
*Element Output, directions=YES
LE, EE, E, S, COORD
*Contact Output
CDISP, CDSTRESS, CFORCE, CNAREA, CSTATUS, CSTRESS
**
** FIELD OUTPUT: F-Output-2
**
*Node Output, nset=ADAPTN
U, COORD
*Contact Output, nset=ADAPTN
CDISP, CSTRESS
**
** FIELD OUTPUT: F-Output-3
**
*Node Output, nset=QPOINT
RF,
**
** FIELD OUTPUT: F-Output-3
**
**
*Node Output, nset=ADAPTMN
U, COORD
*Contact Output, nset=ADAPTMN
CDISP, CSTRESS
** HISTORY OUTPUT: H-Output-1
**
*Output, history, variable=PRESELECT
*End Step
**
** WEAR BLOCK 128 (cycles 12700 to 12800)
**
*Step, name=CYCLE_128, nlgeom=YES, inc=1000
*Static
1., 41.0, 0.004, 1.
**
** BOUNDARY CONDITIONS
**
** Name: CYLINDER Type: Displacement/Rotation
*Boundary, amplitude=STROKE
DISP, 1, 1, 0.025
DISP, 2, 2
DISP, 6, 6
**
*adaptive mesh,elset=ADAPTE,freq=1,mesh=1
*adaptive mesh,elset=ADAPTME,freq=1,mesh=1
*adaptive mesh constraint, 
type=velocity,user
ADAPTN,1, ,2.9e-08
ADAPTMN,1, ,1.9e-08
**
** OUTPUT REQUESTS
**
**
** FIELD OUTPUT: F-Output-1
**
*Output, field, number interval=1
*Node Output
CF, RF, U
*Element Output, directions=YES
LE, EE, E, S, COORD
*Contact Output
CDISP, CDSTRESS, CFORCE, CNAREA, CSTATUS, CSTRESS
**
** FIELD OUTPUT: F-Output-2
**
*Node Output, nset=ADAPTN
U, COORD
*Contact Output, nset=ADAPTN
CDISP, CSTRESS
**
** FIELD OUTPUT: F-Output-3
**
*Node Output, nset=QPOINT
RF,
**
** FIELD OUTPUT: F-Output-3
**
**
*Node Output, nset=ADAPTMN
U, COORD
*Contact Output, nset=ADAPTMN
CDISP, CSTRESS
** HISTORY OUTPUT: H-Output-1
**
*Output, history, variable=PRESELECT
*End Step
**
** WEAR BLOCK 129 (cycles 12800 to 12900)
**
*Step, name=CYCLE_129, nlgeom=YES, inc=1000
*Static
1., 41.0, 0.004, 1.
**
** BOUNDARY CONDITIONS
**
** Name: CYLINDER Type: Displacement/Rotation
*Boundary, amplitude=STROKE
DISP, 1, 1, 0.025
DISP, 2, 2
DISP, 6, 6
**
*adaptive mesh,elset=ADAPTE,freq=1,mesh=1
*adaptive mesh,elset=ADAPTME,freq=1,mesh=1
*adaptive mesh constraint, 
type=velocity,user
ADAPTN,1, ,2.9e-08
ADAPTMN,1, ,1.9e-08
**
** OUTPUT REQUESTS
**
**
** FIELD OUTPUT: F-Output-1
**
*Output, field, number interval=1
*Node Output
CF, RF, U
*Element Output, directions=YES
LE, EE, E, S, COORD
*Contact Output
CDISP, CDSTRESS, CFORCE, CNAREA, CSTATUS, CSTRESS
**
** FIELD OUTPUT: F-Output-2
**
*Node Output, nset=ADAPTN
U, COORD
*Contact Output, nset=ADAPTN
CDISP, CSTRESS
**
** FIELD OUTPUT: F-Output-3
**
*Node Output, nset=QPOINT
RF,
**
** FIELD OUTPUT: F-Output-3
**
**
*Node Output, nset=ADAPTMN
U, COORD
*Contact Output, nset=ADAPTMN
CDISP, CSTRESS
** HISTORY OUTPUT: H-Output-1
**
*Output, history, variable=PRESELECT
*End Step
**
** WEAR BLOCK 130 (cycles 12900 to 13000)
**
*Step, name=CYCLE_130, nlgeom=YES, inc=1000
*Static
1., 41.0, 0.004, 1.
**
** BOUNDARY CONDITIONS
**
** Name: CYLINDER Type: Displacement/Rotation
*Boundary, amplitude=STROKE
DISP, 1, 1, 0.025
DISP, 2, 2
DISP, 6, 6
**
*adaptive mesh,elset=ADAPTE,freq=1,mesh=1
*adaptive mesh,elset=ADAPTME,freq=1,mesh=1
*adaptive mesh constraint, 
type=velocity,user
ADAPTN,1, ,2.9e-08
ADAPTMN,1, ,1.9e-08
**
** OUTPUT REQUESTS
**
**
** FIELD OUTPUT: F-Output-1
**
*Output, field, number interval=1
*Node Output
CF, RF, U
*Element Output, directions=YES
LE, EE, E, S, COORD
*Contact Output
CDISP, CDSTRESS, CFORCE, CNAREA, CSTATUS, CSTRESS
**
** FIELD OUTPUT: F-Output-2
**
*Node Output, nset=ADAPTN
U, COORD
*Contact Output, nset=ADAPTN
CDISP, CSTRESS
**
** FIELD OUTPUT: F-Output-3
**
*Node Output, nset=QPOINT
RF,
**
** FIELD OUTPUT: F-Output-3
**
**
*Node Output, nset=ADAPTMN
U, COORD
*Contact Output, nset=ADAPTMN
CDISP, CSTRESS
** HISTORY OUTPUT: H-Output-1
**
*Output, history, variable=PRESELECT
*End Step
**
** WEAR BLOCK 131 (cycles 13000 to 13100)
**
*Step, name=CYCLE_131, nlgeom=YES, inc=1000
*Static
1., 41.0, 0.004, 1.
**
** BOUNDARY CONDITIONS
**
** Name: CYLINDER Type: Displacement/Rotation
*Boundary, amplitude=STROKE
DISP, 1, 1, 0.025
DISP, 2, 2
DISP, 6, 6
**
*adaptive mesh,elset=ADAPTE,freq=1,mesh=1
*adaptive mesh,elset=ADAPTME,freq=1,mesh=1
*adaptive mesh constraint, 
type=velocity,user
ADAPTN,1, ,2.9e-08
ADAPTMN,1, ,1.9e-08
**
** OUTPUT REQUESTS
**
**
** FIELD OUTPUT: F-Output-1
**
*Output, field, number interval=1
*Node Output
CF, RF, U
*Element Output, directions=YES
LE, EE, E, S, COORD
*Contact Output
CDISP, CDSTRESS, CFORCE, CNAREA, CSTATUS, CSTRESS
**
** FIELD OUTPUT: F-Output-2
**
*Node Output, nset=ADAPTN
U, COORD
*Contact Output, nset=ADAPTN
CDISP, CSTRESS
**
** FIELD OUTPUT: F-Output-3
**
*Node Output, nset=QPOINT
RF,
**
** FIELD OUTPUT: F-Output-3
**
**
*Node Output, nset=ADAPTMN
U, COORD
*Contact Output, nset=ADAPTMN
CDISP, CSTRESS
** HISTORY OUTPUT: H-Output-1
**
*Output, history, variable=PRESELECT
*End Step
**
** WEAR BLOCK 132 (cycles 13100 to 13200)
**
*Step, name=CYCLE_132, nlgeom=YES, inc=1000
*Static
1., 41.0, 0.004, 1.
**
** BOUNDARY CONDITIONS
**
** Name: CYLINDER Type: Displacement/Rotation
*Boundary, amplitude=STROKE
DISP, 1, 1, 0.025
DISP, 2, 2
DISP, 6, 6
**
*adaptive mesh,elset=ADAPTE,freq=1,mesh=1
*adaptive mesh,elset=ADAPTME,freq=1,mesh=1
*adaptive mesh constraint, 
type=velocity,user
ADAPTN,1, ,2.9e-08
ADAPTMN,1, ,1.9e-08
**
** OUTPUT REQUESTS
**
**
** FIELD OUTPUT: F-Output-1
**
*Output, field, number interval=1
*Node Output
CF, RF, U
*Element Output, directions=YES
LE, EE, E, S, COORD
*Contact Output
CDISP, CDSTRESS, CFORCE, CNAREA, CSTATUS, CSTRESS
**
** FIELD OUTPUT: F-Output-2
**
*Node Output, nset=ADAPTN
U, COORD
*Contact Output, nset=ADAPTN
CDISP, CSTRESS
**
** FIELD OUTPUT: F-Output-3
**
*Node Output, nset=QPOINT
RF,
**
** FIELD OUTPUT: F-Output-3
**
**
*Node Output, nset=ADAPTMN
U, COORD
*Contact Output, nset=ADAPTMN
CDISP, CSTRESS
** HISTORY OUTPUT: H-Output-1
**
*Output, history, variable=PRESELECT
*End Step
**
** WEAR BLOCK 133 (cycles 13200 to 13300)
**
*Step, name=CYCLE_133, nlgeom=YES, inc=1000
*Static
1., 41.0, 0.004, 1.
**
** BOUNDARY CONDITIONS
**
** Name: CYLINDER Type: Displacement/Rotation
*Boundary, amplitude=STROKE
DISP, 1, 1, 0.025
DISP, 2, 2
DISP, 6, 6
**
*adaptive mesh,elset=ADAPTE,freq=1,mesh=1
*adaptive mesh,elset=ADAPTME,freq=1,mesh=1
*adaptive mesh constraint, 
type=velocity,user
ADAPTN,1, ,2.9e-08
ADAPTMN,1, ,1.9e-08
**
** OUTPUT REQUESTS
**
**
** FIELD OUTPUT: F-Output-1
**
*Output, field, number interval=1
*Node Output
CF, RF, U
*Element Output, directions=YES
LE, EE, E, S, COORD
*Contact Output
CDISP, CDSTRESS, CFORCE, CNAREA, CSTATUS, CSTRESS
**
** FIELD OUTPUT: F-Output-2
**
*Node Output, nset=ADAPTN
U, COORD
*Contact Output, nset=ADAPTN
CDISP, CSTRESS
**
** FIELD OUTPUT: F-Output-3
**
*Node Output, nset=QPOINT
RF,
**
** FIELD OUTPUT: F-Output-3
**
**
*Node Output, nset=ADAPTMN
U, COORD
*Contact Output, nset=ADAPTMN
CDISP, CSTRESS
** HISTORY OUTPUT: H-Output-1
**
*Output, history, variable=PRESELECT
*End Step
**
** WEAR BLOCK 134 (cycles 13300 to 13400)
**
*Step, name=CYCLE_134, nlgeom=YES, inc=1000
*Static
1., 41.0, 0.004, 1.
**
** BOUNDARY CONDITIONS
**
** Name: CYLINDER Type: Displacement/Rotation
*Boundary, amplitude=STROKE
DISP, 1, 1, 0.025
DISP, 2, 2
DISP, 6, 6
**
*adaptive mesh,elset=ADAPTE,freq=1,mesh=1
*adaptive mesh,elset=ADAPTME,freq=1,mesh=1
*adaptive mesh constraint, 
type=velocity,user
ADAPTN,1, ,2.9e-08
ADAPTMN,1, ,1.9e-08
**
** OUTPUT REQUESTS
**
**
** FIELD OUTPUT: F-Output-1
**
*Output, field, number interval=1
*Node Output
CF, RF, U
*Element Output, directions=YES
LE, EE, E, S, COORD
*Contact Output
CDISP, CDSTRESS, CFORCE, CNAREA, CSTATUS, CSTRESS
**
** FIELD OUTPUT: F-Output-2
**
*Node Output, nset=ADAPTN
U, COORD
*Contact Output, nset=ADAPTN
CDISP, CSTRESS
**
** FIELD OUTPUT: F-Output-3
**
*Node Output, nset=QPOINT
RF,
**
** FIELD OUTPUT: F-Output-3
**
**
*Node Output, nset=ADAPTMN
U, COORD
*Contact Output, nset=ADAPTMN
CDISP, CSTRESS
** HISTORY OUTPUT: H-Output-1
**
*Output, history, variable=PRESELECT
*End Step
**
** WEAR BLOCK 135 (cycles 13400 to 13500)
**
*Step, name=CYCLE_135, nlgeom=YES, inc=1000
*Static
1., 41.0, 0.004, 1.
**
** BOUNDARY CONDITIONS
**
** Name: CYLINDER Type: Displacement/Rotation
*Boundary, amplitude=STROKE
DISP, 1, 1, 0.025
DISP, 2, 2
DISP, 6, 6
**
*adaptive mesh,elset=ADAPTE,freq=1,mesh=1
*adaptive mesh,elset=ADAPTME,freq=1,mesh=1
*adaptive mesh constraint, 
type=velocity,user
ADAPTN,1, ,2.9e-08
ADAPTMN,1, ,1.9e-08
**
** OUTPUT REQUESTS
**
**
** FIELD OUTPUT: F-Output-1
**
*Output, field, number interval=1
*Node Output
CF, RF, U
*Element Output, directions=YES
LE, EE, E, S, COORD
*Contact Output
CDISP, CDSTRESS, CFORCE, CNAREA, CSTATUS, CSTRESS
**
** FIELD OUTPUT: F-Output-2
**
*Node Output, nset=ADAPTN
U, COORD
*Contact Output, nset=ADAPTN
CDISP, CSTRESS
**
** FIELD OUTPUT: F-Output-3
**
*Node Output, nset=QPOINT
RF,
**
** FIELD OUTPUT: F-Output-3
**
**
*Node Output, nset=ADAPTMN
U, COORD
*Contact Output, nset=ADAPTMN
CDISP, CSTRESS
** HISTORY OUTPUT: H-Output-1
**
*Output, history, variable=PRESELECT
*End Step
**
** WEAR BLOCK 136 (cycles 13500 to 13600)
**
*Step, name=CYCLE_136, nlgeom=YES, inc=1000
*Static
1., 41.0, 0.004, 1.
**
** BOUNDARY CONDITIONS
**
** Name: CYLINDER Type: Displacement/Rotation
*Boundary, amplitude=STROKE
DISP, 1, 1, 0.025
DISP, 2, 2
DISP, 6, 6
**
*adaptive mesh,elset=ADAPTE,freq=1,mesh=1
*adaptive mesh,elset=ADAPTME,freq=1,mesh=1
*adaptive mesh constraint, 
type=velocity,user
ADAPTN,1, ,2.9e-08
ADAPTMN,1, ,1.9e-08
**
** OUTPUT REQUESTS
**
**
** FIELD OUTPUT: F-Output-1
**
*Output, field, number interval=1
*Node Output
CF, RF, U
*Element Output, directions=YES
LE, EE, E, S, COORD
*Contact Output
CDISP, CDSTRESS, CFORCE, CNAREA, CSTATUS, CSTRESS
**
** FIELD OUTPUT: F-Output-2
**
*Node Output, nset=ADAPTN
U, COORD
*Contact Output, nset=ADAPTN
CDISP, CSTRESS
**
** FIELD OUTPUT: F-Output-3
**
*Node Output, nset=QPOINT
RF,
**
** FIELD OUTPUT: F-Output-3
**
**
*Node Output, nset=ADAPTMN
U, COORD
*Contact Output, nset=ADAPTMN
CDISP, CSTRESS
** HISTORY OUTPUT: H-Output-1
**
*Output, history, variable=PRESELECT
*End Step
**
** WEAR BLOCK 137 (cycles 13600 to 13700)
**
*Step, name=CYCLE_137, nlgeom=YES, inc=1000
*Static
1., 41.0, 0.004, 1.
**
** BOUNDARY CONDITIONS
**
** Name: CYLINDER Type: Displacement/Rotation
*Boundary, amplitude=STROKE
DISP, 1, 1, 0.025
DISP, 2, 2
DISP, 6, 6
**
*adaptive mesh,elset=ADAPTE,freq=1,mesh=1
*adaptive mesh,elset=ADAPTME,freq=1,mesh=1
*adaptive mesh constraint, 
type=velocity,user
ADAPTN,1, ,2.9e-08
ADAPTMN,1, ,1.9e-08
**
** OUTPUT REQUESTS
**
**
** FIELD OUTPUT: F-Output-1
**
*Output, field, number interval=1
*Node Output
CF, RF, U
*Element Output, directions=YES
LE, EE, E, S, COORD
*Contact Output
CDISP, CDSTRESS, CFORCE, CNAREA, CSTATUS, CSTRESS
**
** FIELD OUTPUT: F-Output-2
**
*Node Output, nset=ADAPTN
U, COORD
*Contact Output, nset=ADAPTN
CDISP, CSTRESS
**
** FIELD OUTPUT: F-Output-3
**
*Node Output, nset=QPOINT
RF,
**
** FIELD OUTPUT: F-Output-3
**
**
*Node Output, nset=ADAPTMN
U, COORD
*Contact Output, nset=ADAPTMN
CDISP, CSTRESS
** HISTORY OUTPUT: H-Output-1
**
*Output, history, variable=PRESELECT
*End Step
**
** WEAR BLOCK 138 (cycles 13700 to 13800)
**
*Step, name=CYCLE_138, nlgeom=YES, inc=1000
*Static
1., 41.0, 0.004, 1.
**
** BOUNDARY CONDITIONS
**
** Name: CYLINDER Type: Displacement/Rotation
*Boundary, amplitude=STROKE
DISP, 1, 1, 0.025
DISP, 2, 2
DISP, 6, 6
**
*adaptive mesh,elset=ADAPTE,freq=1,mesh=1
*adaptive mesh,elset=ADAPTME,freq=1,mesh=1
*adaptive mesh constraint, 
type=velocity,user
ADAPTN,1, ,2.9e-08
ADAPTMN,1, ,1.9e-08
**
** OUTPUT REQUESTS
**
**
** FIELD OUTPUT: F-Output-1
**
*Output, field, number interval=1
*Node Output
CF, RF, U
*Element Output, directions=YES
LE, EE, E, S, COORD
*Contact Output
CDISP, CDSTRESS, CFORCE, CNAREA, CSTATUS, CSTRESS
**
** FIELD OUTPUT: F-Output-2
**
*Node Output, nset=ADAPTN
U, COORD
*Contact Output, nset=ADAPTN
CDISP, CSTRESS
**
** FIELD OUTPUT: F-Output-3
**
*Node Output, nset=QPOINT
RF,
**
** FIELD OUTPUT: F-Output-3
**
**
*Node Output, nset=ADAPTMN
U, COORD
*Contact Output, nset=ADAPTMN
CDISP, CSTRESS
** HISTORY OUTPUT: H-Output-1
**
*Output, history, variable=PRESELECT
*End Step
**
** WEAR BLOCK 139 (cycles 13800 to 13900)
**
*Step, name=CYCLE_139, nlgeom=YES, inc=1000
*Static
1., 41.0, 0.004, 1.
**
** BOUNDARY CONDITIONS
**
** Name: CYLINDER Type: Displacement/Rotation
*Boundary, amplitude=STROKE
DISP, 1, 1, 0.025
DISP, 2, 2
DISP, 6, 6
**
*adaptive mesh,elset=ADAPTE,freq=1,mesh=1
*adaptive mesh,elset=ADAPTME,freq=1,mesh=1
*adaptive mesh constraint, 
type=velocity,user
ADAPTN,1, ,2.9e-08
ADAPTMN,1, ,1.9e-08
**
** OUTPUT REQUESTS
**
**
** FIELD OUTPUT: F-Output-1
**
*Output, field, number interval=1
*Node Output
CF, RF, U
*Element Output, directions=YES
LE, EE, E, S, COORD
*Contact Output
CDISP, CDSTRESS, CFORCE, CNAREA, CSTATUS, CSTRESS
**
** FIELD OUTPUT: F-Output-2
**
*Node Output, nset=ADAPTN
U, COORD
*Contact Output, nset=ADAPTN
CDISP, CSTRESS
**
** FIELD OUTPUT: F-Output-3
**
*Node Output, nset=QPOINT
RF,
**
** FIELD OUTPUT: F-Output-3
**
**
*Node Output, nset=ADAPTMN
U, COORD
*Contact Output, nset=ADAPTMN
CDISP, CSTRESS
** HISTORY OUTPUT: H-Output-1
**
*Output, history, variable=PRESELECT
*End Step
**
** WEAR BLOCK 140 (cycles 13900 to 14000)
**
*Step, name=CYCLE_140, nlgeom=YES, inc=1000
*Static
1., 41.0, 0.004, 1.
**
** BOUNDARY CONDITIONS
**
** Name: CYLINDER Type: Displacement/Rotation
*Boundary, amplitude=STROKE
DISP, 1, 1, 0.025
DISP, 2, 2
DISP, 6, 6
**
*adaptive mesh,elset=ADAPTE,freq=1,mesh=1
*adaptive mesh,elset=ADAPTME,freq=1,mesh=1
*adaptive mesh constraint, 
type=velocity,user
ADAPTN,1, ,2.9e-08
ADAPTMN,1, ,1.9e-08
**
** OUTPUT REQUESTS
**
**
** FIELD OUTPUT: F-Output-1
**
*Output, field, number interval=1
*Node Output
CF, RF, U
*Element Output, directions=YES
LE, EE, E, S, COORD
*Contact Output
CDISP, CDSTRESS, CFORCE, CNAREA, CSTATUS, CSTRESS
**
** FIELD OUTPUT: F-Output-2
**
*Node Output, nset=ADAPTN
U, COORD
*Contact Output, nset=ADAPTN
CDISP, CSTRESS
**
** FIELD OUTPUT: F-Output-3
**
*Node Output, nset=QPOINT
RF,
**
** FIELD OUTPUT: F-Output-3
**
**
*Node Output, nset=ADAPTMN
U, COORD
*Contact Output, nset=ADAPTMN
CDISP, CSTRESS
** HISTORY OUTPUT: H-Output-1
**
*Output, history, variable=PRESELECT
*End Step
**
** WEAR BLOCK 141 (cycles 14000 to 14100)
**
*Step, name=CYCLE_141, nlgeom=YES, inc=1000
*Static
1., 41.0, 0.004, 1.
**
** BOUNDARY CONDITIONS
**
** Name: CYLINDER Type: Displacement/Rotation
*Boundary, amplitude=STROKE
DISP, 1, 1, 0.025
DISP, 2, 2
DISP, 6, 6
**
*adaptive mesh,elset=ADAPTE,freq=1,mesh=1
*adaptive mesh,elset=ADAPTME,freq=1,mesh=1
*adaptive mesh constraint, 
type=velocity,user
ADAPTN,1, ,2.9e-08
ADAPTMN,1, ,1.9e-08
**
** OUTPUT REQUESTS
**
**
** FIELD OUTPUT: F-Output-1
**
*Output, field, number interval=1
*Node Output
CF, RF, U
*Element Output, directions=YES
LE, EE, E, S, COORD
*Contact Output
CDISP, CDSTRESS, CFORCE, CNAREA, CSTATUS, CSTRESS
**
** FIELD OUTPUT: F-Output-2
**
*Node Output, nset=ADAPTN
U, COORD
*Contact Output, nset=ADAPTN
CDISP, CSTRESS
**
** FIELD OUTPUT: F-Output-3
**
*Node Output, nset=QPOINT
RF,
**
** FIELD OUTPUT: F-Output-3
**
**
*Node Output, nset=ADAPTMN
U, COORD
*Contact Output, nset=ADAPTMN
CDISP, CSTRESS
** HISTORY OUTPUT: H-Output-1
**
*Output, history, variable=PRESELECT
*End Step
**
** WEAR BLOCK 142 (cycles 14100 to 14200)
**
*Step, name=CYCLE_142, nlgeom=YES, inc=1000
*Static
1., 41.0, 0.004, 1.
**
** BOUNDARY CONDITIONS
**
** Name: CYLINDER Type: Displacement/Rotation
*Boundary, amplitude=STROKE
DISP, 1, 1, 0.025
DISP, 2, 2
DISP, 6, 6
**
*adaptive mesh,elset=ADAPTE,freq=1,mesh=1
*adaptive mesh,elset=ADAPTME,freq=1,mesh=1
*adaptive mesh constraint, 
type=velocity,user
ADAPTN,1, ,2.9e-08
ADAPTMN,1, ,1.9e-08
**
** OUTPUT REQUESTS
**
**
** FIELD OUTPUT: F-Output-1
**
*Output, field, number interval=1
*Node Output
CF, RF, U
*Element Output, directions=YES
LE, EE, E, S, COORD
*Contact Output
CDISP, CDSTRESS, CFORCE, CNAREA, CSTATUS, CSTRESS
**
** FIELD OUTPUT: F-Output-2
**
*Node Output, nset=ADAPTN
U, COORD
*Contact Output, nset=ADAPTN
CDISP, CSTRESS
**
** FIELD OUTPUT: F-Output-3
**
*Node Output, nset=QPOINT
RF,
**
** FIELD OUTPUT: F-Output-3
**
**
*Node Output, nset=ADAPTMN
U, COORD
*Contact Output, nset=ADAPTMN
CDISP, CSTRESS
** HISTORY OUTPUT: H-Output-1
**
*Output, history, variable=PRESELECT
*End Step
**
** WEAR BLOCK 143 (cycles 14200 to 14300)
**
*Step, name=CYCLE_143, nlgeom=YES, inc=1000
*Static
1., 41.0, 0.004, 1.
**
** BOUNDARY CONDITIONS
**
** Name: CYLINDER Type: Displacement/Rotation
*Boundary, amplitude=STROKE
DISP, 1, 1, 0.025
DISP, 2, 2
DISP, 6, 6
**
*adaptive mesh,elset=ADAPTE,freq=1,mesh=1
*adaptive mesh,elset=ADAPTME,freq=1,mesh=1
*adaptive mesh constraint, 
type=velocity,user
ADAPTN,1, ,2.9e-08
ADAPTMN,1, ,1.9e-08
**
** OUTPUT REQUESTS
**
**
** FIELD OUTPUT: F-Output-1
**
*Output, field, number interval=1
*Node Output
CF, RF, U
*Element Output, directions=YES
LE, EE, E, S, COORD
*Contact Output
CDISP, CDSTRESS, CFORCE, CNAREA, CSTATUS, CSTRESS
**
** FIELD OUTPUT: F-Output-2
**
*Node Output, nset=ADAPTN
U, COORD
*Contact Output, nset=ADAPTN
CDISP, CSTRESS
**
** FIELD OUTPUT: F-Output-3
**
*Node Output, nset=QPOINT
RF,
**
** FIELD OUTPUT: F-Output-3
**
**
*Node Output, nset=ADAPTMN
U, COORD
*Contact Output, nset=ADAPTMN
CDISP, CSTRESS
** HISTORY OUTPUT: H-Output-1
**
*Output, history, variable=PRESELECT
*End Step
**
** WEAR BLOCK 144 (cycles 14300 to 14400)
**
*Step, name=CYCLE_144, nlgeom=YES, inc=1000
*Static
1., 41.0, 0.004, 1.
**
** BOUNDARY CONDITIONS
**
** Name: CYLINDER Type: Displacement/Rotation
*Boundary, amplitude=STROKE
DISP, 1, 1, 0.025
DISP, 2, 2
DISP, 6, 6
**
*adaptive mesh,elset=ADAPTE,freq=1,mesh=1
*adaptive mesh,elset=ADAPTME,freq=1,mesh=1
*adaptive mesh constraint, 
type=velocity,user
ADAPTN,1, ,2.9e-08
ADAPTMN,1, ,1.9e-08
**
** OUTPUT REQUESTS
**
**
** FIELD OUTPUT: F-Output-1
**
*Output, field, number interval=1
*Node Output
CF, RF, U
*Element Output, directions=YES
LE, EE, E, S, COORD
*Contact Output
CDISP, CDSTRESS, CFORCE, CNAREA, CSTATUS, CSTRESS
**
** FIELD OUTPUT: F-Output-2
**
*Node Output, nset=ADAPTN
U, COORD
*Contact Output, nset=ADAPTN
CDISP, CSTRESS
**
** FIELD OUTPUT: F-Output-3
**
*Node Output, nset=QPOINT
RF,
**
** FIELD OUTPUT: F-Output-3
**
**
*Node Output, nset=ADAPTMN
U, COORD
*Contact Output, nset=ADAPTMN
CDISP, CSTRESS
** HISTORY OUTPUT: H-Output-1
**
*Output, history, variable=PRESELECT
*End Step
**
** WEAR BLOCK 145 (cycles 14400 to 14500)
**
*Step, name=CYCLE_145, nlgeom=YES, inc=1000
*Static
1., 41.0, 0.004, 1.
**
** BOUNDARY CONDITIONS
**
** Name: CYLINDER Type: Displacement/Rotation
*Boundary, amplitude=STROKE
DISP, 1, 1, 0.025
DISP, 2, 2
DISP, 6, 6
**
*adaptive mesh,elset=ADAPTE,freq=1,mesh=1
*adaptive mesh,elset=ADAPTME,freq=1,mesh=1
*adaptive mesh constraint, 
type=velocity,user
ADAPTN,1, ,2.9e-08
ADAPTMN,1, ,1.9e-08
**
** OUTPUT REQUESTS
**
**
** FIELD OUTPUT: F-Output-1
**
*Output, field, number interval=1
*Node Output
CF, RF, U
*Element Output, directions=YES
LE, EE, E, S, COORD
*Contact Output
CDISP, CDSTRESS, CFORCE, CNAREA, CSTATUS, CSTRESS
**
** FIELD OUTPUT: F-Output-2
**
*Node Output, nset=ADAPTN
U, COORD
*Contact Output, nset=ADAPTN
CDISP, CSTRESS
**
** FIELD OUTPUT: F-Output-3
**
*Node Output, nset=QPOINT
RF,
**
** FIELD OUTPUT: F-Output-3
**
**
*Node Output, nset=ADAPTMN
U, COORD
*Contact Output, nset=ADAPTMN
CDISP, CSTRESS
** HISTORY OUTPUT: H-Output-1
**
*Output, history, variable=PRESELECT
*End Step
**
** WEAR BLOCK 146 (cycles 14500 to 14600)
**
*Step, name=CYCLE_146, nlgeom=YES, inc=1000
*Static
1., 41.0, 0.004, 1.
**
** BOUNDARY CONDITIONS
**
** Name: CYLINDER Type: Displacement/Rotation
*Boundary, amplitude=STROKE
DISP, 1, 1, 0.025
DISP, 2, 2
DISP, 6, 6
**
*adaptive mesh,elset=ADAPTE,freq=1,mesh=1
*adaptive mesh,elset=ADAPTME,freq=1,mesh=1
*adaptive mesh constraint, 
type=velocity,user
ADAPTN,1, ,2.9e-08
ADAPTMN,1, ,1.9e-08
**
** OUTPUT REQUESTS
**
**
** FIELD OUTPUT: F-Output-1
**
*Output, field, number interval=1
*Node Output
CF, RF, U
*Element Output, directions=YES
LE, EE, E, S, COORD
*Contact Output
CDISP, CDSTRESS, CFORCE, CNAREA, CSTATUS, CSTRESS
**
** FIELD OUTPUT: F-Output-2
**
*Node Output, nset=ADAPTN
U, COORD
*Contact Output, nset=ADAPTN
CDISP, CSTRESS
**
** FIELD OUTPUT: F-Output-3
**
*Node Output, nset=QPOINT
RF,
**
** FIELD OUTPUT: F-Output-3
**
**
*Node Output, nset=ADAPTMN
U, COORD
*Contact Output, nset=ADAPTMN
CDISP, CSTRESS
** HISTORY OUTPUT: H-Output-1
**
*Output, history, variable=PRESELECT
*End Step
**
** WEAR BLOCK 147 (cycles 14600 to 14700)
**
*Step, name=CYCLE_147, nlgeom=YES, inc=1000
*Static
1., 41.0, 0.004, 1.
**
** BOUNDARY CONDITIONS
**
** Name: CYLINDER Type: Displacement/Rotation
*Boundary, amplitude=STROKE
DISP, 1, 1, 0.025
DISP, 2, 2
DISP, 6, 6
**
*adaptive mesh,elset=ADAPTE,freq=1,mesh=1
*adaptive mesh,elset=ADAPTME,freq=1,mesh=1
*adaptive mesh constraint, 
type=velocity,user
ADAPTN,1, ,2.9e-08
ADAPTMN,1, ,1.9e-08
**
** OUTPUT REQUESTS
**
**
** FIELD OUTPUT: F-Output-1
**
*Output, field, number interval=1
*Node Output
CF, RF, U
*Element Output, directions=YES
LE, EE, E, S, COORD
*Contact Output
CDISP, CDSTRESS, CFORCE, CNAREA, CSTATUS, CSTRESS
**
** FIELD OUTPUT: F-Output-2
**
*Node Output, nset=ADAPTN
U, COORD
*Contact Output, nset=ADAPTN
CDISP, CSTRESS
**
** FIELD OUTPUT: F-Output-3
**
*Node Output, nset=QPOINT
RF,
**
** FIELD OUTPUT: F-Output-3
**
**
*Node Output, nset=ADAPTMN
U, COORD
*Contact Output, nset=ADAPTMN
CDISP, CSTRESS
** HISTORY OUTPUT: H-Output-1
**
*Output, history, variable=PRESELECT
*End Step
**
** WEAR BLOCK 148 (cycles 14700 to 14800)
**
*Step, name=CYCLE_148, nlgeom=YES, inc=1000
*Static
1., 41.0, 0.004, 1.
**
** BOUNDARY CONDITIONS
**
** Name: CYLINDER Type: Displacement/Rotation
*Boundary, amplitude=STROKE
DISP, 1, 1, 0.025
DISP, 2, 2
DISP, 6, 6
**
*adaptive mesh,elset=ADAPTE,freq=1,mesh=1
*adaptive mesh,elset=ADAPTME,freq=1,mesh=1
*adaptive mesh constraint, 
type=velocity,user
ADAPTN,1, ,2.9e-08
ADAPTMN,1, ,1.9e-08
**
** OUTPUT REQUESTS
**
**
** FIELD OUTPUT: F-Output-1
**
*Output, field, number interval=1
*Node Output
CF, RF, U
*Element Output, directions=YES
LE, EE, E, S, COORD
*Contact Output
CDISP, CDSTRESS, CFORCE, CNAREA, CSTATUS, CSTRESS
**
** FIELD OUTPUT: F-Output-2
**
*Node Output, nset=ADAPTN
U, COORD
*Contact Output, nset=ADAPTN
CDISP, CSTRESS
**
** FIELD OUTPUT: F-Output-3
**
*Node Output, nset=QPOINT
RF,
**
** FIELD OUTPUT: F-Output-3
**
**
*Node Output, nset=ADAPTMN
U, COORD
*Contact Output, nset=ADAPTMN
CDISP, CSTRESS
** HISTORY OUTPUT: H-Output-1
**
*Output, history, variable=PRESELECT
*End Step
**
** WEAR BLOCK 149 (cycles 14800 to 14900)
**
*Step, name=CYCLE_149, nlgeom=YES, inc=1000
*Static
1., 41.0, 0.004, 1.
**
** BOUNDARY CONDITIONS
**
** Name: CYLINDER Type: Displacement/Rotation
*Boundary, amplitude=STROKE
DISP, 1, 1, 0.025
DISP, 2, 2
DISP, 6, 6
**
*adaptive mesh,elset=ADAPTE,freq=1,mesh=1
*adaptive mesh,elset=ADAPTME,freq=1,mesh=1
*adaptive mesh constraint, 
type=velocity,user
ADAPTN,1, ,2.9e-08
ADAPTMN,1, ,1.9e-08
**
** OUTPUT REQUESTS
**
**
** FIELD OUTPUT: F-Output-1
**
*Output, field, number interval=1
*Node Output
CF, RF, U
*Element Output, directions=YES
LE, EE, E, S, COORD
*Contact Output
CDISP, CDSTRESS, CFORCE, CNAREA, CSTATUS, CSTRESS
**
** FIELD OUTPUT: F-Output-2
**
*Node Output, nset=ADAPTN
U, COORD
*Contact Output, nset=ADAPTN
CDISP, CSTRESS
**
** FIELD OUTPUT: F-Output-3
**
*Node Output, nset=QPOINT
RF,
**
** FIELD OUTPUT: F-Output-3
**
**
*Node Output, nset=ADAPTMN
U, COORD
*Contact Output, nset=ADAPTMN
CDISP, CSTRESS
** HISTORY OUTPUT: H-Output-1
**
*Output, history, variable=PRESELECT
*End Step
**
** WEAR BLOCK 150 (cycles 14900 to 15000)
**
*Step, name=CYCLE_150, nlgeom=YES, inc=1000
*Static
1., 41.0, 0.004, 1.
**
** BOUNDARY CONDITIONS
**
** Name: CYLINDER Type: Displacement/Rotation
*Boundary, amplitude=STROKE
DISP, 1, 1, 0.025
DISP, 2, 2
DISP, 6, 6
**
*adaptive mesh,elset=ADAPTE,freq=1,mesh=1
*adaptive mesh,elset=ADAPTME,freq=1,mesh=1
*adaptive mesh constraint, 
type=velocity,user
ADAPTN,1, ,2.9e-08
ADAPTMN,1, ,1.9e-08
**
** OUTPUT REQUESTS
**
**
** FIELD OUTPUT: F-Output-1
**
*Output, field, number interval=1
*Node Output
CF, RF, U
*Element Output, directions=YES
LE, EE, E, S, COORD
*Contact Output
CDISP, CDSTRESS, CFORCE, CNAREA, CSTATUS, CSTRESS
**
** FIELD OUTPUT: F-Output-2
**
*Node Output, nset=ADAPTN
U, COORD
*Contact Output, nset=ADAPTN
CDISP, CSTRESS
**
** FIELD OUTPUT: F-Output-3
**
*Node Output, nset=QPOINT
RF,
**
** FIELD OUTPUT: F-Output-3
**
**
*Node Output, nset=ADAPTMN
U, COORD
*Contact Output, nset=ADAPTMN
CDISP, CSTRESS
** HISTORY OUTPUT: H-Output-1
**
*Output, history, variable=PRESELECT
*End Step
**
** WEAR BLOCK 151 (cycles 15000 to 15100)
**
*Step, name=CYCLE_151, nlgeom=YES, inc=1000
*Static
1., 41.0, 0.004, 1.
**
** BOUNDARY CONDITIONS
**
** Name: CYLINDER Type: Displacement/Rotation
*Boundary, amplitude=STROKE
DISP, 1, 1, 0.025
DISP, 2, 2
DISP, 6, 6
**
*adaptive mesh,elset=ADAPTE,freq=1,mesh=1
*adaptive mesh,elset=ADAPTME,freq=1,mesh=1
*adaptive mesh constraint, 
type=velocity,user
ADAPTN,1, ,2.9e-08
ADAPTMN,1, ,1.9e-08
**
** OUTPUT REQUESTS
**
**
** FIELD OUTPUT: F-Output-1
**
*Output, field, number interval=1
*Node Output
CF, RF, U
*Element Output, directions=YES
LE, EE, E, S, COORD
*Contact Output
CDISP, CDSTRESS, CFORCE, CNAREA, CSTATUS, CSTRESS
**
** FIELD OUTPUT: F-Output-2
**
*Node Output, nset=ADAPTN
U, COORD
*Contact Output, nset=ADAPTN
CDISP, CSTRESS
**
** FIELD OUTPUT: F-Output-3
**
*Node Output, nset=QPOINT
RF,
**
** FIELD OUTPUT: F-Output-3
**
**
*Node Output, nset=ADAPTMN
U, COORD
*Contact Output, nset=ADAPTMN
CDISP, CSTRESS
** HISTORY OUTPUT: H-Output-1
**
*Output, history, variable=PRESELECT
*End Step
**
** WEAR BLOCK 152 (cycles 15100 to 15200)
**
*Step, name=CYCLE_152, nlgeom=YES, inc=1000
*Static
1., 41.0, 0.004, 1.
**
** BOUNDARY CONDITIONS
**
** Name: CYLINDER Type: Displacement/Rotation
*Boundary, amplitude=STROKE
DISP, 1, 1, 0.025
DISP, 2, 2
DISP, 6, 6
**
*adaptive mesh,elset=ADAPTE,freq=1,mesh=1
*adaptive mesh,elset=ADAPTME,freq=1,mesh=1
*adaptive mesh constraint, 
type=velocity,user
ADAPTN,1, ,2.9e-08
ADAPTMN,1, ,1.9e-08
**
** OUTPUT REQUESTS
**
**
** FIELD OUTPUT: F-Output-1
**
*Output, field, number interval=1
*Node Output
CF, RF, U
*Element Output, directions=YES
LE, EE, E, S, COORD
*Contact Output
CDISP, CDSTRESS, CFORCE, CNAREA, CSTATUS, CSTRESS
**
** FIELD OUTPUT: F-Output-2
**
*Node Output, nset=ADAPTN
U, COORD
*Contact Output, nset=ADAPTN
CDISP, CSTRESS
**
** FIELD OUTPUT: F-Output-3
**
*Node Output, nset=QPOINT
RF,
**
** FIELD OUTPUT: F-Output-3
**
**
*Node Output, nset=ADAPTMN
U, COORD
*Contact Output, nset=ADAPTMN
CDISP, CSTRESS
** HISTORY OUTPUT: H-Output-1
**
*Output, history, variable=PRESELECT
*End Step
**
** WEAR BLOCK 153 (cycles 15200 to 15300)
**
*Step, name=CYCLE_153, nlgeom=YES, inc=1000
*Static
1., 41.0, 0.004, 1.
**
** BOUNDARY CONDITIONS
**
** Name: CYLINDER Type: Displacement/Rotation
*Boundary, amplitude=STROKE
DISP, 1, 1, 0.025
DISP, 2, 2
DISP, 6, 6
**
*adaptive mesh,elset=ADAPTE,freq=1,mesh=1
*adaptive mesh,elset=ADAPTME,freq=1,mesh=1
*adaptive mesh constraint, 
type=velocity,user
ADAPTN,1, ,2.9e-08
ADAPTMN,1, ,1.9e-08
**
** OUTPUT REQUESTS
**
**
** FIELD OUTPUT: F-Output-1
**
*Output, field, number interval=1
*Node Output
CF, RF, U
*Element Output, directions=YES
LE, EE, E, S, COORD
*Contact Output
CDISP, CDSTRESS, CFORCE, CNAREA, CSTATUS, CSTRESS
**
** FIELD OUTPUT: F-Output-2
**
*Node Output, nset=ADAPTN
U, COORD
*Contact Output, nset=ADAPTN
CDISP, CSTRESS
**
** FIELD OUTPUT: F-Output-3
**
*Node Output, nset=QPOINT
RF,
**
** FIELD OUTPUT: F-Output-3
**
**
*Node Output, nset=ADAPTMN
U, COORD
*Contact Output, nset=ADAPTMN
CDISP, CSTRESS
** HISTORY OUTPUT: H-Output-1
**
*Output, history, variable=PRESELECT
*End Step
**
** WEAR BLOCK 154 (cycles 15300 to 15400)
**
*Step, name=CYCLE_154, nlgeom=YES, inc=1000
*Static
1., 41.0, 0.004, 1.
**
** BOUNDARY CONDITIONS
**
** Name: CYLINDER Type: Displacement/Rotation
*Boundary, amplitude=STROKE
DISP, 1, 1, 0.025
DISP, 2, 2
DISP, 6, 6
**
*adaptive mesh,elset=ADAPTE,freq=1,mesh=1
*adaptive mesh,elset=ADAPTME,freq=1,mesh=1
*adaptive mesh constraint, 
type=velocity,user
ADAPTN,1, ,2.9e-08
ADAPTMN,1, ,1.9e-08
**
** OUTPUT REQUESTS
**
**
** FIELD OUTPUT: F-Output-1
**
*Output, field, number interval=1
*Node Output
CF, RF, U
*Element Output, directions=YES
LE, EE, E, S, COORD
*Contact Output
CDISP, CDSTRESS, CFORCE, CNAREA, CSTATUS, CSTRESS
**
** FIELD OUTPUT: F-Output-2
**
*Node Output, nset=ADAPTN
U, COORD
*Contact Output, nset=ADAPTN
CDISP, CSTRESS
**
** FIELD OUTPUT: F-Output-3
**
*Node Output, nset=QPOINT
RF,
**
** FIELD OUTPUT: F-Output-3
**
**
*Node Output, nset=ADAPTMN
U, COORD
*Contact Output, nset=ADAPTMN
CDISP, CSTRESS
** HISTORY OUTPUT: H-Output-1
**
*Output, history, variable=PRESELECT
*End Step
**
** WEAR BLOCK 155 (cycles 15400 to 15500)
**
*Step, name=CYCLE_155, nlgeom=YES, inc=1000
*Static
1., 41.0, 0.004, 1.
**
** BOUNDARY CONDITIONS
**
** Name: CYLINDER Type: Displacement/Rotation
*Boundary, amplitude=STROKE
DISP, 1, 1, 0.025
DISP, 2, 2
DISP, 6, 6
**
*adaptive mesh,elset=ADAPTE,freq=1,mesh=1
*adaptive mesh,elset=ADAPTME,freq=1,mesh=1
*adaptive mesh constraint, 
type=velocity,user
ADAPTN,1, ,2.9e-08
ADAPTMN,1, ,1.9e-08
**
** OUTPUT REQUESTS
**
**
** FIELD OUTPUT: F-Output-1
**
*Output, field, number interval=1
*Node Output
CF, RF, U
*Element Output, directions=YES
LE, EE, E, S, COORD
*Contact Output
CDISP, CDSTRESS, CFORCE, CNAREA, CSTATUS, CSTRESS
**
** FIELD OUTPUT: F-Output-2
**
*Node Output, nset=ADAPTN
U, COORD
*Contact Output, nset=ADAPTN
CDISP, CSTRESS
**
** FIELD OUTPUT: F-Output-3
**
*Node Output, nset=QPOINT
RF,
**
** FIELD OUTPUT: F-Output-3
**
**
*Node Output, nset=ADAPTMN
U, COORD
*Contact Output, nset=ADAPTMN
CDISP, CSTRESS
** HISTORY OUTPUT: H-Output-1
**
*Output, history, variable=PRESELECT
*End Step
**
** WEAR BLOCK 156 (cycles 15500 to 15600)
**
*Step, name=CYCLE_156, nlgeom=YES, inc=1000
*Static
1., 41.0, 0.004, 1.
**
** BOUNDARY CONDITIONS
**
** Name: CYLINDER Type: Displacement/Rotation
*Boundary, amplitude=STROKE
DISP, 1, 1, 0.025
DISP, 2, 2
DISP, 6, 6
**
*adaptive mesh,elset=ADAPTE,freq=1,mesh=1
*adaptive mesh,elset=ADAPTME,freq=1,mesh=1
*adaptive mesh constraint, 
type=velocity,user
ADAPTN,1, ,2.9e-08
ADAPTMN,1, ,1.9e-08
**
** OUTPUT REQUESTS
**
**
** FIELD OUTPUT: F-Output-1
**
*Output, field, number interval=1
*Node Output
CF, RF, U
*Element Output, directions=YES
LE, EE, E, S, COORD
*Contact Output
CDISP, CDSTRESS, CFORCE, CNAREA, CSTATUS, CSTRESS
**
** FIELD OUTPUT: F-Output-2
**
*Node Output, nset=ADAPTN
U, COORD
*Contact Output, nset=ADAPTN
CDISP, CSTRESS
**
** FIELD OUTPUT: F-Output-3
**
*Node Output, nset=QPOINT
RF,
**
** FIELD OUTPUT: F-Output-3
**
**
*Node Output, nset=ADAPTMN
U, COORD
*Contact Output, nset=ADAPTMN
CDISP, CSTRESS
** HISTORY OUTPUT: H-Output-1
**
*Output, history, variable=PRESELECT
*End Step
**
** WEAR BLOCK 157 (cycles 15600 to 15700)
**
*Step, name=CYCLE_157, nlgeom=YES, inc=1000
*Static
1., 41.0, 0.004, 1.
**
** BOUNDARY CONDITIONS
**
** Name: CYLINDER Type: Displacement/Rotation
*Boundary, amplitude=STROKE
DISP, 1, 1, 0.025
DISP, 2, 2
DISP, 6, 6
**
*adaptive mesh,elset=ADAPTE,freq=1,mesh=1
*adaptive mesh,elset=ADAPTME,freq=1,mesh=1
*adaptive mesh constraint, 
type=velocity,user
ADAPTN,1, ,2.9e-08
ADAPTMN,1, ,1.9e-08
**
** OUTPUT REQUESTS
**
**
** FIELD OUTPUT: F-Output-1
**
*Output, field, number interval=1
*Node Output
CF, RF, U
*Element Output, directions=YES
LE, EE, E, S, COORD
*Contact Output
CDISP, CDSTRESS, CFORCE, CNAREA, CSTATUS, CSTRESS
**
** FIELD OUTPUT: F-Output-2
**
*Node Output, nset=ADAPTN
U, COORD
*Contact Output, nset=ADAPTN
CDISP, CSTRESS
**
** FIELD OUTPUT: F-Output-3
**
*Node Output, nset=QPOINT
RF,
**
** FIELD OUTPUT: F-Output-3
**
**
*Node Output, nset=ADAPTMN
U, COORD
*Contact Output, nset=ADAPTMN
CDISP, CSTRESS
** HISTORY OUTPUT: H-Output-1
**
*Output, history, variable=PRESELECT
*End Step
**
** WEAR BLOCK 158 (cycles 15700 to 15800)
**
*Step, name=CYCLE_158, nlgeom=YES, inc=1000
*Static
1., 41.0, 0.004, 1.
**
** BOUNDARY CONDITIONS
**
** Name: CYLINDER Type: Displacement/Rotation
*Boundary, amplitude=STROKE
DISP, 1, 1, 0.025
DISP, 2, 2
DISP, 6, 6
**
*adaptive mesh,elset=ADAPTE,freq=1,mesh=1
*adaptive mesh,elset=ADAPTME,freq=1,mesh=1
*adaptive mesh constraint, 
type=velocity,user
ADAPTN,1, ,2.9e-08
ADAPTMN,1, ,1.9e-08
**
** OUTPUT REQUESTS
**
**
** FIELD OUTPUT: F-Output-1
**
*Output, field, number interval=1
*Node Output
CF, RF, U
*Element Output, directions=YES
LE, EE, E, S, COORD
*Contact Output
CDISP, CDSTRESS, CFORCE, CNAREA, CSTATUS, CSTRESS
**
** FIELD OUTPUT: F-Output-2
**
*Node Output, nset=ADAPTN
U, COORD
*Contact Output, nset=ADAPTN
CDISP, CSTRESS
**
** FIELD OUTPUT: F-Output-3
**
*Node Output, nset=QPOINT
RF,
**
** FIELD OUTPUT: F-Output-3
**
**
*Node Output, nset=ADAPTMN
U, COORD
*Contact Output, nset=ADAPTMN
CDISP, CSTRESS
** HISTORY OUTPUT: H-Output-1
**
*Output, history, variable=PRESELECT
*End Step
**
** WEAR BLOCK 159 (cycles 15800 to 15900)
**
*Step, name=CYCLE_159, nlgeom=YES, inc=1000
*Static
1., 41.0, 0.004, 1.
**
** BOUNDARY CONDITIONS
**
** Name: CYLINDER Type: Displacement/Rotation
*Boundary, amplitude=STROKE
DISP, 1, 1, 0.025
DISP, 2, 2
DISP, 6, 6
**
*adaptive mesh,elset=ADAPTE,freq=1,mesh=1
*adaptive mesh,elset=ADAPTME,freq=1,mesh=1
*adaptive mesh constraint, 
type=velocity,user
ADAPTN,1, ,2.9e-08
ADAPTMN,1, ,1.9e-08
**
** OUTPUT REQUESTS
**
**
** FIELD OUTPUT: F-Output-1
**
*Output, field, number interval=1
*Node Output
CF, RF, U
*Element Output, directions=YES
LE, EE, E, S, COORD
*Contact Output
CDISP, CDSTRESS, CFORCE, CNAREA, CSTATUS, CSTRESS
**
** FIELD OUTPUT: F-Output-2
**
*Node Output, nset=ADAPTN
U, COORD
*Contact Output, nset=ADAPTN
CDISP, CSTRESS
**
** FIELD OUTPUT: F-Output-3
**
*Node Output, nset=QPOINT
RF,
**
** FIELD OUTPUT: F-Output-3
**
**
*Node Output, nset=ADAPTMN
U, COORD
*Contact Output, nset=ADAPTMN
CDISP, CSTRESS
** HISTORY OUTPUT: H-Output-1
**
*Output, history, variable=PRESELECT
*End Step
**
** WEAR BLOCK 160 (cycles 15900 to 16000)
**
*Step, name=CYCLE_160, nlgeom=YES, inc=1000
*Static
1., 41.0, 0.004, 1.
**
** BOUNDARY CONDITIONS
**
** Name: CYLINDER Type: Displacement/Rotation
*Boundary, amplitude=STROKE
DISP, 1, 1, 0.025
DISP, 2, 2
DISP, 6, 6
**
*adaptive mesh,elset=ADAPTE,freq=1,mesh=1
*adaptive mesh,elset=ADAPTME,freq=1,mesh=1
*adaptive mesh constraint, 
type=velocity,user
ADAPTN,1, ,2.9e-08
ADAPTMN,1, ,1.9e-08
**
** OUTPUT REQUESTS
**
**
** FIELD OUTPUT: F-Output-1
**
*Output, field, number interval=1
*Node Output
CF, RF, U
*Element Output, directions=YES
LE, EE, E, S, COORD
*Contact Output
CDISP, CDSTRESS, CFORCE, CNAREA, CSTATUS, CSTRESS
**
** FIELD OUTPUT: F-Output-2
**
*Node Output, nset=ADAPTN
U, COORD
*Contact Output, nset=ADAPTN
CDISP, CSTRESS
**
** FIELD OUTPUT: F-Output-3
**
*Node Output, nset=QPOINT
RF,
**
** FIELD OUTPUT: F-Output-3
**
**
*Node Output, nset=ADAPTMN
U, COORD
*Contact Output, nset=ADAPTMN
CDISP, CSTRESS
** HISTORY OUTPUT: H-Output-1
**
*Output, history, variable=PRESELECT
*End Step
**
** WEAR BLOCK 161 (cycles 16000 to 16100)
**
*Step, name=CYCLE_161, nlgeom=YES, inc=1000
*Static
1., 41.0, 0.004, 1.
**
** BOUNDARY CONDITIONS
**
** Name: CYLINDER Type: Displacement/Rotation
*Boundary, amplitude=STROKE
DISP, 1, 1, 0.025
DISP, 2, 2
DISP, 6, 6
**
*adaptive mesh,elset=ADAPTE,freq=1,mesh=1
*adaptive mesh,elset=ADAPTME,freq=1,mesh=1
*adaptive mesh constraint, 
type=velocity,user
ADAPTN,1, ,2.9e-08
ADAPTMN,1, ,1.9e-08
**
** OUTPUT REQUESTS
**
**
** FIELD OUTPUT: F-Output-1
**
*Output, field, number interval=1
*Node Output
CF, RF, U
*Element Output, directions=YES
LE, EE, E, S, COORD
*Contact Output
CDISP, CDSTRESS, CFORCE, CNAREA, CSTATUS, CSTRESS
**
** FIELD OUTPUT: F-Output-2
**
*Node Output, nset=ADAPTN
U, COORD
*Contact Output, nset=ADAPTN
CDISP, CSTRESS
**
** FIELD OUTPUT: F-Output-3
**
*Node Output, nset=QPOINT
RF,
**
** FIELD OUTPUT: F-Output-3
**
**
*Node Output, nset=ADAPTMN
U, COORD
*Contact Output, nset=ADAPTMN
CDISP, CSTRESS
** HISTORY OUTPUT: H-Output-1
**
*Output, history, variable=PRESELECT
*End Step
**
** WEAR BLOCK 162 (cycles 16100 to 16200)
**
*Step, name=CYCLE_162, nlgeom=YES, inc=1000
*Static
1., 41.0, 0.004, 1.
**
** BOUNDARY CONDITIONS
**
** Name: CYLINDER Type: Displacement/Rotation
*Boundary, amplitude=STROKE
DISP, 1, 1, 0.025
DISP, 2, 2
DISP, 6, 6
**
*adaptive mesh,elset=ADAPTE,freq=1,mesh=1
*adaptive mesh,elset=ADAPTME,freq=1,mesh=1
*adaptive mesh constraint, 
type=velocity,user
ADAPTN,1, ,2.9e-08
ADAPTMN,1, ,1.9e-08
**
** OUTPUT REQUESTS
**
**
** FIELD OUTPUT: F-Output-1
**
*Output, field, number interval=1
*Node Output
CF, RF, U
*Element Output, directions=YES
LE, EE, E, S, COORD
*Contact Output
CDISP, CDSTRESS, CFORCE, CNAREA, CSTATUS, CSTRESS
**
** FIELD OUTPUT: F-Output-2
**
*Node Output, nset=ADAPTN
U, COORD
*Contact Output, nset=ADAPTN
CDISP, CSTRESS
**
** FIELD OUTPUT: F-Output-3
**
*Node Output, nset=QPOINT
RF,
**
** FIELD OUTPUT: F-Output-3
**
**
*Node Output, nset=ADAPTMN
U, COORD
*Contact Output, nset=ADAPTMN
CDISP, CSTRESS
** HISTORY OUTPUT: H-Output-1
**
*Output, history, variable=PRESELECT
*End Step
**
** WEAR BLOCK 163 (cycles 16200 to 16300)
**
*Step, name=CYCLE_163, nlgeom=YES, inc=1000
*Static
1., 41.0, 0.004, 1.
**
** BOUNDARY CONDITIONS
**
** Name: CYLINDER Type: Displacement/Rotation
*Boundary, amplitude=STROKE
DISP, 1, 1, 0.025
DISP, 2, 2
DISP, 6, 6
**
*adaptive mesh,elset=ADAPTE,freq=1,mesh=1
*adaptive mesh,elset=ADAPTME,freq=1,mesh=1
*adaptive mesh constraint, 
type=velocity,user
ADAPTN,1, ,2.9e-08
ADAPTMN,1, ,1.9e-08
**
** OUTPUT REQUESTS
**
**
** FIELD OUTPUT: F-Output-1
**
*Output, field, number interval=1
*Node Output
CF, RF, U
*Element Output, directions=YES
LE, EE, E, S, COORD
*Contact Output
CDISP, CDSTRESS, CFORCE, CNAREA, CSTATUS, CSTRESS
**
** FIELD OUTPUT: F-Output-2
**
*Node Output, nset=ADAPTN
U, COORD
*Contact Output, nset=ADAPTN
CDISP, CSTRESS
**
** FIELD OUTPUT: F-Output-3
**
*Node Output, nset=QPOINT
RF,
**
** FIELD OUTPUT: F-Output-3
**
**
*Node Output, nset=ADAPTMN
U, COORD
*Contact Output, nset=ADAPTMN
CDISP, CSTRESS
** HISTORY OUTPUT: H-Output-1
**
*Output, history, variable=PRESELECT
*End Step
**
** WEAR BLOCK 164 (cycles 16300 to 16400)
**
*Step, name=CYCLE_164, nlgeom=YES, inc=1000
*Static
1., 41.0, 0.004, 1.
**
** BOUNDARY CONDITIONS
**
** Name: CYLINDER Type: Displacement/Rotation
*Boundary, amplitude=STROKE
DISP, 1, 1, 0.025
DISP, 2, 2
DISP, 6, 6
**
*adaptive mesh,elset=ADAPTE,freq=1,mesh=1
*adaptive mesh,elset=ADAPTME,freq=1,mesh=1
*adaptive mesh constraint, 
type=velocity,user
ADAPTN,1, ,2.9e-08
ADAPTMN,1, ,1.9e-08
**
** OUTPUT REQUESTS
**
**
** FIELD OUTPUT: F-Output-1
**
*Output, field, number interval=1
*Node Output
CF, RF, U
*Element Output, directions=YES
LE, EE, E, S, COORD
*Contact Output
CDISP, CDSTRESS, CFORCE, CNAREA, CSTATUS, CSTRESS
**
** FIELD OUTPUT: F-Output-2
**
*Node Output, nset=ADAPTN
U, COORD
*Contact Output, nset=ADAPTN
CDISP, CSTRESS
**
** FIELD OUTPUT: F-Output-3
**
*Node Output, nset=QPOINT
RF,
**
** FIELD OUTPUT: F-Output-3
**
**
*Node Output, nset=ADAPTMN
U, COORD
*Contact Output, nset=ADAPTMN
CDISP, CSTRESS
** HISTORY OUTPUT: H-Output-1
**
*Output, history, variable=PRESELECT
*End Step
**
** WEAR BLOCK 165 (cycles 16400 to 16500)
**
*Step, name=CYCLE_165, nlgeom=YES, inc=1000
*Static
1., 41.0, 0.004, 1.
**
** BOUNDARY CONDITIONS
**
** Name: CYLINDER Type: Displacement/Rotation
*Boundary, amplitude=STROKE
DISP, 1, 1, 0.025
DISP, 2, 2
DISP, 6, 6
**
*adaptive mesh,elset=ADAPTE,freq=1,mesh=1
*adaptive mesh,elset=ADAPTME,freq=1,mesh=1
*adaptive mesh constraint, 
type=velocity,user
ADAPTN,1, ,2.9e-08
ADAPTMN,1, ,1.9e-08
**
** OUTPUT REQUESTS
**
**
** FIELD OUTPUT: F-Output-1
**
*Output, field, number interval=1
*Node Output
CF, RF, U
*Element Output, directions=YES
LE, EE, E, S, COORD
*Contact Output
CDISP, CDSTRESS, CFORCE, CNAREA, CSTATUS, CSTRESS
**
** FIELD OUTPUT: F-Output-2
**
*Node Output, nset=ADAPTN
U, COORD
*Contact Output, nset=ADAPTN
CDISP, CSTRESS
**
** FIELD OUTPUT: F-Output-3
**
*Node Output, nset=QPOINT
RF,
**
** FIELD OUTPUT: F-Output-3
**
**
*Node Output, nset=ADAPTMN
U, COORD
*Contact Output, nset=ADAPTMN
CDISP, CSTRESS
** HISTORY OUTPUT: H-Output-1
**
*Output, history, variable=PRESELECT
*End Step
**
** WEAR BLOCK 166 (cycles 16500 to 16600)
**
*Step, name=CYCLE_166, nlgeom=YES, inc=1000
*Static
1., 41.0, 0.004, 1.
**
** BOUNDARY CONDITIONS
**
** Name: CYLINDER Type: Displacement/Rotation
*Boundary, amplitude=STROKE
DISP, 1, 1, 0.025
DISP, 2, 2
DISP, 6, 6
**
*adaptive mesh,elset=ADAPTE,freq=1,mesh=1
*adaptive mesh,elset=ADAPTME,freq=1,mesh=1
*adaptive mesh constraint, 
type=velocity,user
ADAPTN,1, ,2.9e-08
ADAPTMN,1, ,1.9e-08
**
** OUTPUT REQUESTS
**
**
** FIELD OUTPUT: F-Output-1
**
*Output, field, number interval=1
*Node Output
CF, RF, U
*Element Output, directions=YES
LE, EE, E, S, COORD
*Contact Output
CDISP, CDSTRESS, CFORCE, CNAREA, CSTATUS, CSTRESS
**
** FIELD OUTPUT: F-Output-2
**
*Node Output, nset=ADAPTN
U, COORD
*Contact Output, nset=ADAPTN
CDISP, CSTRESS
**
** FIELD OUTPUT: F-Output-3
**
*Node Output, nset=QPOINT
RF,
**
** FIELD OUTPUT: F-Output-3
**
**
*Node Output, nset=ADAPTMN
U, COORD
*Contact Output, nset=ADAPTMN
CDISP, CSTRESS
** HISTORY OUTPUT: H-Output-1
**
*Output, history, variable=PRESELECT
*End Step
**
** WEAR BLOCK 167 (cycles 16600 to 16700)
**
*Step, name=CYCLE_167, nlgeom=YES, inc=1000
*Static
1., 41.0, 0.004, 1.
**
** BOUNDARY CONDITIONS
**
** Name: CYLINDER Type: Displacement/Rotation
*Boundary, amplitude=STROKE
DISP, 1, 1, 0.025
DISP, 2, 2
DISP, 6, 6
**
*adaptive mesh,elset=ADAPTE,freq=1,mesh=1
*adaptive mesh,elset=ADAPTME,freq=1,mesh=1
*adaptive mesh constraint, 
type=velocity,user
ADAPTN,1, ,2.9e-08
ADAPTMN,1, ,1.9e-08
**
** OUTPUT REQUESTS
**
**
** FIELD OUTPUT: F-Output-1
**
*Output, field, number interval=1
*Node Output
CF, RF, U
*Element Output, directions=YES
LE, EE, E, S, COORD
*Contact Output
CDISP, CDSTRESS, CFORCE, CNAREA, CSTATUS, CSTRESS
**
** FIELD OUTPUT: F-Output-2
**
*Node Output, nset=ADAPTN
U, COORD
*Contact Output, nset=ADAPTN
CDISP, CSTRESS
**
** FIELD OUTPUT: F-Output-3
**
*Node Output, nset=QPOINT
RF,
**
** FIELD OUTPUT: F-Output-3
**
**
*Node Output, nset=ADAPTMN
U, COORD
*Contact Output, nset=ADAPTMN
CDISP, CSTRESS
** HISTORY OUTPUT: H-Output-1
**
*Output, history, variable=PRESELECT
*End Step
**
** WEAR BLOCK 168 (cycles 16700 to 16800)
**
*Step, name=CYCLE_168, nlgeom=YES, inc=1000
*Static
1., 41.0, 0.004, 1.
**
** BOUNDARY CONDITIONS
**
** Name: CYLINDER Type: Displacement/Rotation
*Boundary, amplitude=STROKE
DISP, 1, 1, 0.025
DISP, 2, 2
DISP, 6, 6
**
*adaptive mesh,elset=ADAPTE,freq=1,mesh=1
*adaptive mesh,elset=ADAPTME,freq=1,mesh=1
*adaptive mesh constraint, 
type=velocity,user
ADAPTN,1, ,2.9e-08
ADAPTMN,1, ,1.9e-08
**
** OUTPUT REQUESTS
**
**
** FIELD OUTPUT: F-Output-1
**
*Output, field, number interval=1
*Node Output
CF, RF, U
*Element Output, directions=YES
LE, EE, E, S, COORD
*Contact Output
CDISP, CDSTRESS, CFORCE, CNAREA, CSTATUS, CSTRESS
**
** FIELD OUTPUT: F-Output-2
**
*Node Output, nset=ADAPTN
U, COORD
*Contact Output, nset=ADAPTN
CDISP, CSTRESS
**
** FIELD OUTPUT: F-Output-3
**
*Node Output, nset=QPOINT
RF,
**
** FIELD OUTPUT: F-Output-3
**
**
*Node Output, nset=ADAPTMN
U, COORD
*Contact Output, nset=ADAPTMN
CDISP, CSTRESS
** HISTORY OUTPUT: H-Output-1
**
*Output, history, variable=PRESELECT
*End Step
**
** WEAR BLOCK 169 (cycles 16800 to 16900)
**
*Step, name=CYCLE_169, nlgeom=YES, inc=1000
*Static
1., 41.0, 0.004, 1.
**
** BOUNDARY CONDITIONS
**
** Name: CYLINDER Type: Displacement/Rotation
*Boundary, amplitude=STROKE
DISP, 1, 1, 0.025
DISP, 2, 2
DISP, 6, 6
**
*adaptive mesh,elset=ADAPTE,freq=1,mesh=1
*adaptive mesh,elset=ADAPTME,freq=1,mesh=1
*adaptive mesh constraint, 
type=velocity,user
ADAPTN,1, ,2.9e-08
ADAPTMN,1, ,1.9e-08
**
** OUTPUT REQUESTS
**
**
** FIELD OUTPUT: F-Output-1
**
*Output, field, number interval=1
*Node Output
CF, RF, U
*Element Output, directions=YES
LE, EE, E, S, COORD
*Contact Output
CDISP, CDSTRESS, CFORCE, CNAREA, CSTATUS, CSTRESS
**
** FIELD OUTPUT: F-Output-2
**
*Node Output, nset=ADAPTN
U, COORD
*Contact Output, nset=ADAPTN
CDISP, CSTRESS
**
** FIELD OUTPUT: F-Output-3
**
*Node Output, nset=QPOINT
RF,
**
** FIELD OUTPUT: F-Output-3
**
**
*Node Output, nset=ADAPTMN
U, COORD
*Contact Output, nset=ADAPTMN
CDISP, CSTRESS
** HISTORY OUTPUT: H-Output-1
**
*Output, history, variable=PRESELECT
*End Step
**
** WEAR BLOCK 170 (cycles 16900 to 17000)
**
*Step, name=CYCLE_170, nlgeom=YES, inc=1000
*Static
1., 41.0, 0.004, 1.
**
** BOUNDARY CONDITIONS
**
** Name: CYLINDER Type: Displacement/Rotation
*Boundary, amplitude=STROKE
DISP, 1, 1, 0.025
DISP, 2, 2
DISP, 6, 6
**
*adaptive mesh,elset=ADAPTE,freq=1,mesh=1
*adaptive mesh,elset=ADAPTME,freq=1,mesh=1
*adaptive mesh constraint, 
type=velocity,user
ADAPTN,1, ,2.9e-08
ADAPTMN,1, ,1.9e-08
**
** OUTPUT REQUESTS
**
**
** FIELD OUTPUT: F-Output-1
**
*Output, field, number interval=1
*Node Output
CF, RF, U
*Element Output, directions=YES
LE, EE, E, S, COORD
*Contact Output
CDISP, CDSTRESS, CFORCE, CNAREA, CSTATUS, CSTRESS
**
** FIELD OUTPUT: F-Output-2
**
*Node Output, nset=ADAPTN
U, COORD
*Contact Output, nset=ADAPTN
CDISP, CSTRESS
**
** FIELD OUTPUT: F-Output-3
**
*Node Output, nset=QPOINT
RF,
**
** FIELD OUTPUT: F-Output-3
**
**
*Node Output, nset=ADAPTMN
U, COORD
*Contact Output, nset=ADAPTMN
CDISP, CSTRESS
** HISTORY OUTPUT: H-Output-1
**
*Output, history, variable=PRESELECT
*End Step
**
** WEAR BLOCK 171 (cycles 17000 to 17100)
**
*Step, name=CYCLE_171, nlgeom=YES, inc=1000
*Static
1., 41.0, 0.004, 1.
**
** BOUNDARY CONDITIONS
**
** Name: CYLINDER Type: Displacement/Rotation
*Boundary, amplitude=STROKE
DISP, 1, 1, 0.025
DISP, 2, 2
DISP, 6, 6
**
*adaptive mesh,elset=ADAPTE,freq=1,mesh=1
*adaptive mesh,elset=ADAPTME,freq=1,mesh=1
*adaptive mesh constraint, 
type=velocity,user
ADAPTN,1, ,2.9e-08
ADAPTMN,1, ,1.9e-08
**
** OUTPUT REQUESTS
**
**
** FIELD OUTPUT: F-Output-1
**
*Output, field, number interval=1
*Node Output
CF, RF, U
*Element Output, directions=YES
LE, EE, E, S, COORD
*Contact Output
CDISP, CDSTRESS, CFORCE, CNAREA, CSTATUS, CSTRESS
**
** FIELD OUTPUT: F-Output-2
**
*Node Output, nset=ADAPTN
U, COORD
*Contact Output, nset=ADAPTN
CDISP, CSTRESS
**
** FIELD OUTPUT: F-Output-3
**
*Node Output, nset=QPOINT
RF,
**
** FIELD OUTPUT: F-Output-3
**
**
*Node Output, nset=ADAPTMN
U, COORD
*Contact Output, nset=ADAPTMN
CDISP, CSTRESS
** HISTORY OUTPUT: H-Output-1
**
*Output, history, variable=PRESELECT
*End Step
**
** WEAR BLOCK 172 (cycles 17100 to 17200)
**
*Step, name=CYCLE_172, nlgeom=YES, inc=1000
*Static
1., 41.0, 0.004, 1.
**
** BOUNDARY CONDITIONS
**
** Name: CYLINDER Type: Displacement/Rotation
*Boundary, amplitude=STROKE
DISP, 1, 1, 0.025
DISP, 2, 2
DISP, 6, 6
**
*adaptive mesh,elset=ADAPTE,freq=1,mesh=1
*adaptive mesh,elset=ADAPTME,freq=1,mesh=1
*adaptive mesh constraint, 
type=velocity,user
ADAPTN,1, ,2.9e-08
ADAPTMN,1, ,1.9e-08
**
** OUTPUT REQUESTS
**
**
** FIELD OUTPUT: F-Output-1
**
*Output, field, number interval=1
*Node Output
CF, RF, U
*Element Output, directions=YES
LE, EE, E, S, COORD
*Contact Output
CDISP, CDSTRESS, CFORCE, CNAREA, CSTATUS, CSTRESS
**
** FIELD OUTPUT: F-Output-2
**
*Node Output, nset=ADAPTN
U, COORD
*Contact Output, nset=ADAPTN
CDISP, CSTRESS
**
** FIELD OUTPUT: F-Output-3
**
*Node Output, nset=QPOINT
RF,
**
** FIELD OUTPUT: F-Output-3
**
**
*Node Output, nset=ADAPTMN
U, COORD
*Contact Output, nset=ADAPTMN
CDISP, CSTRESS
** HISTORY OUTPUT: H-Output-1
**
*Output, history, variable=PRESELECT
*End Step
**
** WEAR BLOCK 173 (cycles 17200 to 17300)
**
*Step, name=CYCLE_173, nlgeom=YES, inc=1000
*Static
1., 41.0, 0.004, 1.
**
** BOUNDARY CONDITIONS
**
** Name: CYLINDER Type: Displacement/Rotation
*Boundary, amplitude=STROKE
DISP, 1, 1, 0.025
DISP, 2, 2
DISP, 6, 6
**
*adaptive mesh,elset=ADAPTE,freq=1,mesh=1
*adaptive mesh,elset=ADAPTME,freq=1,mesh=1
*adaptive mesh constraint, 
type=velocity,user
ADAPTN,1, ,2.9e-08
ADAPTMN,1, ,1.9e-08
**
** OUTPUT REQUESTS
**
**
** FIELD OUTPUT: F-Output-1
**
*Output, field, number interval=1
*Node Output
CF, RF, U
*Element Output, directions=YES
LE, EE, E, S, COORD
*Contact Output
CDISP, CDSTRESS, CFORCE, CNAREA, CSTATUS, CSTRESS
**
** FIELD OUTPUT: F-Output-2
**
*Node Output, nset=ADAPTN
U, COORD
*Contact Output, nset=ADAPTN
CDISP, CSTRESS
**
** FIELD OUTPUT: F-Output-3
**
*Node Output, nset=QPOINT
RF,
**
** FIELD OUTPUT: F-Output-3
**
**
*Node Output, nset=ADAPTMN
U, COORD
*Contact Output, nset=ADAPTMN
CDISP, CSTRESS
** HISTORY OUTPUT: H-Output-1
**
*Output, history, variable=PRESELECT
*End Step
**
** WEAR BLOCK 174 (cycles 17300 to 17400)
**
*Step, name=CYCLE_174, nlgeom=YES, inc=1000
*Static
1., 41.0, 0.004, 1.
**
** BOUNDARY CONDITIONS
**
** Name: CYLINDER Type: Displacement/Rotation
*Boundary, amplitude=STROKE
DISP, 1, 1, 0.025
DISP, 2, 2
DISP, 6, 6
**
*adaptive mesh,elset=ADAPTE,freq=1,mesh=1
*adaptive mesh,elset=ADAPTME,freq=1,mesh=1
*adaptive mesh constraint, 
type=velocity,user
ADAPTN,1, ,2.9e-08
ADAPTMN,1, ,1.9e-08
**
** OUTPUT REQUESTS
**
**
** FIELD OUTPUT: F-Output-1
**
*Output, field, number interval=1
*Node Output
CF, RF, U
*Element Output, directions=YES
LE, EE, E, S, COORD
*Contact Output
CDISP, CDSTRESS, CFORCE, CNAREA, CSTATUS, CSTRESS
**
** FIELD OUTPUT: F-Output-2
**
*Node Output, nset=ADAPTN
U, COORD
*Contact Output, nset=ADAPTN
CDISP, CSTRESS
**
** FIELD OUTPUT: F-Output-3
**
*Node Output, nset=QPOINT
RF,
**
** FIELD OUTPUT: F-Output-3
**
**
*Node Output, nset=ADAPTMN
U, COORD
*Contact Output, nset=ADAPTMN
CDISP, CSTRESS
** HISTORY OUTPUT: H-Output-1
**
*Output, history, variable=PRESELECT
*End Step
**
** WEAR BLOCK 175 (cycles 17400 to 17500)
**
*Step, name=CYCLE_175, nlgeom=YES, inc=1000
*Static
1., 41.0, 0.004, 1.
**
** BOUNDARY CONDITIONS
**
** Name: CYLINDER Type: Displacement/Rotation
*Boundary, amplitude=STROKE
DISP, 1, 1, 0.025
DISP, 2, 2
DISP, 6, 6
**
*adaptive mesh,elset=ADAPTE,freq=1,mesh=1
*adaptive mesh,elset=ADAPTME,freq=1,mesh=1
*adaptive mesh constraint, 
type=velocity,user
ADAPTN,1, ,2.9e-08
ADAPTMN,1, ,1.9e-08
**
** OUTPUT REQUESTS
**
**
** FIELD OUTPUT: F-Output-1
**
*Output, field, number interval=1
*Node Output
CF, RF, U
*Element Output, directions=YES
LE, EE, E, S, COORD
*Contact Output
CDISP, CDSTRESS, CFORCE, CNAREA, CSTATUS, CSTRESS
**
** FIELD OUTPUT: F-Output-2
**
*Node Output, nset=ADAPTN
U, COORD
*Contact Output, nset=ADAPTN
CDISP, CSTRESS
**
** FIELD OUTPUT: F-Output-3
**
*Node Output, nset=QPOINT
RF,
**
** FIELD OUTPUT: F-Output-3
**
**
*Node Output, nset=ADAPTMN
U, COORD
*Contact Output, nset=ADAPTMN
CDISP, CSTRESS
** HISTORY OUTPUT: H-Output-1
**
*Output, history, variable=PRESELECT
*End Step
**
** WEAR BLOCK 176 (cycles 17500 to 17600)
**
*Step, name=CYCLE_176, nlgeom=YES, inc=1000
*Static
1., 41.0, 0.004, 1.
**
** BOUNDARY CONDITIONS
**
** Name: CYLINDER Type: Displacement/Rotation
*Boundary, amplitude=STROKE
DISP, 1, 1, 0.025
DISP, 2, 2
DISP, 6, 6
**
*adaptive mesh,elset=ADAPTE,freq=1,mesh=1
*adaptive mesh,elset=ADAPTME,freq=1,mesh=1
*adaptive mesh constraint, 
type=velocity,user
ADAPTN,1, ,2.9e-08
ADAPTMN,1, ,1.9e-08
**
** OUTPUT REQUESTS
**
**
** FIELD OUTPUT: F-Output-1
**
*Output, field, number interval=1
*Node Output
CF, RF, U
*Element Output, directions=YES
LE, EE, E, S, COORD
*Contact Output
CDISP, CDSTRESS, CFORCE, CNAREA, CSTATUS, CSTRESS
**
** FIELD OUTPUT: F-Output-2
**
*Node Output, nset=ADAPTN
U, COORD
*Contact Output, nset=ADAPTN
CDISP, CSTRESS
**
** FIELD OUTPUT: F-Output-3
**
*Node Output, nset=QPOINT
RF,
**
** FIELD OUTPUT: F-Output-3
**
**
*Node Output, nset=ADAPTMN
U, COORD
*Contact Output, nset=ADAPTMN
CDISP, CSTRESS
** HISTORY OUTPUT: H-Output-1
**
*Output, history, variable=PRESELECT
*End Step
**
** WEAR BLOCK 177 (cycles 17600 to 17700)
**
*Step, name=CYCLE_177, nlgeom=YES, inc=1000
*Static
1., 41.0, 0.004, 1.
**
** BOUNDARY CONDITIONS
**
** Name: CYLINDER Type: Displacement/Rotation
*Boundary, amplitude=STROKE
DISP, 1, 1, 0.025
DISP, 2, 2
DISP, 6, 6
**
*adaptive mesh,elset=ADAPTE,freq=1,mesh=1
*adaptive mesh,elset=ADAPTME,freq=1,mesh=1
*adaptive mesh constraint, 
type=velocity,user
ADAPTN,1, ,2.9e-08
ADAPTMN,1, ,1.9e-08
**
** OUTPUT REQUESTS
**
**
** FIELD OUTPUT: F-Output-1
**
*Output, field, number interval=1
*Node Output
CF, RF, U
*Element Output, directions=YES
LE, EE, E, S, COORD
*Contact Output
CDISP, CDSTRESS, CFORCE, CNAREA, CSTATUS, CSTRESS
**
** FIELD OUTPUT: F-Output-2
**
*Node Output, nset=ADAPTN
U, COORD
*Contact Output, nset=ADAPTN
CDISP, CSTRESS
**
** FIELD OUTPUT: F-Output-3
**
*Node Output, nset=QPOINT
RF,
**
** FIELD OUTPUT: F-Output-3
**
**
*Node Output, nset=ADAPTMN
U, COORD
*Contact Output, nset=ADAPTMN
CDISP, CSTRESS
** HISTORY OUTPUT: H-Output-1
**
*Output, history, variable=PRESELECT
*End Step
**
** WEAR BLOCK 178 (cycles 17700 to 17800)
**
*Step, name=CYCLE_178, nlgeom=YES, inc=1000
*Static
1., 41.0, 0.004, 1.
**
** BOUNDARY CONDITIONS
**
** Name: CYLINDER Type: Displacement/Rotation
*Boundary, amplitude=STROKE
DISP, 1, 1, 0.025
DISP, 2, 2
DISP, 6, 6
**
*adaptive mesh,elset=ADAPTE,freq=1,mesh=1
*adaptive mesh,elset=ADAPTME,freq=1,mesh=1
*adaptive mesh constraint, 
type=velocity,user
ADAPTN,1, ,2.9e-08
ADAPTMN,1, ,1.9e-08
**
** OUTPUT REQUESTS
**
**
** FIELD OUTPUT: F-Output-1
**
*Output, field, number interval=1
*Node Output
CF, RF, U
*Element Output, directions=YES
LE, EE, E, S, COORD
*Contact Output
CDISP, CDSTRESS, CFORCE, CNAREA, CSTATUS, CSTRESS
**
** FIELD OUTPUT: F-Output-2
**
*Node Output, nset=ADAPTN
U, COORD
*Contact Output, nset=ADAPTN
CDISP, CSTRESS
**
** FIELD OUTPUT: F-Output-3
**
*Node Output, nset=QPOINT
RF,
**
** FIELD OUTPUT: F-Output-3
**
**
*Node Output, nset=ADAPTMN
U, COORD
*Contact Output, nset=ADAPTMN
CDISP, CSTRESS
** HISTORY OUTPUT: H-Output-1
**
*Output, history, variable=PRESELECT
*End Step
**
** WEAR BLOCK 179 (cycles 17800 to 17900)
**
*Step, name=CYCLE_179, nlgeom=YES, inc=1000
*Static
1., 41.0, 0.004, 1.
**
** BOUNDARY CONDITIONS
**
** Name: CYLINDER Type: Displacement/Rotation
*Boundary, amplitude=STROKE
DISP, 1, 1, 0.025
DISP, 2, 2
DISP, 6, 6
**
*adaptive mesh,elset=ADAPTE,freq=1,mesh=1
*adaptive mesh,elset=ADAPTME,freq=1,mesh=1
*adaptive mesh constraint, 
type=velocity,user
ADAPTN,1, ,2.9e-08
ADAPTMN,1, ,1.9e-08
**
** OUTPUT REQUESTS
**
**
** FIELD OUTPUT: F-Output-1
**
*Output, field, number interval=1
*Node Output
CF, RF, U
*Element Output, directions=YES
LE, EE, E, S, COORD
*Contact Output
CDISP, CDSTRESS, CFORCE, CNAREA, CSTATUS, CSTRESS
**
** FIELD OUTPUT: F-Output-2
**
*Node Output, nset=ADAPTN
U, COORD
*Contact Output, nset=ADAPTN
CDISP, CSTRESS
**
** FIELD OUTPUT: F-Output-3
**
*Node Output, nset=QPOINT
RF,
**
** FIELD OUTPUT: F-Output-3
**
**
*Node Output, nset=ADAPTMN
U, COORD
*Contact Output, nset=ADAPTMN
CDISP, CSTRESS
** HISTORY OUTPUT: H-Output-1
**
*Output, history, variable=PRESELECT
*End Step
**
** WEAR BLOCK 180 (cycles 17900 to 18000)
**
*Step, name=CYCLE_180, nlgeom=YES, inc=1000
*Static
1., 41.0, 0.004, 1.
**
** BOUNDARY CONDITIONS
**
** Name: CYLINDER Type: Displacement/Rotation
*Boundary, amplitude=STROKE
DISP, 1, 1, 0.025
DISP, 2, 2
DISP, 6, 6
**
*adaptive mesh,elset=ADAPTE,freq=1,mesh=1
*adaptive mesh,elset=ADAPTME,freq=1,mesh=1
*adaptive mesh constraint, 
type=velocity,user
ADAPTN,1, ,2.9e-08
ADAPTMN,1, ,1.9e-08
**
** OUTPUT REQUESTS
**
**
** FIELD OUTPUT: F-Output-1
**
*Output, field, number interval=1
*Node Output
CF, RF, U
*Element Output, directions=YES
LE, EE, E, S, COORD
*Contact Output
CDISP, CDSTRESS, CFORCE, CNAREA, CSTATUS, CSTRESS
**
** FIELD OUTPUT: F-Output-2
**
*Node Output, nset=ADAPTN
U, COORD
*Contact Output, nset=ADAPTN
CDISP, CSTRESS
**
** FIELD OUTPUT: F-Output-3
**
*Node Output, nset=QPOINT
RF,
**
** FIELD OUTPUT: F-Output-3
**
**
*Node Output, nset=ADAPTMN
U, COORD
*Contact Output, nset=ADAPTMN
CDISP, CSTRESS
** HISTORY OUTPUT: H-Output-1
**
*Output, history, variable=PRESELECT
*End Step
