** ======================================================================
** LevelSetWear, input file of an example
**
** Written by Inigo Llavori
**
** I. Llavori, Wear simulation on a fixed mesh with level sets
** and immersed frictional contact,
** submitted for publication. Mondragon Unibertsitatea.
** https://github.com/illavori/LevelSetWear       BSD 3-Clause
** ======================================================================
*HEADING
Fretting test of McColl et al., 18000 cycles, level set model
*PREPRINT, ECHO=NO, MODEL=NO, HISTORY=NO, CONTACT=NO
*NODE, NSET=NALL
1, -3.25, 6
2, -0.5, 0.22159192
3, 0.5, 0.22159192
4, 3.25, 6
5, 0.5, 0.0208696276
6, 6, 6
7, -0.5, 0.0208696276
8, -6, 6
9, -2.90562677, 5.2763896
10, -2.60055804, 4.63536692
11, -2.33030772, 4.06750631
12, -2.09090185, 3.56445765
13, -1.8788203, 3.11882329
14, -1.69094419, 2.72405076
15, -1.5245111, 2.37433481
16, -1.37707341, 2.06453323
17, -1.24646342, 1.79009008
18, -1.13076019, 1.54697013
19, -1.02826262, 1.33159816
20, -0.937463462, 1.14080739
21, -0.857027471, 0.971792102
22, -0.785771906, 0.822067082
23, -0.722648978, 0.689430654
24, -0.666730464, 0.571932495
25, -0.617194116, 0.467844754
26, -0.573311448, 0.375636876
27, -0.534437299, 0.293952972
28, -0.49002412, 0.220737383
29, -0.480046749, 0.219900072
30, -0.470067978, 0.219080001
31, -0.460087776, 0.218277141
32, -0.450106233, 0.217491508
33, -0.44012332, 0.216723114
34, -0.430139124, 0.215971962
35, -0.420153618, 0.215238035
36, -0.410166889, 0.214521363
37, -0.400178909, 0.213821918
38, -0.390189767, 0.213139713
39, -0.380199432, 0.212474763
40, -0.370207995, 0.211827055
41, -0.360215425, 0.211196601
42, -0.350221783, 0.210583389
43, -0.340227127, 0.209987432
44, -0.330231428, 0.20940873
45, -0.320234746, 0.208847284
46, -0.310237139, 0.208303109
47, -0.30023858, 0.207776174
48, -0.290239125, 0.20726651
49, -0.280238807, 0.206774116
50, -0.270237684, 0.206298977
51, -0.260235727, 0.205841094
52, -0.250232995, 0.205400497
53, -0.240229517, 0.204977155
54, -0.23022534, 0.204571083
55, -0.220220461, 0.204182282
56, -0.210214928, 0.203810766
57, -0.200208768, 0.203456506
58, -0.190202013, 0.203119531
59, -0.180194691, 0.202799827
60, -0.170186833, 0.202497393
61, -0.160178468, 0.202212244
62, -0.150169626, 0.201944366
63, -0.140160337, 0.201693773
64, -0.130150631, 0.201460466
65, -0.120140538, 0.201244429
66, -0.110130087, 0.201045662
67, -0.1001193, 0.200864196
68, -0.0901082233, 0.2007
69, -0.0800968781, 0.200553089
70, -0.0700852871, 0.200423464
71, -0.0600734912, 0.200311109
72, -0.0500615165, 0.200216055
73, -0.0400493927, 0.200138271
74, -0.0300371479, 0.200077772
75, -0.0200248156, 0.200034574
76, -0.0100124227, 0.200008646
77, 0, 0.200000003
78, 0.0100124227, 0.200008646
79, 0.0200248156, 0.200034574
80, 0.0300371479, 0.200077772
81, 0.0400493927, 0.200138271
82, 0.0500615165, 0.200216055
83, 0.0600734912, 0.200311109
84, 0.0700852871, 0.200423464
85, 0.0800968781, 0.200553089
86, 0.0901082233, 0.2007
87, 0.1001193, 0.200864196
88, 0.110130087, 0.201045662
89, 0.120140538, 0.201244429
90, 0.130150631, 0.201460466
91, 0.140160337, 0.201693773
92, 0.150169626, 0.201944366
93, 0.160178468, 0.202212244
94, 0.170186833, 0.202497393
95, 0.180194691, 0.202799827
96, 0.190202013, 0.203119531
97, 0.200208768, 0.203456506
98, 0.210214928, 0.203810766
99, 0.220220461, 0.204182282
100, 0.23022534, 0.204571083
101, 0.240229517, 0.204977155
102, 0.250232995, 0.205400497
103, 0.260235727, 0.205841094
104, 0.270237684, 0.206298977
105, 0.280238807, 0.206774116
106, 0.290239125, 0.20726651
107, 0.30023858, 0.207776174
108, 0.310237139, 0.208303109
109, 0.320234746, 0.208847284
110, 0.330231428, 0.20940873
111, 0.340227127, 0.209987432
112, 0.350221783, 0.210583389
113, 0.360215425, 0.211196601
114, 0.370207995, 0.211827055
115, 0.380199432, 0.212474763
116, 0.390189767, 0.213139713
117, 0.400178909, 0.213821918
118, 0.410166889, 0.214521363
119, 0.420153618, 0.215238035
120, 0.430139124, 0.215971962
121, 0.44012332, 0.216723114
122, 0.450106233, 0.217491508
123, 0.460087776, 0.218277141
124, 0.470067978, 0.219080001
125, 0.480046749, 0.219900072
126, 0.49002412, 0.220737383
127, 0.534437299, 0.293952972
128, 0.573311448, 0.375636876
129, 0.617194116, 0.467844754
130, 0.666730464, 0.571932495
131, 0.722648978, 0.689430654
132, 0.785771906, 0.822067082
133, 0.857027471, 0.971792102
134, 0.937463462, 1.14080739
135, 1.02826262, 1.33159816
136, 1.13076019, 1.54697013
137, 1.24646342, 1.79009008
138, 1.37707341, 2.06453323
139, 1.5245111, 2.37433481
140, 1.69094419, 2.72405076
141, 1.8788203, 3.11882329
142, 2.09090185, 3.56445765
143, 2.33030772, 4.06750631
144, 2.60055804, 4.63536692
145, 2.90562677, 5.2763896
146, 3.18499994, 6
147, 3.11999989, 6
148, 3.05500007, 6
149, 2.99000001, 6
150, 2.92499995, 6
151, 2.8599999, 6
152, 2.79500008, 6
153, 2.73000002, 6
154, 2.66499996, 6
155, 2.5999999, 6
156, 2.53500009, 6
157, 2.47000003, 6
158, 2.40499997, 6
159, 2.33999991, 6
160, 2.2750001, 6
161, 2.21000004, 6
162, 2.14499998, 6
163, 2.07999992, 6
164, 2.0150001, 6
165, 1.95000005, 6
166, 1.88499999, 6
167, 1.82000005, 6
168, 1.755, 6
169, 1.69000006, 6
170, 1.625, 6
171, 1.55999994, 6
172, 1.495, 6
173, 1.42999995, 6
174, 1.36500001, 6
175, 1.29999995, 6
176, 1.23500001, 6
177, 1.16999996, 6
178, 1.10500002, 6
179, 1.03999996, 6
180, 0.975000024, 6
181, 0.910000026, 6
182, 0.845000029, 6
183, 0.779999971, 6
184, 0.714999974, 6
185, 0.649999976, 6
186, 0.584999979, 6
187, 0.519999981, 6
188, 0.455000013, 6
189, 0.389999986, 6
190, 0.324999988, 6
191, 0.25999999, 6
192, 0.194999993, 6
193, 0.129999995, 6
194, 0.0649999976, 6
195, 0, 6
196, -0.0649999976, 6
197, -0.129999995, 6
198, -0.194999993, 6
199, -0.25999999, 6
200, -0.324999988, 6
201, -0.389999986, 6
202, -0.455000013, 6
203, -0.519999981, 6
204, -0.584999979, 6
205, -0.649999976, 6
206, -0.714999974, 6
207, -0.779999971, 6
208, -0.845000029, 6
209, -0.910000026, 6
210, -0.975000024, 6
211, -1.03999996, 6
212, -1.10500002, 6
213, -1.16999996, 6
214, -1.23500001, 6
215, -1.29999995, 6
216, -1.36500001, 6
217, -1.42999995, 6
218, -1.495, 6
219, -1.55999994, 6
220, -1.625, 6
221, -1.69000006, 6
222, -1.755, 6
223, -1.82000005, 6
224, -1.88499999, 6
225, -1.95000005, 6
226, -2.0150001, 6
227, -2.07999992, 6
228, -2.14499998, 6
229, -2.21000004, 6
230, -2.2750001, 6
231, -2.33999991, 6
232, -2.40499997, 6
233, -2.47000003, 6
234, -2.53500009, 6
235, -2.5999999, 6
236, -2.66499996, 6
237, -2.73000002, 6
238, -2.79500008, 6
239, -2.8599999, 6
240, -2.92499995, 6
241, -2.99000001, 6
242, -3.05500007, 6
243, -3.11999989, 6
244, -3.18499994, 6
245, 0.5, 0.211555794
246, 0.5, 0.201519683
247, 0.5, 0.191483572
248, 0.5, 0.181447461
249, 0.5, 0.17141135
250, 0.5, 0.161375225
251, 0.5, 0.151339114
252, 0.5, 0.141303003
253, 0.5, 0.131266892
254, 0.5, 0.121230774
255, 0.5, 0.111194655
256, 0.5, 0.101158544
257, 0.5, 0.0911224261
258, 0.5, 0.0810863152
259, 0.5, 0.0710501969
260, 0.5, 0.061014086
261, 0.5, 0.0509779714
262, 0.5, 0.0409418568
263, 0.5, 0.0309057422
264, 0.611272812, 0.0312190913
265, 0.736625016, 0.045389723
266, 0.877733231, 0.0645485073
267, 1.03642333, 0.0901923329
268, 1.21465898, 0.124235928
269, 1.4145149, 0.169121206
270, 1.63812709, 0.227951869
271, 1.88760889, 0.304656923
272, 2.16491723, 0.40418607
273, 2.47164702, 0.532737315
274, 2.80872273, 0.698012054
275, 3.17594838, 0.909484088
276, 3.57135963, 1.17865264
277, 3.99031782, 1.51922286
278, 4.42426395, 1.94711375
279, 4.85906363, 2.48012757
280, 5.27288437, 3.13701391
281, 5.63364458, 3.93552732
282, 5.8962245, 4.88890314
283, 5.86250019, 6
284, 5.7249999, 6
285, 5.5875001, 6
286, 5.44999981, 6
287, 5.3125, 6
288, 5.17500019, 6
289, 5.0374999, 6
290, 4.9000001, 6
291, 4.76249981, 6
292, 4.625, 6
293, 4.48750019, 6
294, 4.3499999, 6
295, 4.2125001, 6
296, 4.07499981, 6
297, 3.9375, 6
298, 3.79999995, 6
299, 3.6624999, 6
300, 3.5250001, 6
301, 3.38750005, 6
302, -0.5, 0.0309057422
303, -0.5, 0.0409418568
304, -0.5, 0.0509779714
305, -0.5, 0.061014086
306, -0.5, 0.0710501969
307, -0.5, 0.0810863152
308, -0.5, 0.0911224261
309, -0.5, 0.101158544
310, -0.5, 0.111194655
311, -0.5, 0.121230774
312, -0.5, 0.131266892
313, -0.5, 0.141303003
314, -0.5, 0.151339114
315, -0.5, 0.161375225
316, -0.5, 0.17141135
317, -0.5, 0.181447461
318, -0.5, 0.191483572
319, -0.5, 0.201519683
320, -0.5, 0.211555794
321, -3.38750005, 6
322, -3.5250001, 6
323, -3.6624999, 6
324, -3.79999995, 6
325, -3.9375, 6
326, -4.07499981, 6
327, -4.2125001, 6
328, -4.3499999, 6
329, -4.48750019, 6
330, -4.625, 6
331, -4.76249981, 6
332, -4.9000001, 6
333, -5.0374999, 6
334, -5.17500019, 6
335, -5.3125, 6
336, -5.44999981, 6
337, -5.5875001, 6
338, -5.7249999, 6
339, -5.86250019, 6
340, -5.8962245, 4.88890314
341, -5.63364458, 3.93552732
342, -5.27288437, 3.13701391
343, -4.85906363, 2.48012757
344, -4.42426395, 1.94711375
345, -3.99031782, 1.51922286
346, -3.57135963, 1.17865264
347, -3.17594838, 0.909484088
348, -2.80872273, 0.698012054
349, -2.47164702, 0.532737315
350, -2.16491723, 0.40418607
351, -1.88760889, 0.304656923
352, -1.63812709, 0.227951869
353, -1.4145149, 0.169121206
354, -1.21465898, 0.124235928
355, -1.03642333, 0.0901923329
356, -0.877733231, 0.0645485073
357, -0.736625016, 0.045389723
358, -0.611272812, 0.0312190913
359, -0.49002251, 0.0200436525
360, -0.480043679, 0.0192343239
361, -0.470063508, 0.0184416492
362, -0.460082024, 0.0176656283
363, -0.45009923, 0.0169062614
364, -0.440115213, 0.0161635559
365, -0.430129975, 0.0154375089
366, -0.420143515, 0.0147281252
367, -0.410155922, 0.0140354056
368, -0.400167167, 0.013359352
369, -0.39017728, 0.0126999663
370, -0.380186319, 0.0120572513
371, -0.370194316, 0.0114312079
372, -0.360201269, 0.0108218379
373, -0.35020721, 0.0102291442
374, -0.340212196, 0.00965312589
375, -0.330216199, 0.00909378659
376, -0.320219308, 0.00855112821
377, -0.310221553, 0.00802515075
378, -0.300222903, 0.00751585606
379, -0.29022342, 0.00702324603
380, -0.280223131, 0.00654732203
381, -0.270222038, 0.00608808501
382, -0.26022023, 0.00564553635
383, -0.250217676, 0.00521967746
384, -0.240214437, 0.00481050974
385, -0.230210513, 0.00441803364
386, -0.220205963, 0.00404225057
387, -0.210200801, 0.00368316169
388, -0.200195044, 0.00334076793
389, -0.190188736, 0.00301507046
390, -0.180181891, 0.00270606973
391, -0.170174554, 0.00241376716
392, -0.16016674, 0.00213816296
393, -0.15015848, 0.00187925831
394, -0.140149802, 0.00163705379
395, -0.130140722, 0.0014115501
396, -0.120131299, 0.00120274792
397, -0.110121533, 0.00101064774
398, -0.100111455, 0.000835250132
399, -0.090101108, 0.000676555617
400, -0.0800905079, 0.000534564548
401, -0.0700796768, 0.000409277418
402, -0.0600686595, 0.000300694519
403, -0.0500574708, 0.000208816171
404, -0.0400461443, 0.000133642621
405, -0.030034706, 7.51741027e-05
406, -0.0200231839, 3.34107499e-05
407, -0.0100116059, 8.35269293e-06
408, 0, 0
409, 0.0100116059, 8.35269293e-06
410, 0.0200231839, 3.34107499e-05
411, 0.030034706, 7.51741027e-05
412, 0.0400461443, 0.000133642621
413, 0.0500574708, 0.000208816171
414, 0.0600686595, 0.000300694519
415, 0.0700796768, 0.000409277418
416, 0.0800905079, 0.000534564548
417, 0.090101108, 0.000676555617
418, 0.100111455, 0.000835250132
419, 0.110121533, 0.00101064774
420, 0.120131299, 0.00120274792
421, 0.130140722, 0.0014115501
422, 0.140149802, 0.00163705379
423, 0.15015848, 0.00187925831
424, 0.16016674, 0.00213816296
425, 0.170174554, 0.00241376716
426, 0.180181891, 0.00270606973
427, 0.190188736, 0.00301507046
428, 0.200195044, 0.00334076793
429, 0.210200801, 0.00368316169
430, 0.220205963, 0.00404225057
431, 0.230210513, 0.00441803364
432, 0.240214437, 0.00481050974
433, 0.250217676, 0.00521967746
434, 0.26022023, 0.00564553635
435, 0.270222038, 0.00608808501
436, 0.280223131, 0.00654732203
437, 0.29022342, 0.00702324603
438, 0.300222903, 0.00751585606
439, 0.310221553, 0.00802515075
440, 0.320219308, 0.00855112821
441, 0.330216199, 0.00909378659
442, 0.340212196, 0.00965312589
443, 0.35020721, 0.0102291442
444, 0.360201269, 0.0108218379
445, 0.370194316, 0.0114312079
446, 0.380186319, 0.0120572513
447, 0.39017728, 0.0126999663
448, 0.400167167, 0.013359352
449, 0.410155922, 0.0140354056
450, 0.420143515, 0.0147281252
451, 0.430129975, 0.0154375089
452, 0.440115213, 0.0161635559
453, 0.45009923, 0.0169062614
454, 0.460082024, 0.0176656283
455, 0.470063508, 0.0184416492
456, 0.480043679, 0.0192343239
457, 0.49002251, 0.0200436525
458, -2.84751725, 5.27628231
459, -2.54855251, 4.63516521
460, -2.28370953, 4.06722069
461, -2.04909396, 3.5640974
462, -1.8412559, 3.11839724
463, -1.65713906, 2.72356629
464, -1.49403596, 2.37379861
465, -1.34954846, 2.06395125
466, -1.22155166, 1.78946757
467, -1.1081636, 1.54631162
468, -1.00771689, 1.33090782
469, -0.918734491, 1.1400888
470, -0.839907885, 0.971048534
471, -0.770078063, 0.821301341
472, -0.708218157, 0.688645363
473, -0.653418481, 0.571129739
474, -0.6048733, 0.467026621
475, -0.561868727, 0.374805123
476, -0.523772359, 0.293109149
477, -2.78940749, 5.27617741
478, -2.49654675, 4.63496733
479, -2.23711109, 4.06694078
480, -2.00728559, 3.56374454
481, -1.80369079, 3.11797976
482, -1.62333298, 2.7230916
483, -1.46355999, 2.37327337
484, -1.32202232, 2.06338096
485, -1.19663894, 1.78885746
486, -1.08556581, 1.54566634
487, -0.987169921, 1.33023131
488, -0.900004268, 1.13938463
489, -0.822787046, 0.970319927
490, -0.754382908, 0.820551038
491, -0.693785965, 0.687875807
492, -0.640105128, 0.570343196
493, -0.592551112, 0.466224998
494, -0.550424516, 0.373990119
495, -0.513105989, 0.292282313
496, -2.73129773, 5.27607489
497, -2.4445405, 4.63477373
498, -2.19051194, 4.06666613
499, -1.96547651, 3.56339884
500, -1.76612496, 3.11757088
501, -1.58952618, 2.72262669
502, -1.43308306, 2.37275887
503, -1.29449534, 2.06282234
504, -1.17172503, 1.78825998
505, -1.06296694, 1.54503429
506, -0.966621816, 1.32956874
507, -0.881272793, 1.138695
508, -0.805664957, 0.96960628
509, -0.738686502, 0.819816172
510, -0.679352522, 0.687122107
511, -0.626790464, 0.569572866
512, -0.580227494, 0.465439856
513, -0.538978934, 0.373191893
514, -0.502438188, 0.291472495
515, -2.67318773, 5.27597427
516, -2.39253402, 4.63458395
517, -2.14391255, 4.06639767
518, -1.92366683, 3.56306052
519, -1.72855842, 3.11717057
520, -1.55571842, 2.72217155
521, -1.4026053, 2.37225509
522, -1.26696742, 2.06227565
523, -1.14681029, 1.78767514
524, -1.04036701, 1.54441559
525, -0.946072578, 1.32892013
526, -0.862540185, 1.13801992
527, -0.788541675, 0.968907654
528, -0.722988844, 0.819096804
529, -0.664917707, 0.686384261
530, -0.613474488, 0.568818688
531, -0.567902625, 0.464671224
532, -0.527531981, 0.372410446
533, -0.491769016, 0.290679693
534, -2.6150775, 5.27587605
535, -2.3405273, 4.63439846
536, -2.09731245, 4.06613493
537, -1.88185656, 3.56272936
538, -1.69099128, 3.11677885
539, -1.52191007, 2.72172618
540, -1.37212658, 2.37176204
541, -1.23943841, 2.0617404
542, -1.12189448, 1.7871027
543, -1.01776612, 1.54381025
544, -0.925522208, 1.32828546
545, -0.843806446, 1.13735926
546, -0.771417141, 0.968224049
547, -0.707289934, 0.818392813
548, -0.650481701, 0.68566227
549, -0.600157201, 0.568080664
550, -0.555576384, 0.463919073
551, -0.516083717, 0.371645778
552, -0.481098473, 0.289903909
553, -2.55696702, 5.27577972
554, -2.2885201, 4.63421726
555, -2.05071211, 4.06587791
556, -1.84004569, 3.56240535
557, -1.65342331, 3.11639571
558, -1.48810089, 2.72129059
559, -1.34164715, 2.37127995
560, -1.21190858, 2.06121707
561, -1.09697759, 1.78654289
562, -0.995164037, 1.54321802
563, -0.904970765, 1.32766461
564, -0.825071573, 1.13671303
565, -0.754291475, 0.967555404
566, -0.691589773, 0.81770426
567, -0.636044443, 0.684956074
568, -0.586838663, 0.567358911
569, -0.543248892, 0.463183433
570, -0.504634142, 0.370897859
571, -0.470426619, 0.289145142
572, -2.49885654, 5.27568579
573, -2.23651266, 4.63403988
574, -2.00411105, 4.0656271
575, -1.79823434, 3.56208873
576, -1.61585486, 3.11602116
577, -1.45429087, 2.72086453
578, -1.31116676, 2.3708086
579, -1.18437791, 2.06070566
580, -1.07205987, 1.7859956
581, -0.972561002, 1.54263914
582, -0.884418309, 1.32705784
583, -0.806335568, 1.13608146
584, -0.737164676, 0.966901779
585, -0.675888479, 0.817031145
586, -0.621605992, 0.684265733
587, -0.573518872, 0.566653252
588, -0.530920088, 0.462464303
589, -0.493183285, 0.370166719
590, -0.459753484, 0.288403392
591, -2.44074583, 5.27559376
592, -2.18450499, 4.63386631
593, -1.95750988, 4.06538153
594, -1.7564224, 3.5617795
595, -1.57828569, 3.11565518
596, -1.42048025, 2.72044849
597, -1.28068566, 2.37034822
598, -1.15684628, 2.0602057
599, -1.04714119, 1.78546095
600, -0.949957013, 1.54207361
601, -0.863864779, 1.32646489
602, -0.787598491, 1.13546419
603, -0.720036745, 0.966263115
604, -0.660186052, 0.816373467
605, -0.60716635, 0.683591247
606, -0.56019789, 0.565963864
607, -0.518590093, 0.461761653
608, -0.481731176, 0.369452387
609, -0.449079037, 0.287678659
610, -2.38263488, 5.27550411
611, -2.13249707, 4.63369703
612, -1.9109081, 4.06514168
613, -1.71460998, 3.56147742
614, -1.54071581, 3.11529779
615, -1.38666892, 2.72004223
616, -1.25020385, 2.36989832
617, -1.12931395, 2.05971766
618, -1.02222157, 1.78493881
619, -0.927352011, 1.54152131
620, -0.843310237, 1.32588589
621, -0.7688604, 1.13486159
622, -0.702907741, 0.965639472
623, -0.644482493, 0.815731287
624, -0.592725515, 0.682932556
625, -0.546875715, 0.56529063
626, -0.506258905, 0.461075515
627, -0.470277846, 0.368754804
628, -0.438403398, 0.286970943
629, -2.32452393, 5.27541637
630, -2.08048868, 4.63353205
631, -1.86430597, 4.06490803
632, -1.67279696, 3.5611825
633, -1.50314546, 3.11494923
634, -1.35285687, 2.71964574
635, -1.21972108, 2.36945963
636, -1.10178065, 2.05924129
637, -0.997301042, 1.78442919
638, -0.904746056, 1.54098225
639, -0.822754681, 1.32532072
640, -0.750121236, 1.13427341
641, -0.685777664, 0.965030849
642, -0.628777862, 0.815104544
643, -0.578283608, 0.682289779
644, -0.533552408, 0.564633548
645, -0.493926555, 0.460405856
646, -0.458823323, 0.368074
647, -0.427726537, 0.286280274
648, -2.26641273, 5.27533102
649, -2.02848005, 4.63337088
650, -1.81770349, 4.06467962
651, -1.63098347, 3.56089497
652, -1.4655745, 3.114609
653, -1.31904411, 2.71925902
654, -1.18923771, 2.36903143
655, -1.07424653, 2.05877662
656, -0.972379684, 1.78393221
657, -0.882139206, 1.54045653
658, -0.802198172, 1.32476962
659, -0.731381059, 1.13369966
660, -0.668646574, 0.964437246
661, -0.613072157, 0.814493239
662, -0.563840568, 0.681662798
663, -0.520228028, 0.563992739
664, -0.481593072, 0.459752738
665, -0.447367638, 0.367409974
666, -0.417048484, 0.285606623
667, -2.20830131, 5.27524757
668, -1.97647119, 4.633214
669, -1.77110052, 4.06445742
670, -1.5891695, 3.56061482
671, -1.42800283, 3.11427736
672, -1.28523064, 2.71888208
673, -1.15875351, 2.3686142
674, -1.04671168, 2.05832386
675, -0.947457492, 1.78344774
676, -0.859531462, 1.53994417
677, -0.781640768, 1.32423246
678, -0.712639928, 1.13314056
679, -0.651514411, 0.963858604
680, -0.597365379, 0.813897371
681, -0.549396515, 0.681051672
682, -0.506902456, 0.563368082
683, -0.469258457, 0.459116131
684, -0.435910851, 0.366762757
685, -0.406369299, 0.284949988
686, -2.15018988, 5.27516651
687, -1.92446208, 4.63306093
688, -1.7244972, 4.06424093
689, -1.54735506, 3.56034184
690, -1.39043069, 3.11395454
691, -1.25141668, 2.71851468
692, -1.12826872, 2.36820793
693, -1.01917601, 2.05788255
694, -0.922534406, 1.78297579
695, -0.836922824, 1.53944504
696, -0.761082411, 1.32370913
697, -0.693897843, 1.1325959
698, -0.634381294, 0.963294983
699, -0.581657588, 0.813316941
700, -0.534951389, 0.6804564
701, -0.493575901, 0.562759638
702, -0.45692274, 0.458496034
703, -0.424452931, 0.366132319
704, -0.395688981, 0.2843104
705, -2.09207821, 5.27508783
706, -1.87245262, 4.63291216
707, -1.67789364, 4.06402969
708, -1.50554013, 3.560076
709, -1.35285807, 3.11364007
710, -1.21760201, 2.71815729
711, -1.09778309, 2.3678124
712, -0.991639614, 2.05745316
713, -0.897610605, 1.78251648
714, -0.814313352, 1.53895915
715, -0.74052316, 1.32319975
716, -0.675154865, 1.13206565
717, -0.617247224, 0.962746382
718, -0.565948844, 0.812752008
719, -0.52050525, 0.679876983
720, -0.480248272, 0.562167406
721, -0.444585979, 0.457892418
722, -0.412993938, 0.365518659
723, -0.38500759, 0.28368783
724, -2.03396654, 5.27501106
725, -1.82044303, 4.6327672
726, -1.6312896, 4.06382465
727, -1.46372485, 3.55981755
728, -1.31528485, 3.11333442
729, -1.18378675, 2.71780968
730, -1.06729686, 2.36742759
731, -0.964102507, 2.05703568
732, -0.872685969, 1.78206968
733, -0.791703105, 1.5384866
734, -0.719963074, 1.32270432
735, -0.656410933, 1.13155007
736, -0.600112259, 0.962212801
737, -0.550239086, 0.812202513
738, -0.506058097, 0.679313421
739, -0.466919661, 0.561591387
740, -0.432248205, 0.457305342
741, -0.401533902, 0.364921808
742, -0.374325126, 0.283082306
743, -1.97585464, 5.2749362
744, -1.76843309, 4.63262653
745, -1.58468521, 4.06362534
746, -1.42190909, 3.5595665
747, -1.27771103, 3.11303711
748, -1.14997089, 2.71747184
749, -1.03681004, 2.36705351
750, -0.936564624, 2.05662966
751, -0.847760558, 1.78163552
752, -0.769091964, 1.53802729
753, -0.699402094, 1.32222283
754, -0.637666166, 1.13104892
755, -0.582976341, 0.961694181
756, -0.534528434, 0.811668515
757, -0.49161002, 0.678765714
758, -0.453590065, 0.56103158
759, -0.419909418, 0.456734806
760, -0.390072852, 0.364341736
761, -0.363641649, 0.2824938
762, -1.91774261, 5.27486372
763, -1.71642292, 4.63248968
764, -1.53808045, 4.06343174
765, -1.38009286, 3.5593226
766, -1.24013674, 3.11274862
767, -1.11615443, 2.71714377
768, -1.0063225, 2.3666904
769, -0.909026086, 2.05623555
770, -0.822834432, 1.78121388
771, -0.746480107, 1.53758132
772, -0.678840339, 1.32175529
773, -0.618920505, 1.13056231
774, -0.565839529, 0.961190641
775, -0.518816829, 0.811149955
776, -0.47716102, 0.678233862
777, -0.440259486, 0.560487986
778, -0.407569677, 0.456180751
779, -0.37861082, 0.363778472
780, -0.352957159, 0.28192234
781, -1.85963058, 5.27479362
782, -1.66441262, 4.63235712
783, -1.49147546, 4.06324434
784, -1.33827615, 3.55908585
785, -1.20256209, 3.11246872
786, -1.08233738, 2.71682549
787, -0.97583437, 2.36633825
788, -0.881486893, 2.05585313
789, -0.797907591, 1.78080487
790, -0.723867476, 1.53714871
791, -0.65827775, 1.3213017
792, -0.60017401, 1.13009012
793, -0.548701882, 0.960702062
794, -0.503104389, 0.810646832
795, -0.462711096, 0.677717924
796, -0.426928014, 0.559960544
797, -0.395228982, 0.455643237
798, -0.367147833, 0.363231987
799, -0.342271715, 0.281367928
800, -1.80151832, 5.27472544
801, -1.61240196, 4.63222885
802, -1.44487011, 4.06306219
803, -1.2964592, 3.55885649
804, -1.16498685, 3.1121974
805, -1.04851985, 2.71651697
806, -0.94534564, 2.36599684
807, -0.853947043, 2.05548263
808, -0.772980034, 1.78040838
809, -0.70125407, 1.53672934
810, -0.637714446, 1.32086205
811, -0.58142674, 1.12963247
812, -0.531563401, 0.960228562
813, -0.487391084, 0.810159206
814, -0.448260278, 0.677217782
815, -0.413595617, 0.559449375
816, -0.382887363, 0.455122232
817, -0.355683923, 0.36270231
818, -0.331585288, 0.280830562
819, -1.74340594, 5.27465916
820, -1.56039119, 4.6321044
821, -1.39826441, 4.06288576
822, -1.25464177, 3.55863428
823, -1.12741113, 3.11193466
824, -1.01470184, 2.71621823
825, -0.914856315, 2.36566615
826, -0.826406538, 2.05512381
827, -0.748051822, 1.78002453
828, -0.678640008, 1.53632331
829, -0.617150366, 1.32043636
830, -0.562678695, 1.12918937
831, -0.514424086, 0.959770024
832, -0.471676946, 0.809687018
833, -0.433808655, 0.676733494
834, -0.400262386, 0.558954418
835, -0.370544851, 0.454617769
836, -0.344219089, 0.362189442
837, -0.320897996, 0.280310243
838, -1.68529344, 5.27459574
839, -1.50838017, 4.63198376
840, -1.35165846, 4.06271553
841, -1.21282387, 3.55841947
842, -1.08983505, 3.11168051
843, -0.980883241, 2.71592927
844, -0.884366453, 2.36534643
845, -0.798865497, 2.05477667
846, -0.723122954, 1.77965319
847, -0.656025231, 1.53593051
848, -0.596585572, 1.32002461
849, -0.543929935, 1.12876081
850, -0.497284025, 0.959326565
851, -0.455962002, 0.809230328
852, -0.419356167, 0.676265121
853, -0.38692829, 0.558475614
854, -0.358201504, 0.454129845
855, -0.33275342, 0.361693352
856, -0.310209781, 0.279806972
857, -1.62718093, 5.27453375
858, -1.45636892, 4.63186741
859, -1.30505216, 4.06255102
860, -1.17100573, 3.55821204
861, -1.05225849, 3.11143494
862, -0.947064161, 2.71565008
863, -0.853876054, 2.36503744
864, -0.7713238, 2.05444121
865, -0.698193491, 1.77929449
866, -0.633409798, 1.53555107
867, -0.576020062, 1.31962681
868, -0.525180399, 1.12834668
869, -0.480143219, 0.958898067
870, -0.440246284, 0.808789134
871, -0.404902905, 0.675812602
872, -0.37359339, 0.558013082
873, -0.345857322, 0.453658402
874, -0.321286887, 0.361214072
875, -0.299520731, 0.279320717
876, -1.56906819, 5.27447462
877, -1.40435743, 4.63175535
878, -1.25844562, 4.06239176
879, -1.12918723, 3.55801177
880, -1.01468146, 3.11119819
881, -0.913244665, 2.71538067
882, -0.823385119, 2.36473918
883, -0.743781567, 2.05411768
884, -0.673263371, 1.77894831
885, -0.61079371, 1.53518486
886, -0.555453837, 1.31924295
887, -0.506430149, 1.12794721
888, -0.463001668, 0.95848459
889, -0.424529821, 0.808363318
890, -0.390448868, 0.675375879
891, -0.360257715, 0.557566762
892, -0.333512366, 0.453203529
893, -0.309819549, 0.360751599
894, -0.288830847, 0.278851539
895, -1.51095545, 5.27441692
896, -1.35234582, 4.63164711
897, -1.21183884, 4.06223869
898, -1.08736837, 3.55781865
899, -0.977104068, 3.11096978
900, -0.879424632, 2.71512127
901, -0.792893648, 2.36445189
902, -0.716238737, 2.05380583
903, -0.648332715, 1.77861464
904, -0.588176966, 1.534832
905, -0.534887016, 1.31887305
906, -0.487679243, 1.12756217
907, -0.445859402, 0.958086193
908, -0.408812612, 0.80795306
909, -0.375994116, 0.67495513
910, -0.346921265, 0.557136655
911, -0.321166605, 0.452765167
912, -0.298351407, 0.360305935
913, -0.278140187, 0.278399378
914, -1.45284259, 5.27436209
915, -1.30033398, 4.63154316
916, -1.16523182, 4.06209135
917, -1.04554915, 3.55763316
918, -0.93952632, 3.1107502
919, -0.845604241, 2.71487141
920, -0.76240176, 2.36417556
921, -0.688695431, 2.05350566
922, -0.623401463, 1.77829373
923, -0.565559685, 1.53449249
924, -0.514319599, 1.31851709
925, -0.468927681, 1.12719166
926, -0.428716481, 0.957702756
927, -0.393094748, 0.807558239
928, -0.361538619, 0.674550176
929, -0.3335841, 0.55672276
930, -0.308820099, 0.452343345
931, -0.28688252, 0.35987708
932, -0.267448753, 0.277964294
933, -1.39472961, 5.27430868
934, -1.24832201, 4.63144302
935, -1.11862445, 4.06194973
936, -1.0037297, 3.55745459
937, -0.901948214, 3.11053896
938, -0.811783373, 2.71463132
939, -0.731909335, 2.36390996
940, -0.661151588, 2.05321741
941, -0.598469615, 1.77798522
942, -0.542941809, 1.53416622
943, -0.493751526, 1.31817508
944, -0.450175464, 1.12683558
945, -0.411572903, 0.957334399
946, -0.377376199, 0.807178915
947, -0.347082436, 0.674161077
948, -0.32024622, 0.556325078
949, -0.296472907, 0.451938033
950, -0.275412917, 0.359465033
951, -0.256756574, 0.277546257
952, -1.33661652, 5.27425814
953, -1.19630992, 4.63134718
954, -1.07201695, 4.06181383
955, -0.96190989, 3.5572834
956, -0.86436969, 3.11033654
957, -0.777962089, 2.71440125
958, -0.701416492, 2.36365509
959, -0.633607268, 2.05294085
960, -0.57353735, 1.77768946
961, -0.520323336, 1.53385329
962, -0.473182887, 1.31784701
963, -0.431422681, 1.12649417
964, -0.39442873, 0.956981063
965, -0.361656994, 0.806815028
966, -0.332625628, 0.673787892
967, -0.306907684, 0.555943608
968, -0.284125, 0.451549262
969, -0.263942599, 0.359069794
970, -0.246063679, 0.277145296
971, -1.27850342, 5.2742095
972, -1.1442976, 4.63125563
973, -1.0254091, 4.06168413
974, -0.920089781, 3.55711961
975, -0.826790869, 3.11014271
976, -0.744140446, 2.71418071
977, -0.670923173, 2.36341119
978, -0.606062472, 2.05267596
979, -0.548604488, 1.7774061
980, -0.497704387, 1.53355372
981, -0.452613682, 1.3175329
982, -0.412669331, 1.12616718
983, -0.377283931, 0.956642747
984, -0.345937192, 0.806466639
985, -0.318168163, 0.673430622
986, -0.293568492, 0.555578411
987, -0.271776468, 0.451177031
988, -0.252471626, 0.358691365
989, -0.235370114, 0.276761353
990, -1.2203902, 5.27416277
991, -1.09228516, 4.63116789
992, -0.978801131, 4.06155968
993, -0.878269374, 3.55696297
994, -0.78921169, 3.10995746
995, -0.710318446, 2.71397018
996, -0.640429497, 2.36317801
997, -0.578517258, 2.052423
998, -0.52367121, 1.77713549
999, -0.475084931, 1.53326738
1000, -0.43204397, 1.31723273
1001, -0.393915385, 1.12585473
1002, -0.360138565, 0.956319451
1003, -0.330216795, 0.806133687
1004, -0.303710103, 0.673089147
1005, -0.280228674, 0.555229366
1006, -0.259427279, 0.45082134
1007, -0.241000012, 0.358329743
1008, -0.224675909, 0.276394486
1009, -1.16227686, 5.27411842
1010, -1.04027247, 4.63108397
1011, -0.932192922, 4.06144142
1012, -0.836448789, 3.55681372
1013, -0.751632214, 3.10978079
1014, -0.676496029, 2.7137692
1015, -0.609935403, 2.36295581
1016, -0.550971568, 2.05218172
1017, -0.498737454, 1.7768774
1018, -0.452464968, 1.53299439
1019, -0.411473721, 1.31694651
1020, -0.375160962, 1.12555695
1021, -0.342992663, 0.956011176
1022, -0.314495832, 0.805816233
1023, -0.289251447, 0.672763586
1024, -0.266888291, 0.554896593
1025, -0.24707751, 0.45048219
1026, -0.229527801, 0.35798493
1027, -0.213981092, 0.276044667
1028, -1.10416353, 5.27407646
1029, -0.988259733, 4.63100433
1030, -0.885584474, 4.06132841
1031, -0.794627905, 3.55667162
1032, -0.714052439, 3.1096127
1033, -0.642673314, 2.71357822
1034, -0.579440951, 2.36274433
1035, -0.523425519, 2.05195236
1036, -0.473803252, 1.77663183
1037, -0.429844558, 1.53273463
1038, -0.390903026, 1.31667423
1039, -0.356406003, 1.12527347
1040, -0.325846225, 0.955717921
1041, -0.298774362, 0.805514276
1042, -0.274792284, 0.67245388
1043, -0.253547341, 0.554580092
1044, -0.234727159, 0.45015958
1045, -0.218054995, 0.357656926
1046, -0.203285664, 0.275711894
1047, -1.04605007, 5.27403641
1048, -0.936246872, 4.63092899
1049, -0.838975906, 4.0612216
1050, -0.752806783, 3.55653691
1051, -0.676472366, 3.10945344
1052, -0.6088503, 2.71339703
1053, -0.548946142, 2.36254382
1054, -0.495879054, 2.05173445
1055, -0.448868662, 1.7763989
1056, -0.407223731, 1.53248835
1057, -0.370331854, 1.31641603
1058, -0.337650567, 1.12500465
1059, -0.30869931, 0.955439746
1060, -0.283052355, 0.805227816
1061, -0.260332555, 0.672160029
1062, -0.240205854, 0.554279745
1063, -0.222376272, 0.44985351
1064, -0.206581637, 0.35734576
1065, -0.1925897, 0.275396198
1066, -0.987936497, 5.27399826
1067, -0.884233832, 4.63085747
1068, -0.792367101, 4.06112051
1069, -0.710985422, 3.55640936
1070, -0.638892055, 3.10930252
1071, -0.575026989, 2.7132256
1072, -0.518450975, 2.36235404
1073, -0.468332231, 2.05152845
1074, -0.423933685, 1.7761786
1075, -0.384602457, 1.53225529
1076, -0.349760264, 1.31617165
1077, -0.318894684, 1.12475038
1078, -0.291551918, 0.955176592
1079, -0.267329872, 0.804956794
1080, -0.245872363, 0.671882093
1081, -0.226863861, 0.553995669
1082, -0.210024863, 0.44956395
1083, -0.195107758, 0.357051373
1084, -0.181893185, 0.275097549
1085, -0.929822922, 5.2739625
1086, -0.832220733, 4.63079023
1087, -0.745758176, 4.06102514
1088, -0.669163823, 3.5562892
1089, -0.601311505, 3.10916042
1090, -0.54120332, 2.71306396
1091, -0.48795554, 2.36217499
1092, -0.44078505, 2.05133438
1093, -0.39899832, 1.77597082
1094, -0.361980826, 1.53203547
1095, -0.329188257, 1.31594121
1096, -0.300138384, 1.12451053
1097, -0.274404109, 0.954928458
1098, -0.251606941, 0.804701269
1099, -0.231411695, 0.671620071
1100, -0.213521391, 0.553727806
1101, -0.197672978, 0.449290961
1102, -0.183633387, 0.356773823
1103, -0.171196178, 0.274815977
1104, -0.871709287, 5.27392912
1105, -0.780207455, 4.63072681
1106, -0.699149013, 4.0609355
1107, -0.627342105, 3.55617642
1108, -0.563730657, 3.10902691
1109, -0.507379413, 2.71291208
1110, -0.457459748, 2.3620069
1111, -0.413237572, 2.05115199
1112, -0.374062598, 1.77577567
1113, -0.339358807, 1.53182912
1114, -0.308615834, 1.31572485
1115, -0.281381696, 1.12428534
1116, -0.257255852, 0.954695344
1117, -0.235883579, 0.804461241
1118, -0.216950595, 0.671373844
1119, -0.200178489, 0.553476155
1120, -0.185320631, 0.449034482
1121, -0.172158554, 0.356513083
1122, -0.160498708, 0.274551451
1123, -0.813595593, 5.27389765
1124, -0.728194118, 4.63066769
1125, -0.65253979, 4.06085157
1126, -0.585520148, 3.5560708
1127, -0.526149631, 3.10890198
1128, -0.473555297, 2.71276999
1129, -0.426963717, 2.36184978
1130, -0.385689765, 2.05098128
1131, -0.349126577, 1.77559316
1132, -0.31673643, 1.531636
1133, -0.288043082, 1.31552243
1134, -0.262624621, 1.12407458
1135, -0.240107223, 0.95447731
1136, -0.220159814, 0.80423671
1137, -0.202489078, 0.671143532
1138, -0.18683514, 0.553240776
1139, -0.172967851, 0.448794574
1140, -0.160683274, 0.356269181
1141, -0.149800777, 0.274304003
1142, -0.755481839, 5.27386856
1143, -0.676180661, 4.63061285
1144, -0.605930388, 4.06077385
1145, -0.543698013, 3.55597234
1146, -0.488568395, 3.10878563
1147, -0.439730912, 2.71263766
1148, -0.396467388, 2.3617034
1149, -0.35814169, 2.05082226
1150, -0.324190229, 1.77542317
1151, -0.294113755, 1.53145611
1152, -0.267470002, 1.31533384
1153, -0.243867174, 1.12387836
1154, -0.222958222, 0.954274297
1155, -0.204435676, 0.804027617
1156, -0.188027173, 0.670929134
1157, -0.173491418, 0.55302161
1158, -0.160614684, 0.448571205
1159, -0.149207607, 0.356042087
1160, -0.139102444, 0.274073601
1161, -0.697368026, 5.27384138
1162, -0.624167085, 4.63056183
1163, -0.559320867, 4.06070137
1164, -0.501875699, 3.55588126
1165, -0.450986952, 3.10867786
1166, -0.40590629, 2.71251512
1167, -0.36597085, 2.36156774
1168, -0.330593348, 2.05067515
1169, -0.299253613, 1.77526569
1170, -0.271490753, 1.5312897
1171, -0.24689658, 1.31515932
1172, -0.225109413, 1.12369668
1173, -0.205808893, 0.954086304
1174, -0.188711196, 0.803834021
1175, -0.173564911, 0.670730591
1176, -0.160147324, 0.552818656
1177, -0.14826113, 0.448364377
1178, -0.137731552, 0.355831802
1179, -0.128403738, 0.273860276
1180, -0.639254212, 5.27381659
1181, -0.572153509, 4.63051462
1182, -0.512711227, 4.06063509
1183, -0.460053265, 3.55579758
1184, -0.413405329, 3.10857868
1185, -0.372081488, 2.71240258
1186, -0.335474044, 2.36144304
1187, -0.303044766, 2.05053973
1188, -0.274316728, 1.77512097
1189, -0.248867497, 1.53113651
1190, -0.226322889, 1.31499875
1191, -0.206351355, 1.12352955
1192, -0.188659236, 0.953913331
1193, -0.172986388, 0.803655922
1194, -0.159102321, 0.670547903
1195, -0.146802902, 0.552631915
1196, -0.135907248, 0.448174089
1197, -0.12625514, 0.355638355
1198, -0.117704667, 0.273663998
1199, -0.58114028, 5.2737937
1200, -0.520139754, 4.63047171
1201, -0.466101438, 4.06057453
1202, -0.418230683, 3.55572104
1203, -0.375823557, 3.10848832
1204, -0.338256478, 2.71229959
1205, -0.304977059, 2.36132932
1206, -0.275495946, 2.05041623
1207, -0.24937959, 1.77498877
1208, -0.226243988, 1.53099668
1209, -0.205748916, 1.31485212
1210, -0.187593013, 1.12337697
1211, -0.171509311, 0.953755438
1212, -0.157261282, 0.803493321
1213, -0.144639432, 0.670381129
1214, -0.133458167, 0.552461445
1215, -0.123553038, 0.448000342
1216, -0.114778414, 0.355461717
1217, -0.107005276, 0.273484796
1218, -0.523026347, 5.27377319
1219, -0.468125999, 4.63043308
1220, -0.419491589, 4.06051922
1221, -0.376407951, 3.5556519
1222, -0.338241607, 3.10840631
1223, -0.304431319, 2.7122066
1224, -0.274479896, 2.36122632
1225, -0.247946933, 2.05030441
1226, -0.224442258, 1.77486908
1227, -0.20362024, 1.53087008
1228, -0.185174718, 1.31471956
1229, -0.168834433, 1.12323892
1230, -0.154359117, 0.953612566
1231, -0.141535923, 0.803346217
1232, -0.130176276, 0.670230269
1233, -0.120113142, 0.552307248
1234, -0.111198545, 0.447843164
1235, -0.103301406, 0.355301887
1236, -0.0963055864, 0.273322672
1237, -0.464912415, 5.27375507
1238, -0.416112155, 4.63039827
1239, -0.372881621, 4.0604701
1240, -0.33458513, 3.55558991
1241, -0.300659567, 3.10833311
1242, -0.270606011, 2.71212316
1243, -0.243982553, 2.36113405
1244, -0.220397726, 2.05020428
1245, -0.199504718, 1.77476203
1246, -0.180996299, 1.53075695
1247, -0.164600298, 1.31460083
1248, -0.150075614, 1.1231153
1249, -0.1372087, 0.953484714
1250, -0.12581031, 0.80321455
1251, -0.115712866, 0.670095205
1252, -0.10676787, 0.552169204
1253, -0.098843798, 0.447702497
1254, -0.0918241292, 0.355158895
1255, -0.0856056362, 0.273177594
1256, -0.406798422, 5.27373886
1257, -0.364098251, 4.63036776
1258, -0.326271594, 4.06042719
1259, -0.29276222, 3.55553532
1260, -0.263077378, 3.1082685
1261, -0.236780539, 2.71204972
1262, -0.213485062, 2.36105275
1263, -0.192848369, 2.05011606
1264, -0.174567014, 1.77466762
1265, -0.158372164, 1.53065705
1266, -0.144025683, 1.31449604
1267, -0.131316602, 1.12300634
1268, -0.12005806, 0.953371882
1269, -0.110084496, 0.803098381
1270, -0.10124924, 0.669976115
1271, -0.0934223831, 0.552047431
1272, -0.0864888281, 0.4475784
1273, -0.0803466216, 0.355032742
1274, -0.0749054477, 0.273049593
1275, -0.34868443, 5.27372456
1276, -0.312084317, 4.63034105
1277, -0.279661506, 4.06038952
1278, -0.25093922, 3.55548787
1279, -0.225495085, 3.10821247
1280, -0.202954978, 2.71198606
1281, -0.182987437, 2.36098218
1282, -0.165298864, 2.05003953
1283, -0.149629146, 1.77458572
1284, -0.135747865, 1.53057039
1285, -0.123450898, 1.31440532
1286, -0.112557419, 1.12291181
1287, -0.102907248, 0.953274131
1288, -0.0943584815, 0.802997708
1289, -0.0867854208, 0.66987282
1290, -0.080076687, 0.551941931
1291, -0.0741336495, 0.447470844
1292, -0.0688689128, 0.354923368
1293, -0.0642050505, 0.272938669
1294, -0.290570378, 5.27371264
1295, -0.260070324, 4.63031864
1296, -0.233051345, 4.06035757
1297, -0.209116116, 3.55544782
1298, -0.187912703, 3.10816503
1299, -0.169129297, 2.71193218
1300, -0.152489707, 2.36092257
1301, -0.13774924, 2.04997492
1302, -0.124691159, 1.77451646
1303, -0.113123432, 1.53049719
1304, -0.102875963, 1.31432855
1305, -0.0937980786, 1.12283194
1306, -0.0857562795, 0.9531914
1307, -0.0786323175, 0.802912533
1308, -0.0723214298, 0.6697855
1309, -0.0667308345, 0.551852643
1310, -0.0617783032, 0.447379827
1311, -0.0573910251, 0.354830861
1312, -0.0535044782, 0.272844791
1313, -0.232456326, 5.2737031
1314, -0.208056301, 4.63030052
1315, -0.186441138, 4.06033134
1316, -0.167292967, 3.55541515
1317, -0.150330245, 3.1081264
1318, -0.135303542, 2.71188807
1319, -0.12199188, 2.3608737
1320, -0.110199519, 2.04992175
1321, -0.099753052, 1.77445984
1322, -0.0904988796, 1.53043723
1323, -0.0823009163, 1.31426573
1324, -0.0750386119, 1.12276649
1325, -0.0686051771, 0.953123748
1326, -0.0629060119, 0.802842855
1327, -0.0578573123, 0.669713974
1328, -0.053384833, 0.551779568
1329, -0.0494228154, 0.447305381
1330, -0.0459129922, 0.354755133
1331, -0.0428037606, 0.272767991
1332, -0.17434226, 5.27369547
1333, -0.156042248, 4.63028622
1334, -0.139830887, 4.06031132
1335, -0.125469774, 3.55538964
1336, -0.112747744, 3.10809612
1337, -0.101477712, 2.71185374
1338, -0.0914939716, 2.36083579
1339, -0.0826497078, 2.04988074
1340, -0.074814871, 1.77441573
1341, -0.0678742453, 1.53039062
1342, -0.0617257729, 1.31421685
1343, -0.0562790483, 1.12271559
1344, -0.0514539741, 0.953071117
1345, -0.0471796021, 0.802788615
1346, -0.0433930792, 0.669658422
1347, -0.0400387235, 0.551722765
1348, -0.0370672122, 0.447247446
1349, -0.0344348475, 0.354696274
1350, -0.0321029238, 0.272708237
1351, -0.116228178, 5.27368975
1352, -0.10402818, 4.6302762
1353, -0.0932206064, 4.06029701
1354, -0.0836465359, 3.55537128
1355, -0.0751651824, 3.10807467
1356, -0.0676518381, 2.71182919
1357, -0.0609960146, 2.36080861
1358, -0.0550998412, 2.04985118
1359, -0.0498766154, 1.77438426
1360, -0.0452495329, 1.53035736
1361, -0.041150555, 1.31418192
1362, -0.0375194065, 1.12267935
1363, -0.0343026929, 0.953033507
1364, -0.031453114, 0.802749932
1365, -0.028928766, 0.669618666
1366, -0.0266925283, 0.551682174
1367, -0.0247115213, 0.44720608
1368, -0.0229566135, 0.354654193
1369, -0.0214019977, 0.27266559
1370, -0.0581140928, 5.27368689
1371, -0.0520140938, 4.63027
1372, -0.0466103069, 4.06028843
1373, -0.0418232754, 3.55536056
1374, -0.0375825986, 3.10806179
1375, -0.0338259265, 2.71181464
1376, -0.0304980166, 2.3607924
1377, -0.0275499299, 2.04983354
1378, -0.0249383189, 1.77436543
1379, -0.0226247776, 1.53033733
1380, -0.0205752905, 1.31416094
1381, -0.0187597163, 1.12265754
1382, -0.0171513595, 0.953010917
1383, -0.01572657, 0.802726686
1384, -0.0144643961, 0.669594884
1385, -0.0133462781, 0.551657796
1386, -0.0123557746, 0.447181255
1387, -0.0114783207, 0.35462898
1388, -0.0107010137, 0.27263996
1389, 0, 5.27368546
1390, 0, 4.63026762
1391, 0, 4.06028557
1392, 0, 3.55535674
1393, 0, 3.1080575
1394, 0, 2.71180964
1395, 0, 2.36078691
1396, 0, 2.04982758
1397, 0, 1.77435911
1398, 0, 1.53033066
1399, 0, 1.31415403
1400, 0, 1.12265027
1401, 0, 0.953003407
1402, 0, 0.802718937
1403, 0, 0.669586897
1404, 0, 0.55164969
1405, 0, 0.447172999
1406, 0, 0.354620546
1407, 0, 0.272631437
1408, 0.0581140928, 5.27368689
1409, 0.0520140938, 4.63027
1410, 0.0466103069, 4.06028843
1411, 0.0418232754, 3.55536056
1412, 0.0375825986, 3.10806179
1413, 0.0338259265, 2.71181464
1414, 0.0304980166, 2.3607924
1415, 0.0275499299, 2.04983354
1416, 0.0249383189, 1.77436543
1417, 0.0226247776, 1.53033733
1418, 0.0205752905, 1.31416094
1419, 0.0187597163, 1.12265754
1420, 0.0171513595, 0.953010917
1421, 0.01572657, 0.802726686
1422, 0.0144643961, 0.669594884
1423, 0.0133462781, 0.551657796
1424, 0.0123557746, 0.447181255
1425, 0.0114783207, 0.35462898
1426, 0.0107010137, 0.27263996
1427, 0.116228178, 5.27368975
1428, 0.10402818, 4.6302762
1429, 0.0932206064, 4.06029701
1430, 0.0836465359, 3.55537128
1431, 0.0751651824, 3.10807467
1432, 0.0676518381, 2.71182919
1433, 0.0609960146, 2.36080861
1434, 0.0550998412, 2.04985118
1435, 0.0498766154, 1.77438426
1436, 0.0452495329, 1.53035736
1437, 0.041150555, 1.31418192
1438, 0.0375194065, 1.12267935
1439, 0.0343026929, 0.953033507
1440, 0.031453114, 0.802749932
1441, 0.028928766, 0.669618666
1442, 0.0266925283, 0.551682174
1443, 0.0247115213, 0.44720608
1444, 0.0229566135, 0.354654193
1445, 0.0214019977, 0.27266559
1446, 0.17434226, 5.27369547
1447, 0.156042248, 4.63028622
1448, 0.139830887, 4.06031132
1449, 0.125469774, 3.55538964
1450, 0.112747744, 3.10809612
1451, 0.101477712, 2.71185374
1452, 0.0914939716, 2.36083579
1453, 0.0826497078, 2.04988074
1454, 0.074814871, 1.77441573
1455, 0.0678742453, 1.53039062
1456, 0.0617257729, 1.31421685
1457, 0.0562790483, 1.12271559
1458, 0.0514539741, 0.953071117
1459, 0.0471796021, 0.802788615
1460, 0.0433930792, 0.669658422
1461, 0.0400387235, 0.551722765
1462, 0.0370672122, 0.447247446
1463, 0.0344348475, 0.354696274
1464, 0.0321029238, 0.272708237
1465, 0.232456326, 5.2737031
1466, 0.208056301, 4.63030052
1467, 0.186441138, 4.06033134
1468, 0.167292967, 3.55541515
1469, 0.150330245, 3.1081264
1470, 0.135303542, 2.71188807
1471, 0.12199188, 2.3608737
1472, 0.110199519, 2.04992175
1473, 0.099753052, 1.77445984
1474, 0.0904988796, 1.53043723
1475, 0.0823009163, 1.31426573
1476, 0.0750386119, 1.12276649
1477, 0.0686051771, 0.953123748
1478, 0.0629060119, 0.802842855
1479, 0.0578573123, 0.669713974
1480, 0.053384833, 0.551779568
1481, 0.0494228154, 0.447305381
1482, 0.0459129922, 0.354755133
1483, 0.0428037606, 0.272767991
1484, 0.290570378, 5.27371264
1485, 0.260070324, 4.63031864
1486, 0.233051345, 4.06035757
1487, 0.209116116, 3.55544782
1488, 0.187912703, 3.10816503
1489, 0.169129297, 2.71193218
1490, 0.152489707, 2.36092257
1491, 0.13774924, 2.04997492
1492, 0.124691159, 1.77451646
1493, 0.113123432, 1.53049719
1494, 0.102875963, 1.31432855
1495, 0.0937980786, 1.12283194
1496, 0.0857562795, 0.9531914
1497, 0.0786323175, 0.802912533
1498, 0.0723214298, 0.6697855
1499, 0.0667308345, 0.551852643
1500, 0.0617783032, 0.447379827
1501, 0.0573910251, 0.354830861
1502, 0.0535044782, 0.272844791
1503, 0.34868443, 5.27372456
1504, 0.312084317, 4.63034105
1505, 0.279661506, 4.06038952
1506, 0.25093922, 3.55548787
1507, 0.225495085, 3.10821247
1508, 0.202954978, 2.71198606
1509, 0.182987437, 2.36098218
1510, 0.165298864, 2.05003953
1511, 0.149629146, 1.77458572
1512, 0.135747865, 1.53057039
1513, 0.123450898, 1.31440532
1514, 0.112557419, 1.12291181
1515, 0.102907248, 0.953274131
1516, 0.0943584815, 0.802997708
1517, 0.0867854208, 0.66987282
1518, 0.080076687, 0.551941931
1519, 0.0741336495, 0.447470844
1520, 0.0688689128, 0.354923368
1521, 0.0642050505, 0.272938669
1522, 0.406798422, 5.27373886
1523, 0.364098251, 4.63036776
1524, 0.326271594, 4.06042719
1525, 0.29276222, 3.55553532
1526, 0.263077378, 3.1082685
1527, 0.236780539, 2.71204972
1528, 0.213485062, 2.36105275
1529, 0.192848369, 2.05011606
1530, 0.174567014, 1.77466762
1531, 0.158372164, 1.53065705
1532, 0.144025683, 1.31449604
1533, 0.131316602, 1.12300634
1534, 0.12005806, 0.953371882
1535, 0.110084496, 0.803098381
1536, 0.10124924, 0.669976115
1537, 0.0934223831, 0.552047431
1538, 0.0864888281, 0.4475784
1539, 0.0803466216, 0.355032742
1540, 0.0749054477, 0.273049593
1541, 0.464912415, 5.27375507
1542, 0.416112155, 4.63039827
1543, 0.372881621, 4.0604701
1544, 0.33458513, 3.55558991
1545, 0.300659567, 3.10833311
1546, 0.270606011, 2.71212316
1547, 0.243982553, 2.36113405
1548, 0.220397726, 2.05020428
1549, 0.199504718, 1.77476203
1550, 0.180996299, 1.53075695
1551, 0.164600298, 1.31460083
1552, 0.150075614, 1.1231153
1553, 0.1372087, 0.953484714
1554, 0.12581031, 0.80321455
1555, 0.115712866, 0.670095205
1556, 0.10676787, 0.552169204
1557, 0.098843798, 0.447702497
1558, 0.0918241292, 0.355158895
1559, 0.0856056362, 0.273177594
1560, 0.523026347, 5.27377319
1561, 0.468125999, 4.63043308
1562, 0.419491589, 4.06051922
1563, 0.376407951, 3.5556519
1564, 0.338241607, 3.10840631
1565, 0.304431319, 2.7122066
1566, 0.274479896, 2.36122632
1567, 0.247946933, 2.05030441
1568, 0.224442258, 1.77486908
1569, 0.20362024, 1.53087008
1570, 0.185174718, 1.31471956
1571, 0.168834433, 1.12323892
1572, 0.154359117, 0.953612566
1573, 0.141535923, 0.803346217
1574, 0.130176276, 0.670230269
1575, 0.120113142, 0.552307248
1576, 0.111198545, 0.447843164
1577, 0.103301406, 0.355301887
1578, 0.0963055864, 0.273322672
1579, 0.58114028, 5.2737937
1580, 0.520139754, 4.63047171
1581, 0.466101438, 4.06057453
1582, 0.418230683, 3.55572104
1583, 0.375823557, 3.10848832
1584, 0.338256478, 2.71229959
1585, 0.304977059, 2.36132932
1586, 0.275495946, 2.05041623
1587, 0.24937959, 1.77498877
1588, 0.226243988, 1.53099668
1589, 0.205748916, 1.31485212
1590, 0.187593013, 1.12337697
1591, 0.171509311, 0.953755438
1592, 0.157261282, 0.803493321
1593, 0.144639432, 0.670381129
1594, 0.133458167, 0.552461445
1595, 0.123553038, 0.448000342
1596, 0.114778414, 0.355461717
1597, 0.107005276, 0.273484796
1598, 0.639254212, 5.27381659
1599, 0.572153509, 4.63051462
1600, 0.512711227, 4.06063509
1601, 0.460053265, 3.55579758
1602, 0.413405329, 3.10857868
1603, 0.372081488, 2.71240258
1604, 0.335474044, 2.36144304
1605, 0.303044766, 2.05053973
1606, 0.274316728, 1.77512097
1607, 0.248867497, 1.53113651
1608, 0.226322889, 1.31499875
1609, 0.206351355, 1.12352955
1610, 0.188659236, 0.953913331
1611, 0.172986388, 0.803655922
1612, 0.159102321, 0.670547903
1613, 0.146802902, 0.552631915
1614, 0.135907248, 0.448174089
1615, 0.12625514, 0.355638355
1616, 0.117704667, 0.273663998
1617, 0.697368026, 5.27384138
1618, 0.624167085, 4.63056183
1619, 0.559320867, 4.06070137
1620, 0.501875699, 3.55588126
1621, 0.450986952, 3.10867786
1622, 0.40590629, 2.71251512
1623, 0.36597085, 2.36156774
1624, 0.330593348, 2.05067515
1625, 0.299253613, 1.77526569
1626, 0.271490753, 1.5312897
1627, 0.24689658, 1.31515932
1628, 0.225109413, 1.12369668
1629, 0.205808893, 0.954086304
1630, 0.188711196, 0.803834021
1631, 0.173564911, 0.670730591
1632, 0.160147324, 0.552818656
1633, 0.14826113, 0.448364377
1634, 0.137731552, 0.355831802
1635, 0.128403738, 0.273860276
1636, 0.755481839, 5.27386856
1637, 0.676180661, 4.63061285
1638, 0.605930388, 4.06077385
1639, 0.543698013, 3.55597234
1640, 0.488568395, 3.10878563
1641, 0.439730912, 2.71263766
1642, 0.396467388, 2.3617034
1643, 0.35814169, 2.05082226
1644, 0.324190229, 1.77542317
1645, 0.294113755, 1.53145611
1646, 0.267470002, 1.31533384
1647, 0.243867174, 1.12387836
1648, 0.222958222, 0.954274297
1649, 0.204435676, 0.804027617
1650, 0.188027173, 0.670929134
1651, 0.173491418, 0.55302161
1652, 0.160614684, 0.448571205
1653, 0.149207607, 0.356042087
1654, 0.139102444, 0.274073601
1655, 0.813595593, 5.27389765
1656, 0.728194118, 4.63066769
1657, 0.65253979, 4.06085157
1658, 0.585520148, 3.5560708
1659, 0.526149631, 3.10890198
1660, 0.473555297, 2.71276999
1661, 0.426963717, 2.36184978
1662, 0.385689765, 2.05098128
1663, 0.349126577, 1.77559316
1664, 0.31673643, 1.531636
1665, 0.288043082, 1.31552243
1666, 0.262624621, 1.12407458
1667, 0.240107223, 0.95447731
1668, 0.220159814, 0.80423671
1669, 0.202489078, 0.671143532
1670, 0.18683514, 0.553240776
1671, 0.172967851, 0.448794574
1672, 0.160683274, 0.356269181
1673, 0.149800777, 0.274304003
1674, 0.871709287, 5.27392912
1675, 0.780207455, 4.63072681
1676, 0.699149013, 4.0609355
1677, 0.627342105, 3.55617642
1678, 0.563730657, 3.10902691
1679, 0.507379413, 2.71291208
1680, 0.457459748, 2.3620069
1681, 0.413237572, 2.05115199
1682, 0.374062598, 1.77577567
1683, 0.339358807, 1.53182912
1684, 0.308615834, 1.31572485
1685, 0.281381696, 1.12428534
1686, 0.257255852, 0.954695344
1687, 0.235883579, 0.804461241
1688, 0.216950595, 0.671373844
1689, 0.200178489, 0.553476155
1690, 0.185320631, 0.449034482
1691, 0.172158554, 0.356513083
1692, 0.160498708, 0.274551451
1693, 0.929822922, 5.2739625
1694, 0.832220733, 4.63079023
1695, 0.745758176, 4.06102514
1696, 0.669163823, 3.5562892
1697, 0.601311505, 3.10916042
1698, 0.54120332, 2.71306396
1699, 0.48795554, 2.36217499
1700, 0.44078505, 2.05133438
1701, 0.39899832, 1.77597082
1702, 0.361980826, 1.53203547
1703, 0.329188257, 1.31594121
1704, 0.300138384, 1.12451053
1705, 0.274404109, 0.954928458
1706, 0.251606941, 0.804701269
1707, 0.231411695, 0.671620071
1708, 0.213521391, 0.553727806
1709, 0.197672978, 0.449290961
1710, 0.183633387, 0.356773823
1711, 0.171196178, 0.274815977
1712, 0.987936497, 5.27399826
1713, 0.884233832, 4.63085747
1714, 0.792367101, 4.06112051
1715, 0.710985422, 3.55640936
1716, 0.638892055, 3.10930252
1717, 0.575026989, 2.7132256
1718, 0.518450975, 2.36235404
1719, 0.468332231, 2.05152845
1720, 0.423933685, 1.7761786
1721, 0.384602457, 1.53225529
1722, 0.349760264, 1.31617165
1723, 0.318894684, 1.12475038
1724, 0.291551918, 0.955176592
1725, 0.267329872, 0.804956794
1726, 0.245872363, 0.671882093
1727, 0.226863861, 0.553995669
1728, 0.210024863, 0.44956395
1729, 0.195107758, 0.357051373
1730, 0.181893185, 0.275097549
1731, 1.04605007, 5.27403641
1732, 0.936246872, 4.63092899
1733, 0.838975906, 4.0612216
1734, 0.752806783, 3.55653691
1735, 0.676472366, 3.10945344
1736, 0.6088503, 2.71339703
1737, 0.548946142, 2.36254382
1738, 0.495879054, 2.05173445
1739, 0.448868662, 1.7763989
1740, 0.407223731, 1.53248835
1741, 0.370331854, 1.31641603
1742, 0.337650567, 1.12500465
1743, 0.30869931, 0.955439746
1744, 0.283052355, 0.805227816
1745, 0.260332555, 0.672160029
1746, 0.240205854, 0.554279745
1747, 0.222376272, 0.44985351
1748, 0.206581637, 0.35734576
1749, 0.1925897, 0.275396198
1750, 1.10416353, 5.27407646
1751, 0.988259733, 4.63100433
1752, 0.885584474, 4.06132841
1753, 0.794627905, 3.55667162
1754, 0.714052439, 3.1096127
1755, 0.642673314, 2.71357822
1756, 0.579440951, 2.36274433
1757, 0.523425519, 2.05195236
1758, 0.473803252, 1.77663183
1759, 0.429844558, 1.53273463
1760, 0.390903026, 1.31667423
1761, 0.356406003, 1.12527347
1762, 0.325846225, 0.955717921
1763, 0.298774362, 0.805514276
1764, 0.274792284, 0.67245388
1765, 0.253547341, 0.554580092
1766, 0.234727159, 0.45015958
1767, 0.218054995, 0.357656926
1768, 0.203285664, 0.275711894
1769, 1.16227686, 5.27411842
1770, 1.04027247, 4.63108397
1771, 0.932192922, 4.06144142
1772, 0.836448789, 3.55681372
1773, 0.751632214, 3.10978079
1774, 0.676496029, 2.7137692
1775, 0.609935403, 2.36295581
1776, 0.550971568, 2.05218172
1777, 0.498737454, 1.7768774
1778, 0.452464968, 1.53299439
1779, 0.411473721, 1.31694651
1780, 0.375160962, 1.12555695
1781, 0.342992663, 0.956011176
1782, 0.314495832, 0.805816233
1783, 0.289251447, 0.672763586
1784, 0.266888291, 0.554896593
1785, 0.24707751, 0.45048219
1786, 0.229527801, 0.35798493
1787, 0.213981092, 0.276044667
1788, 1.2203902, 5.27416277
1789, 1.09228516, 4.63116789
1790, 0.978801131, 4.06155968
1791, 0.878269374, 3.55696297
1792, 0.78921169, 3.10995746
1793, 0.710318446, 2.71397018
1794, 0.640429497, 2.36317801
1795, 0.578517258, 2.052423
1796, 0.52367121, 1.77713549
1797, 0.475084931, 1.53326738
1798, 0.43204397, 1.31723273
1799, 0.393915385, 1.12585473
1800, 0.360138565, 0.956319451
1801, 0.330216795, 0.806133687
1802, 0.303710103, 0.673089147
1803, 0.280228674, 0.555229366
1804, 0.259427279, 0.45082134
1805, 0.241000012, 0.358329743
1806, 0.224675909, 0.276394486
1807, 1.27850342, 5.2742095
1808, 1.1442976, 4.63125563
1809, 1.0254091, 4.06168413
1810, 0.920089781, 3.55711961
1811, 0.826790869, 3.11014271
1812, 0.744140446, 2.71418071
1813, 0.670923173, 2.36341119
1814, 0.606062472, 2.05267596
1815, 0.548604488, 1.7774061
1816, 0.497704387, 1.53355372
1817, 0.452613682, 1.3175329
1818, 0.412669331, 1.12616718
1819, 0.377283931, 0.956642747
1820, 0.345937192, 0.806466639
1821, 0.318168163, 0.673430622
1822, 0.293568492, 0.555578411
1823, 0.271776468, 0.451177031
1824, 0.252471626, 0.358691365
1825, 0.235370114, 0.276761353
1826, 1.33661652, 5.27425814
1827, 1.19630992, 4.63134718
1828, 1.07201695, 4.06181383
1829, 0.96190989, 3.5572834
1830, 0.86436969, 3.11033654
1831, 0.777962089, 2.71440125
1832, 0.701416492, 2.36365509
1833, 0.633607268, 2.05294085
1834, 0.57353735, 1.77768946
1835, 0.520323336, 1.53385329
1836, 0.473182887, 1.31784701
1837, 0.431422681, 1.12649417
1838, 0.39442873, 0.956981063
1839, 0.361656994, 0.806815028
1840, 0.332625628, 0.673787892
1841, 0.306907684, 0.555943608
1842, 0.284125, 0.451549262
1843, 0.263942599, 0.359069794
1844, 0.246063679, 0.277145296
1845, 1.39472961, 5.27430868
1846, 1.24832201, 4.63144302
1847, 1.11862445, 4.06194973
1848, 1.0037297, 3.55745459
1849, 0.901948214, 3.11053896
1850, 0.811783373, 2.71463132
1851, 0.731909335, 2.36390996
1852, 0.661151588, 2.05321741
1853, 0.598469615, 1.77798522
1854, 0.542941809, 1.53416622
1855, 0.493751526, 1.31817508
1856, 0.450175464, 1.12683558
1857, 0.411572903, 0.957334399
1858, 0.377376199, 0.807178915
1859, 0.347082436, 0.674161077
1860, 0.32024622, 0.556325078
1861, 0.296472907, 0.451938033
1862, 0.275412917, 0.359465033
1863, 0.256756574, 0.277546257
1864, 1.45284259, 5.27436209
1865, 1.30033398, 4.63154316
1866, 1.16523182, 4.06209135
1867, 1.04554915, 3.55763316
1868, 0.93952632, 3.1107502
1869, 0.845604241, 2.71487141
1870, 0.76240176, 2.36417556
1871, 0.688695431, 2.05350566
1872, 0.623401463, 1.77829373
1873, 0.565559685, 1.53449249
1874, 0.514319599, 1.31851709
1875, 0.468927681, 1.12719166
1876, 0.428716481, 0.957702756
1877, 0.393094748, 0.807558239
1878, 0.361538619, 0.674550176
1879, 0.3335841, 0.55672276
1880, 0.308820099, 0.452343345
1881, 0.28688252, 0.35987708
1882, 0.267448753, 0.277964294
1883, 1.51095545, 5.27441692
1884, 1.35234582, 4.63164711
1885, 1.21183884, 4.06223869
1886, 1.08736837, 3.55781865
1887, 0.977104068, 3.11096978
1888, 0.879424632, 2.71512127
1889, 0.792893648, 2.36445189
1890, 0.716238737, 2.05380583
1891, 0.648332715, 1.77861464
1892, 0.588176966, 1.534832
1893, 0.534887016, 1.31887305
1894, 0.487679243, 1.12756217
1895, 0.445859402, 0.958086193
1896, 0.408812612, 0.80795306
1897, 0.375994116, 0.67495513
1898, 0.346921265, 0.557136655
1899, 0.321166605, 0.452765167
1900, 0.298351407, 0.360305935
1901, 0.278140187, 0.278399378
1902, 1.56906819, 5.27447462
1903, 1.40435743, 4.63175535
1904, 1.25844562, 4.06239176
1905, 1.12918723, 3.55801177
1906, 1.01468146, 3.11119819
1907, 0.913244665, 2.71538067
1908, 0.823385119, 2.36473918
1909, 0.743781567, 2.05411768
1910, 0.673263371, 1.77894831
1911, 0.61079371, 1.53518486
1912, 0.555453837, 1.31924295
1913, 0.506430149, 1.12794721
1914, 0.463001668, 0.95848459
1915, 0.424529821, 0.808363318
1916, 0.390448868, 0.675375879
1917, 0.360257715, 0.557566762
1918, 0.333512366, 0.453203529
1919, 0.309819549, 0.360751599
1920, 0.288830847, 0.278851539
1921, 1.62718093, 5.27453375
1922, 1.45636892, 4.63186741
1923, 1.30505216, 4.06255102
1924, 1.17100573, 3.55821204
1925, 1.05225849, 3.11143494
1926, 0.947064161, 2.71565008
1927, 0.853876054, 2.36503744
1928, 0.7713238, 2.05444121
1929, 0.698193491, 1.77929449
1930, 0.633409798, 1.53555107
1931, 0.576020062, 1.31962681
1932, 0.525180399, 1.12834668
1933, 0.480143219, 0.958898067
1934, 0.440246284, 0.808789134
1935, 0.404902905, 0.675812602
1936, 0.37359339, 0.558013082
1937, 0.345857322, 0.453658402
1938, 0.321286887, 0.361214072
1939, 0.299520731, 0.279320717
1940, 1.68529344, 5.27459574
1941, 1.50838017, 4.63198376
1942, 1.35165846, 4.06271553
1943, 1.21282387, 3.55841947
1944, 1.08983505, 3.11168051
1945, 0.980883241, 2.71592927
1946, 0.884366453, 2.36534643
1947, 0.798865497, 2.05477667
1948, 0.723122954, 1.77965319
1949, 0.656025231, 1.53593051
1950, 0.596585572, 1.32002461
1951, 0.543929935, 1.12876081
1952, 0.497284025, 0.959326565
1953, 0.455962002, 0.809230328
1954, 0.419356167, 0.676265121
1955, 0.38692829, 0.558475614
1956, 0.358201504, 0.454129845
1957, 0.33275342, 0.361693352
1958, 0.310209781, 0.279806972
1959, 1.74340594, 5.27465916
1960, 1.56039119, 4.6321044
1961, 1.39826441, 4.06288576
1962, 1.25464177, 3.55863428
1963, 1.12741113, 3.11193466
1964, 1.01470184, 2.71621823
1965, 0.914856315, 2.36566615
1966, 0.826406538, 2.05512381
1967, 0.748051822, 1.78002453
1968, 0.678640008, 1.53632331
1969, 0.617150366, 1.32043636
1970, 0.562678695, 1.12918937
1971, 0.514424086, 0.959770024
1972, 0.471676946, 0.809687018
1973, 0.433808655, 0.676733494
1974, 0.400262386, 0.558954418
1975, 0.370544851, 0.454617769
1976, 0.344219089, 0.362189442
1977, 0.320897996, 0.280310243
1978, 1.80151832, 5.27472544
1979, 1.61240196, 4.63222885
1980, 1.44487011, 4.06306219
1981, 1.2964592, 3.55885649
1982, 1.16498685, 3.1121974
1983, 1.04851985, 2.71651697
1984, 0.94534564, 2.36599684
1985, 0.853947043, 2.05548263
1986, 0.772980034, 1.78040838
1987, 0.70125407, 1.53672934
1988, 0.637714446, 1.32086205
1989, 0.58142674, 1.12963247
1990, 0.531563401, 0.960228562
1991, 0.487391084, 0.810159206
1992, 0.448260278, 0.677217782
1993, 0.413595617, 0.559449375
1994, 0.382887363, 0.455122232
1995, 0.355683923, 0.36270231
1996, 0.331585288, 0.280830562
1997, 1.85963058, 5.27479362
1998, 1.66441262, 4.63235712
1999, 1.49147546, 4.06324434
2000, 1.33827615, 3.55908585
2001, 1.20256209, 3.11246872
2002, 1.08233738, 2.71682549
2003, 0.97583437, 2.36633825
2004, 0.881486893, 2.05585313
2005, 0.797907591, 1.78080487
2006, 0.723867476, 1.53714871
2007, 0.65827775, 1.3213017
2008, 0.60017401, 1.13009012
2009, 0.548701882, 0.960702062
2010, 0.503104389, 0.810646832
2011, 0.462711096, 0.677717924
2012, 0.426928014, 0.559960544
2013, 0.395228982, 0.455643237
2014, 0.367147833, 0.363231987
2015, 0.342271715, 0.281367928
2016, 1.91774261, 5.27486372
2017, 1.71642292, 4.63248968
2018, 1.53808045, 4.06343174
2019, 1.38009286, 3.5593226
2020, 1.24013674, 3.11274862
2021, 1.11615443, 2.71714377
2022, 1.0063225, 2.3666904
2023, 0.909026086, 2.05623555
2024, 0.822834432, 1.78121388
2025, 0.746480107, 1.53758132
2026, 0.678840339, 1.32175529
2027, 0.618920505, 1.13056231
2028, 0.565839529, 0.961190641
2029, 0.518816829, 0.811149955
2030, 0.47716102, 0.678233862
2031, 0.440259486, 0.560487986
2032, 0.407569677, 0.456180751
2033, 0.37861082, 0.363778472
2034, 0.352957159, 0.28192234
2035, 1.97585464, 5.2749362
2036, 1.76843309, 4.63262653
2037, 1.58468521, 4.06362534
2038, 1.42190909, 3.5595665
2039, 1.27771103, 3.11303711
2040, 1.14997089, 2.71747184
2041, 1.03681004, 2.36705351
2042, 0.936564624, 2.05662966
2043, 0.847760558, 1.78163552
2044, 0.769091964, 1.53802729
2045, 0.699402094, 1.32222283
2046, 0.637666166, 1.13104892
2047, 0.582976341, 0.961694181
2048, 0.534528434, 0.811668515
2049, 0.49161002, 0.678765714
2050, 0.453590065, 0.56103158
2051, 0.419909418, 0.456734806
2052, 0.390072852, 0.364341736
2053, 0.363641649, 0.2824938
2054, 2.03396654, 5.27501106
2055, 1.82044303, 4.6327672
2056, 1.6312896, 4.06382465
2057, 1.46372485, 3.55981755
2058, 1.31528485, 3.11333442
2059, 1.18378675, 2.71780968
2060, 1.06729686, 2.36742759
2061, 0.964102507, 2.05703568
2062, 0.872685969, 1.78206968
2063, 0.791703105, 1.5384866
2064, 0.719963074, 1.32270432
2065, 0.656410933, 1.13155007
2066, 0.600112259, 0.962212801
2067, 0.550239086, 0.812202513
2068, 0.506058097, 0.679313421
2069, 0.466919661, 0.561591387
2070, 0.432248205, 0.457305342
2071, 0.401533902, 0.364921808
2072, 0.374325126, 0.283082306
2073, 2.09207821, 5.27508783
2074, 1.87245262, 4.63291216
2075, 1.67789364, 4.06402969
2076, 1.50554013, 3.560076
2077, 1.35285807, 3.11364007
2078, 1.21760201, 2.71815729
2079, 1.09778309, 2.3678124
2080, 0.991639614, 2.05745316
2081, 0.897610605, 1.78251648
2082, 0.814313352, 1.53895915
2083, 0.74052316, 1.32319975
2084, 0.675154865, 1.13206565
2085, 0.617247224, 0.962746382
2086, 0.565948844, 0.812752008
2087, 0.52050525, 0.679876983
2088, 0.480248272, 0.562167406
2089, 0.444585979, 0.457892418
2090, 0.412993938, 0.365518659
2091, 0.38500759, 0.28368783
2092, 2.15018988, 5.27516651
2093, 1.92446208, 4.63306093
2094, 1.7244972, 4.06424093
2095, 1.54735506, 3.56034184
2096, 1.39043069, 3.11395454
2097, 1.25141668, 2.71851468
2098, 1.12826872, 2.36820793
2099, 1.01917601, 2.05788255
2100, 0.922534406, 1.78297579
2101, 0.836922824, 1.53944504
2102, 0.761082411, 1.32370913
2103, 0.693897843, 1.1325959
2104, 0.634381294, 0.963294983
2105, 0.581657588, 0.813316941
2106, 0.534951389, 0.6804564
2107, 0.493575901, 0.562759638
2108, 0.45692274, 0.458496034
2109, 0.424452931, 0.366132319
2110, 0.395688981, 0.2843104
2111, 2.20830131, 5.27524757
2112, 1.97647119, 4.633214
2113, 1.77110052, 4.06445742
2114, 1.5891695, 3.56061482
2115, 1.42800283, 3.11427736
2116, 1.28523064, 2.71888208
2117, 1.15875351, 2.3686142
2118, 1.04671168, 2.05832386
2119, 0.947457492, 1.78344774
2120, 0.859531462, 1.53994417
2121, 0.781640768, 1.32423246
2122, 0.712639928, 1.13314056
2123, 0.651514411, 0.963858604
2124, 0.597365379, 0.813897371
2125, 0.549396515, 0.681051672
2126, 0.506902456, 0.563368082
2127, 0.469258457, 0.459116131
2128, 0.435910851, 0.366762757
2129, 0.406369299, 0.284949988
2130, 2.26641273, 5.27533102
2131, 2.02848005, 4.63337088
2132, 1.81770349, 4.06467962
2133, 1.63098347, 3.56089497
2134, 1.4655745, 3.114609
2135, 1.31904411, 2.71925902
2136, 1.18923771, 2.36903143
2137, 1.07424653, 2.05877662
2138, 0.972379684, 1.78393221
2139, 0.882139206, 1.54045653
2140, 0.802198172, 1.32476962
2141, 0.731381059, 1.13369966
2142, 0.668646574, 0.964437246
2143, 0.613072157, 0.814493239
2144, 0.563840568, 0.681662798
2145, 0.520228028, 0.563992739
2146, 0.481593072, 0.459752738
2147, 0.447367638, 0.367409974
2148, 0.417048484, 0.285606623
2149, 2.32452393, 5.27541637
2150, 2.08048868, 4.63353205
2151, 1.86430597, 4.06490803
2152, 1.67279696, 3.5611825
2153, 1.50314546, 3.11494923
2154, 1.35285687, 2.71964574
2155, 1.21972108, 2.36945963
2156, 1.10178065, 2.05924129
2157, 0.997301042, 1.78442919
2158, 0.904746056, 1.54098225
2159, 0.822754681, 1.32532072
2160, 0.750121236, 1.13427341
2161, 0.685777664, 0.965030849
2162, 0.628777862, 0.815104544
2163, 0.578283608, 0.682289779
2164, 0.533552408, 0.564633548
2165, 0.493926555, 0.460405856
2166, 0.458823323, 0.368074
2167, 0.427726537, 0.286280274
2168, 2.38263488, 5.27550411
2169, 2.13249707, 4.63369703
2170, 1.9109081, 4.06514168
2171, 1.71460998, 3.56147742
2172, 1.54071581, 3.11529779
2173, 1.38666892, 2.72004223
2174, 1.25020385, 2.36989832
2175, 1.12931395, 2.05971766
2176, 1.02222157, 1.78493881
2177, 0.927352011, 1.54152131
2178, 0.843310237, 1.32588589
2179, 0.7688604, 1.13486159
2180, 0.702907741, 0.965639472
2181, 0.644482493, 0.815731287
2182, 0.592725515, 0.682932556
2183, 0.546875715, 0.56529063
2184, 0.506258905, 0.461075515
2185, 0.470277846, 0.368754804
2186, 0.438403398, 0.286970943
2187, 2.44074583, 5.27559376
2188, 2.18450499, 4.63386631
2189, 1.95750988, 4.06538153
2190, 1.7564224, 3.5617795
2191, 1.57828569, 3.11565518
2192, 1.42048025, 2.72044849
2193, 1.28068566, 2.37034822
2194, 1.15684628, 2.0602057
2195, 1.04714119, 1.78546095
2196, 0.949957013, 1.54207361
2197, 0.863864779, 1.32646489
2198, 0.787598491, 1.13546419
2199, 0.720036745, 0.966263115
2200, 0.660186052, 0.816373467
2201, 0.60716635, 0.683591247
2202, 0.56019789, 0.565963864
2203, 0.518590093, 0.461761653
2204, 0.481731176, 0.369452387
2205, 0.449079037, 0.287678659
2206, 2.49885654, 5.27568579
2207, 2.23651266, 4.63403988
2208, 2.00411105, 4.0656271
2209, 1.79823434, 3.56208873
2210, 1.61585486, 3.11602116
2211, 1.45429087, 2.72086453
2212, 1.31116676, 2.3708086
2213, 1.18437791, 2.06070566
2214, 1.07205987, 1.7859956
2215, 0.972561002, 1.54263914
2216, 0.884418309, 1.32705784
2217, 0.806335568, 1.13608146
2218, 0.737164676, 0.966901779
2219, 0.675888479, 0.817031145
2220, 0.621605992, 0.684265733
2221, 0.573518872, 0.566653252
2222, 0.530920088, 0.462464303
2223, 0.493183285, 0.370166719
2224, 0.459753484, 0.288403392
2225, 2.55696702, 5.27577972
2226, 2.2885201, 4.63421726
2227, 2.05071211, 4.06587791
2228, 1.84004569, 3.56240535
2229, 1.65342331, 3.11639571
2230, 1.48810089, 2.72129059
2231, 1.34164715, 2.37127995
2232, 1.21190858, 2.06121707
2233, 1.09697759, 1.78654289
2234, 0.995164037, 1.54321802
2235, 0.904970765, 1.32766461
2236, 0.825071573, 1.13671303
2237, 0.754291475, 0.967555404
2238, 0.691589773, 0.81770426
2239, 0.636044443, 0.684956074
2240, 0.586838663, 0.567358911
2241, 0.543248892, 0.463183433
2242, 0.504634142, 0.370897859
2243, 0.470426619, 0.289145142
2244, 2.6150775, 5.27587605
2245, 2.3405273, 4.63439846
2246, 2.09731245, 4.06613493
2247, 1.88185656, 3.56272936
2248, 1.69099128, 3.11677885
2249, 1.52191007, 2.72172618
2250, 1.37212658, 2.37176204
2251, 1.23943841, 2.0617404
2252, 1.12189448, 1.7871027
2253, 1.01776612, 1.54381025
2254, 0.925522208, 1.32828546
2255, 0.843806446, 1.13735926
2256, 0.771417141, 0.968224049
2257, 0.707289934, 0.818392813
2258, 0.650481701, 0.68566227
2259, 0.600157201, 0.568080664
2260, 0.555576384, 0.463919073
2261, 0.516083717, 0.371645778
2262, 0.481098473, 0.289903909
2263, 2.67318773, 5.27597427
2264, 2.39253402, 4.63458395
2265, 2.14391255, 4.06639767
2266, 1.92366683, 3.56306052
2267, 1.72855842, 3.11717057
2268, 1.55571842, 2.72217155
2269, 1.4026053, 2.37225509
2270, 1.26696742, 2.06227565
2271, 1.14681029, 1.78767514
2272, 1.04036701, 1.54441559
2273, 0.946072578, 1.32892013
2274, 0.862540185, 1.13801992
2275, 0.788541675, 0.968907654
2276, 0.722988844, 0.819096804
2277, 0.664917707, 0.686384261
2278, 0.613474488, 0.568818688
2279, 0.567902625, 0.464671224
2280, 0.527531981, 0.372410446
2281, 0.491769016, 0.290679693
2282, 2.73129773, 5.27607489
2283, 2.4445405, 4.63477373
2284, 2.19051194, 4.06666613
2285, 1.96547651, 3.56339884
2286, 1.76612496, 3.11757088
2287, 1.58952618, 2.72262669
2288, 1.43308306, 2.37275887
2289, 1.29449534, 2.06282234
2290, 1.17172503, 1.78825998
2291, 1.06296694, 1.54503429
2292, 0.966621816, 1.32956874
2293, 0.881272793, 1.138695
2294, 0.805664957, 0.96960628
2295, 0.738686502, 0.819816172
2296, 0.679352522, 0.687122107
2297, 0.626790464, 0.569572866
2298, 0.580227494, 0.465439856
2299, 0.538978934, 0.373191893
2300, 0.502438188, 0.291472495
2301, 2.78940749, 5.27617741
2302, 2.49654675, 4.63496733
2303, 2.23711109, 4.06694078
2304, 2.00728559, 3.56374454
2305, 1.80369079, 3.11797976
2306, 1.62333298, 2.7230916
2307, 1.46355999, 2.37327337
2308, 1.32202232, 2.06338096
2309, 1.19663894, 1.78885746
2310, 1.08556581, 1.54566634
2311, 0.987169921, 1.33023131
2312, 0.900004268, 1.13938463
2313, 0.822787046, 0.970319927
2314, 0.754382908, 0.820551038
2315, 0.693785965, 0.687875807
2316, 0.640105128, 0.570343196
2317, 0.592551112, 0.466224998
2318, 0.550424516, 0.373990119
2319, 0.513105989, 0.292282313
2320, 2.84751725, 5.27628231
2321, 2.54855251, 4.63516521
2322, 2.28370953, 4.06722069
2323, 2.04909396, 3.5640974
2324, 1.8412559, 3.11839724
2325, 1.65713906, 2.72356629
2326, 1.49403596, 2.37379861
2327, 1.34954846, 2.06395125
2328, 1.22155166, 1.78946757
2329, 1.1081636, 1.54631162
2330, 1.00771689, 1.33090782
2331, 0.918734491, 1.1400888
2332, 0.839907885, 0.971048534
2333, 0.770078063, 0.821301341
2334, 0.708218157, 0.688645363
2335, 0.653418481, 0.571129739
2336, 0.6048733, 0.467026621
2337, 0.561868727, 0.374805123
2338, 0.523772359, 0.293109149
2339, 3.05515671, 5.25701523
2340, 2.75221229, 4.60037518
2341, 2.47743654, 4.02098179
2342, 2.22931004, 3.51024103
2343, 2.00609255, 3.06023788
2344, 1.80591297, 2.6638093
2345, 1.62685347, 2.31455064
2346, 1.46701717, 2.00678062
2347, 1.32457638, 1.73548615
2348, 1.19780457, 1.4962585
2349, 1.08509541, 1.28522754
2350, 0.984970748, 1.09899986
2351, 0.896082461, 0.934600115
2352, 0.817209065, 0.78941977
2353, 0.747249484, 0.661170959
2354, 0.685215116, 0.547845483
2355, 0.630221069, 0.447679937
2356, 0.581477165, 0.359124511
2357, 0.538279116, 0.280816287
2358, 3.20468664, 5.23764086
2359, 2.90386677, 4.56538296
2360, 2.62456536, 3.97445726
2361, 2.36771798, 3.45602465
2362, 2.13336468, 3.00165248
2363, 1.92088163, 2.60356808
2364, 1.72919595, 2.2547667
2365, 1.55696094, 1.94902825
2366, 1.40268934, 1.68088233
2367, 1.26484895, 1.44554687
2368, 1.14192808, 1.23885703
2369, 1.03247797, 1.05719233
2370, 0.935137451, 0.897408068
2371, 0.848646224, 0.756772518
2372, 0.77184999, 0.632911205
2373, 0.703699708, 0.523758471
2374, 0.643248022, 0.427515119
2375, 0.589642823, 0.342612147
2376, 0.542120874, 0.267679572
2377, 3.35421658, 5.21826649
2378, 3.05552101, 4.53039122
2379, 2.77169418, 3.9279325
2380, 2.50612617, 3.40180802
2381, 2.26063681, 2.94306684
2382, 2.03585029, 2.54332662
2383, 1.83153832, 2.19498253
2384, 1.64690471, 1.89127576
2385, 1.4808023, 1.6262784
2386, 1.33189321, 1.39483523
2387, 1.19876087, 1.19248641
2388, 1.07998526, 1.01538479
2389, 0.974192441, 0.860216081
2390, 0.880083382, 0.724125206
2391, 0.796450496, 0.604651451
2392, 0.72218436, 0.499671459
2393, 0.656274974, 0.407350302
2394, 0.59780848, 0.326099783
2395, 0.545962632, 0.254542887
2396, 3.50374627, 5.19889212
2397, 3.20717525, 4.495399
2398, 2.918823, 3.88140798
2399, 2.64453435, 3.34759164
2400, 2.38790917, 2.88448143
2401, 2.15081882, 2.48308516
2402, 1.93388081, 2.13519835
2403, 1.73684847, 1.83352327
2404, 1.55891526, 1.57167447
2405, 1.39893758, 1.3441236
2406, 1.25559354, 1.14611578
2407, 1.12749255, 0.973577261
2408, 1.01324737, 0.823024035
2409, 0.911520541, 0.691477895
2410, 0.821051002, 0.576391757
2411, 0.740669012, 0.475584447
2412, 0.669301927, 0.387185484
2413, 0.605974197, 0.309587449
2414, 0.549804449, 0.241406187
2415, 3.65327621, 5.17951775
2416, 3.35882974, 4.46040726
2417, 3.06595182, 3.83488321
2418, 2.7829423, 3.29337502
2419, 2.5151813, 2.82589602
2420, 2.2657876, 2.42284369
2421, 2.03622317, 2.07541418
2422, 1.82679212, 1.7757709
2423, 1.63702822, 1.51707053
2424, 1.46598196, 1.29341197
2425, 1.31242633, 1.09974515
2426, 1.17499983, 0.931769729
2427, 1.05230236, 0.785832047
2428, 0.942957699, 0.658830643
2429, 0.845651507, 0.548132002
2430, 0.759153664, 0.451497436
2431, 0.68232888, 0.367020696
2432, 0.614139855, 0.293075085
2433, 0.553646207, 0.228269503
2434, 3.80280614, 5.16014385
2435, 3.51048398, 4.42541504
2436, 3.21308064, 3.78835869
2437, 2.92135048, 3.23915863
2438, 2.64245343, 2.76731038
2439, 2.38075638, 2.36260247
2440, 2.13856554, 2.01563025
2441, 1.91673589, 1.71801841
2442, 1.71514118, 1.46246672
2443, 1.53302622, 1.24270022
2444, 1.369259, 1.05337453
2445, 1.22250712, 0.889962196
2446, 1.09135735, 0.748640001
2447, 0.974394798, 0.626183331
2448, 0.870252013, 0.519872248
2449, 0.777638316, 0.427410454
2450, 0.695355833, 0.346855879
2451, 0.622305512, 0.276562721
2452, 0.557487965, 0.215132803
2453, 3.95233607, 5.14076948
2454, 3.66213846, 4.3904233
2455, 3.36020947, 3.74183393
2456, 3.05975842, 3.18494201
2457, 2.76972556, 2.70872498
2458, 2.49572492, 2.30236101
2459, 2.24090815, 1.95584607
2460, 2.00667953, 1.66026592
2461, 1.79325414, 1.40786278
2462, 1.6000706, 1.19198859
2463, 1.42609179, 1.0070039
2464, 1.27001441, 0.848154724
2465, 1.13041234, 0.711448014
2466, 1.00583196, 0.593536019
2467, 0.894852459, 0.491612524
2468, 0.796122968, 0.403323442
2469, 0.708382785, 0.326691061
2470, 0.63047123, 0.260050356
2471, 0.561329722, 0.201996103
2472, 4.10186577, 5.12139511
2473, 3.81379271, 4.35543108
2474, 3.50733852, 3.6953094
2475, 3.19816661, 3.13072562
2476, 2.89699793, 2.65013957
2477, 2.61069369, 2.24211955
2478, 2.34325051, 1.8960619
2479, 2.09662342, 1.60251355
2480, 1.8713671, 1.35325885
2481, 1.66711497, 1.14127696
2482, 1.48292446, 0.960633337
2483, 1.31752157, 0.806347191
2484, 1.16946733, 0.674256027
2485, 1.03726912, 0.560888767
2486, 0.919452965, 0.46335277
2487, 0.81460762, 0.37923643
2488, 0.721409738, 0.306526244
2489, 0.638636887, 0.243538007
2490, 0.56517154, 0.188859418
2491, 4.2513957, 5.10202074
2492, 3.96544695, 4.32043934
2493, 3.65446734, 3.64878488
2494, 3.33657455, 3.076509
2495, 3.02427006, 2.59155416
2496, 2.72566223, 2.18187809
2497, 2.44559288, 1.83627784
2498, 2.18656707, 1.54476106
2499, 1.94948018, 1.29865503
2500, 1.73415923, 1.09056532
2501, 1.53975725, 0.914262712
2502, 1.36502886, 0.764539659
2503, 1.20852232, 0.63706398
2504, 1.06870627, 0.528241456
2505, 0.944053471, 0.435093045
2506, 0.833092272, 0.355149418
2507, 0.734436691, 0.286361426
2508, 0.646802545, 0.227025643
2509, 0.569013298, 0.175722718
2510, 4.40092564, 5.08264637
2511, 4.11710119, 4.28544712
2512, 3.80159616, 3.60226011
2513, 3.47498274, 3.02229261
2514, 3.15154219, 2.53296852
2515, 2.84063101, 2.12163687
2516, 2.54793525, 1.77649367
2517, 2.27651095, 1.48700857
2518, 2.02759314, 1.2440511
2519, 1.80120361, 1.03985369
2520, 1.59658992, 0.867892146
2521, 1.41253614, 0.722732127
2522, 1.24757731, 0.599871993
2523, 1.10014343, 0.495594144
2524, 0.968653977, 0.406833291
2525, 0.851576865, 0.331062406
2526, 0.747463644, 0.266196638
2527, 0.654968262, 0.210513294
2528, 0.572855055, 0.162586033
2529, 4.55045557, 5.063272
2530, 4.26875591, 4.2504549
2531, 3.94872499, 3.55573559
2532, 3.61339092, 2.96807623
2533, 3.27881432, 2.47438312
2534, 2.95559978, 2.06139541
2535, 2.65027785, 1.71670961
2536, 2.3664546, 1.4292562
2537, 2.10570598, 1.18944716
2538, 1.86824799, 0.98914206
2539, 1.65342259, 0.821521521
2540, 1.46004343, 0.680924594
2541, 1.2866323, 0.562679946
2542, 1.13158059, 0.462946862
2543, 0.993254483, 0.378573567
2544, 0.870061517, 0.306975394
2545, 0.760490596, 0.246031821
2546, 0.663133919, 0.19400093
2547, 0.576696873, 0.149449334
2548, 4.6999855, 5.04389763
2549, 4.42041016, 4.21546316
2550, 4.09585381, 3.50921082
2551, 3.75179887, 2.91385961
2552, 3.40608668, 2.41579771
2553, 3.07056832, 2.00115395
2554, 2.75262022, 1.65692544
2555, 2.45639825, 1.37150371
2556, 2.18381906, 1.13484323
2557, 1.93529224, 0.938430429
2558, 1.71025538, 0.775150895
2559, 1.50755072, 0.639117062
2560, 1.32568729, 0.525487959
2561, 1.16301775, 0.43029955
2562, 1.01785505, 0.350313812
2563, 0.888546169, 0.282888383
2564, 0.773517549, 0.225867003
2565, 0.671299577, 0.17748858
2566, 0.58053863, 0.136312649
2567, 4.84951544, 5.02452374
2568, 4.5720644, 4.18047094
2569, 4.24298239, 3.4626863
2570, 3.89020705, 2.85964322
2571, 3.53335881, 2.35721207
2572, 3.1855371, 1.9409126
2573, 2.85496259, 1.59714139
2574, 2.54634213, 1.31375122
2575, 2.2619319, 1.08023942
2576, 2.0023365, 0.887718797
2577, 1.76708806, 0.728780329
2578, 1.555058, 0.597309589
2579, 1.36474228, 0.488295943
2580, 1.19445491, 0.397652268
2581, 1.04245555, 0.322054088
2582, 0.907030821, 0.258801401
2583, 0.786544502, 0.205702186
2584, 0.679465294, 0.160976216
2585, 0.584380388, 0.123175949
2586, 4.99904537, 5.00514936
2587, 4.72371864, 4.1454792
2588, 4.39011145, 3.41616178
2589, 4.028615, 2.8054266
2590, 3.66063094, 2.29862666
2591, 3.30050564, 1.88067114
2592, 2.95730495, 1.53735733
2593, 2.63628578, 1.25599873
2594, 2.34004498, 1.02563548
2595, 2.069381, 0.837007165
2596, 1.82392085, 0.682409704
2597, 1.60256517, 0.555502057
2598, 1.40379715, 0.451103926
2599, 1.22589207, 0.365004987
2600, 1.06705606, 0.293794364
2601, 0.925515473, 0.234714374
2602, 0.799571455, 0.185537383
2603, 0.687630951, 0.144463867
2604, 0.588222206, 0.110039257
2605, 5.14857531, 4.98577499
2606, 4.87537289, 4.11048698
2607, 4.53724051, 3.36963701
2608, 4.16702318, 2.75121021
2609, 3.78790331, 2.24004126
2610, 3.41547441, 1.8204298
2611, 3.05964756, 1.47757316
2612, 2.72622967, 1.19824636
2613, 2.41815805, 0.971031547
2614, 2.13642526, 0.786295533
2615, 1.88075352, 0.636039078
2616, 1.65007246, 0.513694525
2617, 1.44285214, 0.413911939
2618, 1.25732923, 0.332357675
2619, 1.09165657, 0.26553461
2620, 0.944000125, 0.210627377
2621, 0.812598467, 0.165372565
2622, 0.695796609, 0.127951503
2623, 0.592063963, 0.0969025567
2624, 5.29810524, 4.96640062
2625, 5.02702713, 4.07549524
2626, 4.68436909, 3.32311249
2627, 4.30543137, 2.69699359
2628, 3.91517544, 2.18145561
2629, 3.53044295, 1.76018834
2630, 3.16198993, 1.4177891
2631, 2.81617332, 1.14049387
2632, 2.4962709, 0.916427672
2633, 2.20346951, 0.735583901
2634, 1.93758631, 0.589668512
2635, 1.69757974, 0.471886992
2636, 1.48190713, 0.376719922
2637, 1.28876638, 0.299710393
2638, 1.11625695, 0.23727487
2639, 0.962484777, 0.186540365
2640, 0.82562542, 0.145207763
2641, 0.703962326, 0.111439146
2642, 0.595905721, 0.0837658644
2643, 5.4476347, 4.94702625
2644, 5.17868185, 4.04050303
2645, 4.83149815, 3.27658772
2646, 4.44383955, 2.6427772
2647, 4.04244757, 2.12287021
2648, 3.64541173, 1.699947
2649, 3.26433229, 1.35800493
2650, 2.90611696, 1.08274138
2651, 2.57438397, 0.861823738
2652, 2.27051401, 0.68487221
2653, 1.99441898, 0.543297887
2654, 1.74508703, 0.43007949
2655, 1.52096212, 0.339527905
2656, 1.32020354, 0.267063081
2657, 1.14085746, 0.209015131
2658, 0.980969429, 0.162453353
2659, 0.838652372, 0.125042945
2660, 0.712127984, 0.0949267894
2661, 0.599747479, 0.070629172
2662, 5.59716463, 4.92765188
2663, 5.33033609, 4.00551128
2664, 4.97862673, 3.2300632
2665, 4.58224726, 2.58856058
2666, 4.1697197, 2.0642848
2667, 3.76038051, 1.63970554
2668, 3.36667466, 1.29822087
2669, 2.99606085, 1.02498901
2670, 2.65249681, 0.807219863
2671, 2.33755827, 0.634160578
2672, 2.05125165, 0.496927291
2673, 1.79259431, 0.388271958
2674, 1.56001711, 0.302335888
2675, 1.3516407, 0.234415799
2676, 1.16545796, 0.180755407
2677, 0.999454021, 0.138366342
2678, 0.851679325, 0.104878135
2679, 0.720293701, 0.0784144327
2680, 0.603589296, 0.0574924797
2681, 5.74669456, 4.90827751
2682, 5.48199034, 3.9705193
2683, 5.12575579, 3.18353868
2684, 4.72065544, 2.5343442
2685, 4.29699183, 2.00569916
2686, 3.87534904, 1.5794642
2687, 3.46901703, 1.2384367
2688, 3.0860045, 0.967236519
2689, 2.73060989, 0.752615929
2690, 2.40460253, 0.583448946
2691, 2.10808444, 0.450556666
2692, 1.8401016, 0.346464425
2693, 1.5990721, 0.265143871
2694, 1.38307774, 0.201768503
2695, 1.19005847, 0.152495667
2696, 1.01793873, 0.114279337
2697, 0.864706278, 0.0847133249
2698, 0.728459358, 0.0619020797
2699, 0.607431054, 0.0443557873
2700, -0.607431054, 0.0443557873
2701, -0.603589296, 0.0574924797
2702, -0.599747479, 0.070629172
2703, -0.595905721, 0.0837658644
2704, -0.592063963, 0.0969025567
2705, -0.588222206, 0.110039257
2706, -0.584380388, 0.123175949
2707, -0.58053863, 0.136312649
2708, -0.576696873, 0.149449334
2709, -0.572855055, 0.162586033
2710, -0.569013298, 0.175722718
2711, -0.56517154, 0.188859418
2712, -0.561329722, 0.201996103
2713, -0.557487965, 0.215132803
2714, -0.553646207, 0.228269503
2715, -0.549804449, 0.241406187
2716, -0.545962632, 0.254542887
2717, -0.542120874, 0.267679572
2718, -0.538279116, 0.280816287
2719, -0.728459358, 0.0619020797
2720, -0.720293701, 0.0784144327
2721, -0.712127984, 0.0949267894
2722, -0.703962326, 0.111439146
2723, -0.695796609, 0.127951503
2724, -0.687630951, 0.144463867
2725, -0.679465294, 0.160976216
2726, -0.671299577, 0.17748858
2727, -0.663133919, 0.19400093
2728, -0.654968262, 0.210513294
2729, -0.646802545, 0.227025643
2730, -0.638636887, 0.243538007
2731, -0.63047123, 0.260050356
2732, -0.622305512, 0.276562721
2733, -0.614139855, 0.293075085
2734, -0.605974197, 0.309587449
2735, -0.59780848, 0.326099783
2736, -0.589642823, 0.342612147
2737, -0.581477165, 0.359124511
2738, -0.864706278, 0.0847133249
2739, -0.851679325, 0.104878135
2740, -0.838652372, 0.125042945
2741, -0.82562542, 0.145207763
2742, -0.812598467, 0.165372565
2743, -0.799571455, 0.185537383
2744, -0.786544502, 0.205702186
2745, -0.773517549, 0.225867003
2746, -0.760490596, 0.246031821
2747, -0.747463644, 0.266196638
2748, -0.734436691, 0.286361426
2749, -0.721409738, 0.306526244
2750, -0.708382785, 0.326691061
2751, -0.695355833, 0.346855879
2752, -0.68232888, 0.367020696
2753, -0.669301927, 0.387185484
2754, -0.656274974, 0.407350302
2755, -0.643248022, 0.427515119
2756, -0.630221069, 0.447679937
2757, -1.01793873, 0.114279337
2758, -0.999454021, 0.138366342
2759, -0.980969429, 0.162453353
2760, -0.962484777, 0.186540365
2761, -0.944000125, 0.210627377
2762, -0.925515473, 0.234714374
2763, -0.907030821, 0.258801401
2764, -0.888546169, 0.282888383
2765, -0.870061517, 0.306975394
2766, -0.851576865, 0.331062406
2767, -0.833092272, 0.355149418
2768, -0.81460762, 0.37923643
2769, -0.796122968, 0.403323442
2770, -0.777638316, 0.427410454
2771, -0.759153664, 0.451497436
2772, -0.740669012, 0.475584447
2773, -0.72218436, 0.499671459
2774, -0.703699708, 0.523758471
2775, -0.685215116, 0.547845483
2776, -1.19005847, 0.152495667
2777, -1.16545796, 0.180755407
2778, -1.14085746, 0.209015131
2779, -1.11625695, 0.23727487
2780, -1.09165657, 0.26553461
2781, -1.06705606, 0.293794364
2782, -1.04245555, 0.322054088
2783, -1.01785505, 0.350313812
2784, -0.993254483, 0.378573567
2785, -0.968653977, 0.406833291
2786, -0.944053471, 0.435093045
2787, -0.919452965, 0.46335277
2788, -0.894852459, 0.491612524
2789, -0.870252013, 0.519872248
2790, -0.845651507, 0.548132002
2791, -0.821051002, 0.576391757
2792, -0.796450496, 0.604651451
2793, -0.77184999, 0.632911205
2794, -0.747249484, 0.661170959
2795, -1.38307774, 0.201768503
2796, -1.3516407, 0.234415799
2797, -1.32020354, 0.267063081
2798, -1.28876638, 0.299710393
2799, -1.25732923, 0.332357675
2800, -1.22589207, 0.365004987
2801, -1.19445491, 0.397652268
2802, -1.16301775, 0.43029955
2803, -1.13158059, 0.462946862
2804, -1.10014343, 0.495594144
2805, -1.06870627, 0.528241456
2806, -1.03726912, 0.560888767
2807, -1.00583196, 0.593536019
2808, -0.974394798, 0.626183331
2809, -0.942957699, 0.658830643
2810, -0.911520541, 0.691477895
2811, -0.880083382, 0.724125206
2812, -0.848646224, 0.756772518
2813, -0.817209065, 0.78941977
2814, -1.5990721, 0.265143871
2815, -1.56001711, 0.302335888
2816, -1.52096212, 0.339527905
2817, -1.48190713, 0.376719922
2818, -1.44285214, 0.413911939
2819, -1.40379715, 0.451103926
2820, -1.36474228, 0.488295943
2821, -1.32568729, 0.525487959
2822, -1.2866323, 0.562679946
2823, -1.24757731, 0.599871993
2824, -1.20852232, 0.63706398
2825, -1.16946733, 0.674256027
2826, -1.13041234, 0.711448014
2827, -1.09135735, 0.748640001
2828, -1.05230236, 0.785832047
2829, -1.01324737, 0.823024035
2830, -0.974192441, 0.860216081
2831, -0.935137451, 0.897408068
2832, -0.896082461, 0.934600115
2833, -1.8401016, 0.346464425
2834, -1.79259431, 0.388271958
2835, -1.74508703, 0.43007949
2836, -1.69757974, 0.471886992
2837, -1.65007246, 0.513694525
2838, -1.60256517, 0.555502057
2839, -1.555058, 0.597309589
2840, -1.50755072, 0.639117062
2841, -1.46004343, 0.680924594
2842, -1.41253614, 0.722732127
2843, -1.36502886, 0.764539659
2844, -1.31752157, 0.806347191
2845, -1.27001441, 0.848154724
2846, -1.22250712, 0.889962196
2847, -1.17499983, 0.931769729
2848, -1.12749255, 0.973577261
2849, -1.07998526, 1.01538479
2850, -1.03247797, 1.05719233
2851, -0.984970748, 1.09899986
2852, -2.10808444, 0.450556666
2853, -2.05125165, 0.496927291
2854, -1.99441898, 0.543297887
2855, -1.93758631, 0.589668512
2856, -1.88075352, 0.636039078
2857, -1.82392085, 0.682409704
2858, -1.76708806, 0.728780329
2859, -1.71025538, 0.775150895
2860, -1.65342259, 0.821521521
2861, -1.59658992, 0.867892146
2862, -1.53975725, 0.914262712
2863, -1.48292446, 0.960633337
2864, -1.42609179, 1.0070039
2865, -1.369259, 1.05337453
2866, -1.31242633, 1.09974515
2867, -1.25559354, 1.14611578
2868, -1.19876087, 1.19248641
2869, -1.14192808, 1.23885703
2870, -1.08509541, 1.28522754
2871, -2.40460253, 0.583448946
2872, -2.33755827, 0.634160578
2873, -2.27051401, 0.68487221
2874, -2.20346951, 0.735583901
2875, -2.13642526, 0.786295533
2876, -2.069381, 0.837007165
2877, -2.0023365, 0.887718797
2878, -1.93529224, 0.938430429
2879, -1.86824799, 0.98914206
2880, -1.80120361, 1.03985369
2881, -1.73415923, 1.09056532
2882, -1.66711497, 1.14127696
2883, -1.6000706, 1.19198859
2884, -1.53302622, 1.24270022
2885, -1.46598196, 1.29341197
2886, -1.39893758, 1.3441236
2887, -1.33189321, 1.39483523
2888, -1.26484895, 1.44554687
2889, -1.19780457, 1.4962585
2890, -2.73060989, 0.752615929
2891, -2.65249681, 0.807219863
2892, -2.57438397, 0.861823738
2893, -2.4962709, 0.916427672
2894, -2.41815805, 0.971031547
2895, -2.34004498, 1.02563548
2896, -2.2619319, 1.08023942
2897, -2.18381906, 1.13484323
2898, -2.10570598, 1.18944716
2899, -2.02759314, 1.2440511
2900, -1.94948018, 1.29865503
2901, -1.8713671, 1.35325885
2902, -1.79325414, 1.40786278
2903, -1.71514118, 1.46246672
2904, -1.63702822, 1.51707053
2905, -1.55891526, 1.57167447
2906, -1.4808023, 1.6262784
2907, -1.40268934, 1.68088233
2908, -1.32457638, 1.73548615
2909, -3.0860045, 0.967236519
2910, -2.99606085, 1.02498901
2911, -2.90611696, 1.08274138
2912, -2.81617332, 1.14049387
2913, -2.72622967, 1.19824636
2914, -2.63628578, 1.25599873
2915, -2.54634213, 1.31375122
2916, -2.45639825, 1.37150371
2917, -2.3664546, 1.4292562
2918, -2.27651095, 1.48700857
2919, -2.18656707, 1.54476106
2920, -2.09662342, 1.60251355
2921, -2.00667953, 1.66026592
2922, -1.91673589, 1.71801841
2923, -1.82679212, 1.7757709
2924, -1.73684847, 1.83352327
2925, -1.64690471, 1.89127576
2926, -1.55696094, 1.94902825
2927, -1.46701717, 2.00678062
2928, -3.46901703, 1.2384367
2929, -3.36667466, 1.29822087
2930, -3.26433229, 1.35800493
2931, -3.16198993, 1.4177891
2932, -3.05964756, 1.47757316
2933, -2.95730495, 1.53735733
2934, -2.85496259, 1.59714139
2935, -2.75262022, 1.65692544
2936, -2.65027785, 1.71670961
2937, -2.54793525, 1.77649367
2938, -2.44559288, 1.83627784
2939, -2.34325051, 1.8960619
2940, -2.24090815, 1.95584607
2941, -2.13856554, 2.01563025
2942, -2.03622317, 2.07541418
2943, -1.93388081, 2.13519835
2944, -1.83153832, 2.19498253
2945, -1.72919595, 2.2547667
2946, -1.62685347, 2.31455064
2947, -3.87534904, 1.5794642
2948, -3.76038051, 1.63970554
2949, -3.64541173, 1.699947
2950, -3.53044295, 1.76018834
2951, -3.41547441, 1.8204298
2952, -3.30050564, 1.88067114
2953, -3.1855371, 1.9409126
2954, -3.07056832, 2.00115395
2955, -2.95559978, 2.06139541
2956, -2.84063101, 2.12163687
2957, -2.72566223, 2.18187809
2958, -2.61069369, 2.24211955
2959, -2.49572492, 2.30236101
2960, -2.38075638, 2.36260247
2961, -2.2657876, 2.42284369
2962, -2.15081882, 2.48308516
2963, -2.03585029, 2.54332662
2964, -1.92088163, 2.60356808
2965, -1.80591297, 2.6638093
2966, -4.29699183, 2.00569916
2967, -4.1697197, 2.0642848
2968, -4.04244757, 2.12287021
2969, -3.91517544, 2.18145561
2970, -3.78790331, 2.24004126
2971, -3.66063094, 2.29862666
2972, -3.53335881, 2.35721207
2973, -3.40608668, 2.41579771
2974, -3.27881432, 2.47438312
2975, -3.15154219, 2.53296852
2976, -3.02427006, 2.59155416
2977, -2.89699793, 2.65013957
2978, -2.76972556, 2.70872498
2979, -2.64245343, 2.76731038
2980, -2.5151813, 2.82589602
2981, -2.38790917, 2.88448143
2982, -2.26063681, 2.94306684
2983, -2.13336468, 3.00165248
2984, -2.00609255, 3.06023788
2985, -4.72065544, 2.5343442
2986, -4.58224726, 2.58856058
2987, -4.44383955, 2.6427772
2988, -4.30543137, 2.69699359
2989, -4.16702318, 2.75121021
2990, -4.028615, 2.8054266
2991, -3.89020705, 2.85964322
2992, -3.75179887, 2.91385961
2993, -3.61339092, 2.96807623
2994, -3.47498274, 3.02229261
2995, -3.33657455, 3.076509
2996, -3.19816661, 3.13072562
2997, -3.05975842, 3.18494201
2998, -2.92135048, 3.23915863
2999, -2.7829423, 3.29337502
3000, -2.64453435, 3.34759164
3001, -2.50612617, 3.40180802
3002, -2.36771798, 3.45602465
3003, -2.22931004, 3.51024103
3004, -5.12575579, 3.18353868
3005, -4.97862673, 3.2300632
3006, -4.83149815, 3.27658772
3007, -4.68436909, 3.32311249
3008, -4.53724051, 3.36963701
3009, -4.39011145, 3.41616178
3010, -4.24298239, 3.4626863
3011, -4.09585381, 3.50921082
3012, -3.94872499, 3.55573559
3013, -3.80159616, 3.60226011
3014, -3.65446734, 3.64878488
3015, -3.50733852, 3.6953094
3016, -3.36020947, 3.74183393
3017, -3.21308064, 3.78835869
3018, -3.06595182, 3.83488321
3019, -2.918823, 3.88140798
3020, -2.77169418, 3.9279325
3021, -2.62456536, 3.97445726
3022, -2.47743654, 4.02098179
3023, -5.48199034, 3.9705193
3024, -5.33033609, 4.00551128
3025, -5.17868185, 4.04050303
3026, -5.02702713, 4.07549524
3027, -4.87537289, 4.11048698
3028, -4.72371864, 4.1454792
3029, -4.5720644, 4.18047094
3030, -4.42041016, 4.21546316
3031, -4.26875591, 4.2504549
3032, -4.11710119, 4.28544712
3033, -3.96544695, 4.32043934
3034, -3.81379271, 4.35543108
3035, -3.66213846, 4.3904233
3036, -3.51048398, 4.42541504
3037, -3.35882974, 4.46040726
3038, -3.20717525, 4.495399
3039, -3.05552101, 4.53039122
3040, -2.90386677, 4.56538296
3041, -2.75221229, 4.60037518
3042, -5.74669456, 4.90827751
3043, -5.59716463, 4.92765188
3044, -5.4476347, 4.94702625
3045, -5.29810524, 4.96640062
3046, -5.14857531, 4.98577499
3047, -4.99904537, 5.00514936
3048, -4.84951544, 5.02452374
3049, -4.6999855, 5.04389763
3050, -4.55045557, 5.063272
3051, -4.40092564, 5.08264637
3052, -4.2513957, 5.10202074
3053, -4.10186577, 5.12139511
3054, -3.95233607, 5.14076948
3055, -3.80280614, 5.16014385
3056, -3.65327621, 5.17951775
3057, -3.50374627, 5.19889212
3058, -3.35421658, 5.21826649
3059, -3.20468664, 5.23764086
3060, -3.05515671, 5.25701523
3061, -0.49002403, 0.210702702
3062, -0.490023941, 0.200668007
3063, -0.490023881, 0.190633327
3064, -0.490023792, 0.180598632
3065, -0.490023702, 0.170563951
3066, -0.490023643, 0.160529271
3067, -0.490023553, 0.150494576
3068, -0.490023464, 0.140459895
3069, -0.490023404, 0.1304252
3070, -0.490023315, 0.120390519
3071, -0.490023226, 0.110355832
3072, -0.490023166, 0.100321144
3073, -0.490023077, 0.090286456
3074, -0.490022987, 0.0802517682
3075, -0.490022928, 0.0702170879
3076, -0.490022838, 0.0601824
3077, -0.490022749, 0.0501477122
3078, -0.490022689, 0.0401130244
3079, -0.4900226, 0.0300783385
3080, -0.4800466, 0.209866792
3081, -0.480046451, 0.199833497
3082, -0.480046302, 0.189800218
3083, -0.480046123, 0.179766923
3084, -0.480045974, 0.169733644
3085, -0.480045825, 0.159700349
3086, -0.480045676, 0.149667069
3087, -0.480045527, 0.139633775
3088, -0.480045378, 0.129600495
3089, -0.480045229, 0.119567201
3090, -0.48004505, 0.109533913
3091, -0.480044901, 0.0995006263
3092, -0.480044752, 0.0894673392
3093, -0.480044603, 0.0794340521
3094, -0.480044454, 0.069400765
3095, -0.480044305, 0.0593674742
3096, -0.480044127, 0.0493341871
3097, -0.480043977, 0.0393009
3098, -0.480043828, 0.0292676128
3099, -0.470067739, 0.209048077
3100, -0.470067531, 0.199016154
3101, -0.470067292, 0.188984245
3102, -0.470067084, 0.178952321
3103, -0.470066845, 0.168920413
3104, -0.470066637, 0.158888489
3105, -0.470066398, 0.14885658
3106, -0.47006619, 0.138824657
3107, -0.470065951, 0.128792733
3108, -0.470065743, 0.118760824
3109, -0.470065504, 0.108728908
3110, -0.470065296, 0.0986969844
3111, -0.470065057, 0.0886650681
3112, -0.470064849, 0.0786331519
3113, -0.47006461, 0.0686012357
3114, -0.470064402, 0.0585693195
3115, -0.470064163, 0.0485373996
3116, -0.470063955, 0.0385054834
3117, -0.470063716, 0.0284735654
3118, -0.460087478, 0.208246559
3119, -0.46008721, 0.198215991
3120, -0.460086912, 0.188185409
3121, -0.460086614, 0.178154841
3122, -0.460086346, 0.168124259
3123, -0.460086048, 0.158093691
3124, -0.46008575, 0.148063108
3125, -0.460085481, 0.138032541
3126, -0.460085183, 0.128001958
3127, -0.460084885, 0.117971383
3128, -0.460084617, 0.107940808
3129, -0.460084319, 0.0979102328
3130, -0.460084021, 0.0878796577
3131, -0.460083753, 0.0778490826
3132, -0.460083455, 0.0678185076
3133, -0.460083157, 0.0577879287
3134, -0.460082889, 0.0477573536
3135, -0.460082591, 0.0377267785
3136, -0.460082293, 0.0276962034
3137, -0.450105876, 0.207462251
3138, -0.450105518, 0.197432995
3139, -0.45010519, 0.187403724
3140, -0.450104833, 0.177374467
3141, -0.450104475, 0.167345196
3142, -0.450104117, 0.15731594
3143, -0.45010379, 0.147286683
3144, -0.450103432, 0.137257412
3145, -0.450103074, 0.127228156
3146, -0.450102746, 0.117198892
3147, -0.450102389, 0.107169628
3148, -0.450102031, 0.0971403643
3149, -0.450101674, 0.0871111006
3150, -0.450101346, 0.0770818368
3151, -0.450100988, 0.067052573
3152, -0.450100631, 0.0570233129
3153, -0.450100303, 0.0469940491
3154, -0.450099945, 0.036964789
3155, -0.450099587, 0.0269355252
3156, -0.440122932, 0.206695139
3157, -0.440122515, 0.196667165
3158, -0.440122098, 0.18663919
3159, -0.44012171, 0.176611215
3160, -0.440121293, 0.166583225
3161, -0.440120906, 0.15655525
3162, -0.440120488, 0.146527275
3163, -0.440120071, 0.136499301
3164, -0.440119684, 0.126471311
3165, -0.440119267, 0.116443336
3166, -0.440118879, 0.106415361
3167, -0.440118462, 0.0963873789
3168, -0.440118045, 0.086359404
3169, -0.440117657, 0.0763314217
3170, -0.44011724, 0.0663034469
3171, -0.440116853, 0.0562754683
3172, -0.440116435, 0.0462474898
3173, -0.440116018, 0.0362195112
3174, -0.440115631, 0.0261915345
3175, -0.430138648, 0.205945238
3176, -0.430138201, 0.195918515
3177, -0.430137753, 0.185891792
3178, -0.430137277, 0.175865069
3179, -0.43013683, 0.165838346
3180, -0.430136383, 0.155811623
3181, -0.430135906, 0.1457849
3182, -0.430135459, 0.135758176
3183, -0.430135012, 0.125731453
3184, -0.430134535, 0.115704738
3185, -0.430134088, 0.105678014
3186, -0.430133641, 0.0956512913
3187, -0.430133164, 0.0856245682
3188, -0.430132717, 0.075597845
3189, -0.43013227, 0.0655711219
3190, -0.430131793, 0.0555443987
3191, -0.430131346, 0.0455176756
3192, -0.430130899, 0.0354909562
3193, -0.430130422, 0.0254642311
3194, -0.420153111, 0.205212548
3195, -0.420152605, 0.195187047
3196, -0.420152098, 0.185161546
3197, -0.420151591, 0.17513606
3198, -0.420151114, 0.165110558
3199, -0.420150608, 0.155085072
3200, -0.420150101, 0.145059571
3201, -0.420149595, 0.135034069
3202, -0.420149088, 0.125008583
3203, -0.420148581, 0.114983082
3204, -0.420148075, 0.104957588
3205, -0.420147568, 0.0949320942
3206, -0.420147061, 0.084906593
3207, -0.420146555, 0.0748810992
3208, -0.420146048, 0.0648556054
3209, -0.420145541, 0.0548301078
3210, -0.420145035, 0.044804614
3211, -0.420144528, 0.0347791165
3212, -0.420144022, 0.0247536208
3213, -0.410166323, 0.204497054
3214, -0.410165787, 0.19447276
3215, -0.41016525, 0.184448466
3216, -0.410164684, 0.174424171
3217, -0.410164148, 0.164399862
3218, -0.410163581, 0.154375568
3219, -0.410163045, 0.144351274
3220, -0.410162479, 0.13432698
3221, -0.410161942, 0.124302678
3222, -0.410161406, 0.114278384
3223, -0.41016084, 0.104254082
3224, -0.410160303, 0.0942297876
3225, -0.410159737, 0.0842054859
3226, -0.4101592, 0.0741811916
3227, -0.410158664, 0.0641568899
3228, -0.410158098, 0.0541325957
3229, -0.410157561, 0.0441082977
3230, -0.410156995, 0.0340839997
3231, -0.410156459, 0.0240597036
3232, -0.400178313, 0.203798786
3233, -0.400177747, 0.193775654
3234, -0.400177151, 0.183752537
3235, -0.400176555, 0.173729405
3236, -0.400175989, 0.163706273
3237, -0.400175393, 0.153683141
3238, -0.400174797, 0.143660024
3239, -0.400174201, 0.133636892
3240, -0.400173634, 0.12361376
3241, -0.400173038, 0.113590635
3242, -0.400172442, 0.103567503
3243, -0.400171846, 0.0935443789
3244, -0.40017128, 0.0835212469
3245, -0.400170684, 0.0734981224
3246, -0.400170088, 0.0634749904
3247, -0.400169492, 0.0534518659
3248, -0.400168926, 0.0434287377
3249, -0.400168329, 0.0334056094
3250, -0.400167733, 0.0233824793
3251, -0.390189141, 0.203117728
3252, -0.390188515, 0.193095744
3253, -0.390187889, 0.183073759
3254, -0.390187263, 0.17305176
3255, -0.390186638, 0.163029775
3256, -0.390186012, 0.15300779
3257, -0.390185386, 0.142985806
3258, -0.39018476, 0.132963821
3259, -0.390184134, 0.122941829
3260, -0.390183508, 0.112919845
3261, -0.390182883, 0.102897853
3262, -0.390182257, 0.0928758681
3263, -0.390181661, 0.0828538761
3264, -0.390181035, 0.0728318915
3265, -0.390180409, 0.0628099069
3266, -0.390179783, 0.0527879149
3267, -0.390179157, 0.0427659303
3268, -0.390178531, 0.032743942
3269, -0.390177906, 0.0227219537
3270, -0.380198777, 0.202453882
3271, -0.380198121, 0.192433015
3272, -0.380197465, 0.182412133
3273, -0.38019681, 0.172391266
3274, -0.380196154, 0.162370384
3275, -0.380195498, 0.152349502
3276, -0.380194843, 0.142328635
3277, -0.380194187, 0.132307753
3278, -0.380193532, 0.122286879
3279, -0.380192876, 0.112266004
3280, -0.38019222, 0.10224513
3281, -0.380191565, 0.0922242552
3282, -0.380190909, 0.0822033808
3283, -0.380190253, 0.0721825063
3284, -0.380189598, 0.0621616282
3285, -0.380188942, 0.0521407537
3286, -0.380188286, 0.0421198793
3287, -0.380187631, 0.0320990011
3288, -0.380186975, 0.0220781267
3289, -0.37020731, 0.201807261
3290, -0.370206624, 0.191787466
3291, -0.370205939, 0.181767672
3292, -0.370205253, 0.171747878
3293, -0.370204568, 0.161728099
3294, -0.370203882, 0.151708305
3295, -0.370203197, 0.141688511
3296, -0.370202512, 0.131668717
3297, -0.370201826, 0.121648923
3298, -0.370201141, 0.111629128
3299, -0.370200455, 0.101609342
3300, -0.37019977, 0.0915895477
3301, -0.370199084, 0.0815697536
3302, -0.370198399, 0.0715499595
3303, -0.370197713, 0.0615301691
3304, -0.370197028, 0.0515103787
3305, -0.370196372, 0.0414905846
3306, -0.370195687, 0.0314707942
3307, -0.370195001, 0.0214510001
3308, -0.36021471, 0.201177865
3309, -0.360213995, 0.191159114
3310, -0.36021331, 0.181140378
3311, -0.360212594, 0.171121642
3312, -0.360211879, 0.161102906
3313, -0.360211164, 0.15108417
3314, -0.360210478, 0.141065434
3315, -0.360209763, 0.131046697
3316, -0.360209048, 0.121027954
3317, -0.360208333, 0.111009218
3318, -0.360207647, 0.100990482
3319, -0.360206932, 0.0909717381
3320, -0.360206217, 0.080953002
3321, -0.360205501, 0.0709342659
3322, -0.360204816, 0.060915526
3323, -0.360204101, 0.0508967899
3324, -0.360203385, 0.0408780538
3325, -0.36020267, 0.0308593139
3326, -0.360201955, 0.0208405759
3327, -0.350221068, 0.200565681
3328, -0.350220323, 0.190547958
3329, -0.350219607, 0.18053025
3330, -0.350218862, 0.170512542
3331, -0.350218147, 0.160494834
3332, -0.350217432, 0.150477111
3333, -0.350216687, 0.140459403
3334, -0.350215971, 0.130441695
3335, -0.350215226, 0.12042398
3336, -0.350214511, 0.110406265
3337, -0.350213766, 0.100388557
3338, -0.350213051, 0.0903708413
3339, -0.350212306, 0.0803531259
3340, -0.350211591, 0.070335418
3341, -0.350210845, 0.0603177063
3342, -0.35021013, 0.0502999946
3343, -0.350209385, 0.0402822793
3344, -0.35020867, 0.0302645676
3345, -0.350207925, 0.0202468559
3346, -0.340226382, 0.199970722
3347, -0.340225637, 0.189953998
3348, -0.340224892, 0.179937288
3349, -0.340224117, 0.169920579
3350, -0.340223372, 0.159903854
3351, -0.340222627, 0.149887145
3352, -0.340221882, 0.13987042
3353, -0.340221137, 0.129853711
3354, -0.340220392, 0.119836994
3355, -0.340219647, 0.109820284
3356, -0.340218902, 0.0998035669
3357, -0.340218157, 0.0897868499
3358, -0.340217412, 0.0797701329
3359, -0.340216666, 0.0697534159
3360, -0.340215921, 0.0597367026
3361, -0.340215176, 0.0497199893
3362, -0.340214431, 0.0397032723
3363, -0.340213686, 0.0296865571
3364, -0.340212941, 0.019669842
3365, -0.330230683, 0.199392989
3366, -0.330229908, 0.189377233
3367, -0.330229133, 0.179361492
3368, -0.330228388, 0.169345751
3369, -0.330227613, 0.159329996
3370, -0.330226868, 0.149314255
3371, -0.330226094, 0.139298499
3372, -0.330225348, 0.129282758
3373, -0.330224574, 0.119267009
3374, -0.330223829, 0.109251261
3375, -0.330223054, 0.0992355123
3376, -0.330222309, 0.0892197639
3377, -0.330221534, 0.0792040154
3378, -0.330220789, 0.0691882744
3379, -0.330220014, 0.0591725223
3380, -0.330219269, 0.0491567776
3381, -0.330218494, 0.0391410291
3382, -0.330217749, 0.0291252825
3383, -0.330216974, 0.0191095341
3384, -0.320233971, 0.198832482
3385, -0.320233226, 0.18881768
3386, -0.320232451, 0.178802863
3387, -0.320231676, 0.168788061
3388, -0.320230901, 0.158773243
3389, -0.320230126, 0.148758441
3390, -0.320229352, 0.138743639
3391, -0.320228577, 0.128728822
3392, -0.320227802, 0.11871402
3393, -0.320227027, 0.10869921
3394, -0.320226282, 0.0986844003
3395, -0.320225507, 0.0886695907
3396, -0.320224732, 0.0786547884
3397, -0.320223957, 0.0686399788
3398, -0.320223182, 0.0586251691
3399, -0.320222408, 0.0486103594
3400, -0.320221633, 0.0385955535
3401, -0.320220858, 0.0285807438
3402, -0.320220083, 0.018565936
3403, -0.310236365, 0.198289201
3404, -0.31023556, 0.188275307
3405, -0.310234785, 0.178261414
3406, -0.31023401, 0.168247521
3407, -0.310233235, 0.158233613
3408, -0.31023246, 0.14821972
3409, -0.310231686, 0.138205826
3410, -0.310230881, 0.128191918
3411, -0.310230106, 0.118178025
3412, -0.310229331, 0.108164124
3413, -0.310228556, 0.0981502309
3414, -0.310227782, 0.0881363302
3415, -0.310227007, 0.078122437
3416, -0.310226202, 0.0681085363
3417, -0.310225427, 0.0580946393
3418, -0.310224652, 0.0480807424
3419, -0.310223877, 0.0380668454
3420, -0.310223103, 0.0280529466
3421, -0.310222328, 0.0180390477
3422, -0.300237805, 0.19776316
3423, -0.300237, 0.187750146
3424, -0.300236225, 0.177737132
3425, -0.30023545, 0.167724118
3426, -0.300234646, 0.157711104
3427, -0.300233871, 0.147698075
3428, -0.300233096, 0.137685061
3429, -0.300232291, 0.127672046
3430, -0.300231516, 0.117659032
3431, -0.300230742, 0.107646018
3432, -0.300229937, 0.0976330042
3433, -0.300229162, 0.0876199827
3434, -0.300228387, 0.0776069686
3435, -0.300227612, 0.0675939545
3436, -0.300226808, 0.0575809367
3437, -0.300226033, 0.0475679189
3438, -0.300225258, 0.0375549048
3439, -0.300224453, 0.0275418889
3440, -0.300223678, 0.0175288729
3441, -0.290238351, 0.197254345
3442, -0.290237546, 0.18724218
3443, -0.290236771, 0.17723003
3444, -0.290235996, 0.167217866
3445, -0.290235192, 0.157205701
3446, -0.290234417, 0.147193536
3447, -0.290233642, 0.137181371
3448, -0.290232837, 0.127169207
3449, -0.290232062, 0.117157042
3450, -0.290231258, 0.107144877
3451, -0.290230483, 0.0971327201
3452, -0.290229708, 0.0871205553
3453, -0.290228903, 0.0771083906
3454, -0.290228128, 0.0670962259
3455, -0.290227354, 0.0570840612
3456, -0.290226549, 0.0470719002
3457, -0.290225774, 0.0370597355
3458, -0.290224969, 0.0270475727
3459, -0.290224195, 0.0170354098
3460, -0.280238032, 0.19676277
3461, -0.280237257, 0.186751425
3462, -0.280236453, 0.176740095
3463, -0.280235678, 0.16672875
3464, -0.280234903, 0.15671742
3465, -0.280234098, 0.146706074
3466, -0.280233324, 0.136694729
3467, -0.280232549, 0.126683399
3468, -0.280231744, 0.116672054
3469, -0.280230969, 0.106660716
3470, -0.280230194, 0.0966493785
3471, -0.28022939, 0.0866380408
3472, -0.280228615, 0.0766266957
3473, -0.28022784, 0.066615358
3474, -0.280227035, 0.0566040203
3475, -0.28022626, 0.0465926789
3476, -0.280225486, 0.0365813412
3477, -0.280224681, 0.0265700016
3478, -0.280223906, 0.0165586621
3479, -0.27023688, 0.196288422
3480, -0.270236105, 0.186277881
3481, -0.27023533, 0.176267341
3482, -0.270234555, 0.1662568
3483, -0.27023378, 0.156246245
3484, -0.270232975, 0.146235704
3485, -0.270232201, 0.136225164
3486, -0.270231426, 0.126214623
3487, -0.270230651, 0.116204076
3488, -0.270229876, 0.106193528
3489, -0.270229071, 0.0961829871
3490, -0.270228297, 0.0861724392
3491, -0.270227522, 0.0761618987
3492, -0.270226747, 0.0661513507
3493, -0.270225942, 0.0561408065
3494, -0.270225167, 0.0461302623
3495, -0.270224392, 0.0361197181
3496, -0.270223618, 0.0261091739
3497, -0.270222843, 0.0160986297
3498, -0.260234952, 0.195831314
3499, -0.260234177, 0.185821548
3500, -0.260233402, 0.175811768
3501, -0.260232627, 0.165801987
3502, -0.260231853, 0.155792207
3503, -0.260231078, 0.145782426
3504, -0.260230303, 0.135772645
3505, -0.260229528, 0.12576288
3506, -0.260228753, 0.115753099
3507, -0.260227978, 0.105743319
3508, -0.260227203, 0.0957335383
3509, -0.260226429, 0.0857237652
3510, -0.260225654, 0.0757139847
3511, -0.260224879, 0.0657042041
3512, -0.260224104, 0.0556944273
3513, -0.260223329, 0.0456846505
3514, -0.260222554, 0.03567487
3515, -0.260221779, 0.0256650932
3516, -0.260221004, 0.0156553145
3517, -0.25023222, 0.195391446
3518, -0.250231475, 0.185382411
3519, -0.2502307, 0.175373375
3520, -0.250229925, 0.165364325
3521, -0.25022918, 0.15535529
3522, -0.250228405, 0.145346254
3523, -0.25022763, 0.135337204
3524, -0.250226855, 0.125328168
3525, -0.25022611, 0.115319125
3526, -0.250225335, 0.105310082
3527, -0.25022456, 0.095301047
3528, -0.250223815, 0.085292004
3529, -0.250223041, 0.0752829611
3530, -0.250222266, 0.0652739257
3531, -0.250221521, 0.0552648827
3532, -0.250220746, 0.0452558398
3533, -0.250219971, 0.0352468006
3534, -0.250219196, 0.0252377596
3535, -0.250218451, 0.0152287185
3536, -0.240228772, 0.19496882
3537, -0.240228012, 0.184960485
3538, -0.240227267, 0.174952164
3539, -0.240226507, 0.164943829
3540, -0.240225747, 0.154935494
3541, -0.240225002, 0.144927159
3542, -0.240224242, 0.134918824
3543, -0.240223482, 0.124910496
3544, -0.240222737, 0.114902161
3545, -0.240221977, 0.104893833
3546, -0.240221217, 0.0948854983
3547, -0.240220472, 0.0848771706
3548, -0.240219712, 0.0748688355
3549, -0.240218952, 0.0648605004
3550, -0.240218207, 0.054852169
3551, -0.240217447, 0.0448438376
3552, -0.240216702, 0.0348355062
3553, -0.240215942, 0.0248271748
3554, -0.240215182, 0.0148188416
3555, -0.230224594, 0.194563434
3556, -0.230223849, 0.184555784
3557, -0.230223119, 0.174548134
3558, -0.230222374, 0.16454047
3559, -0.230221629, 0.15453282
3560, -0.230220884, 0.14452517
3561, -0.230220154, 0.134517521
3562, -0.230219409, 0.124509864
3563, -0.230218664, 0.114502214
3564, -0.230217934, 0.104494557
3565, -0.230217189, 0.0944869071
3566, -0.230216444, 0.0844792575
3567, -0.230215698, 0.0744716004
3568, -0.230214968, 0.0644639507
3569, -0.230214223, 0.0544562973
3570, -0.230213478, 0.0444486439
3571, -0.230212748, 0.0344409905
3572, -0.230212003, 0.024433339
3573, -0.230211258, 0.0144256866
3574, -0.220219731, 0.194175288
3575, -0.220219016, 0.184168279
3576, -0.220218286, 0.174161285
3577, -0.220217556, 0.164154276
3578, -0.220216841, 0.154147282
3579, -0.22021611, 0.144140273
3580, -0.22021538, 0.134133279
3581, -0.220214665, 0.12412627
3582, -0.220213935, 0.114119269
3583, -0.22021322, 0.104112267
3584, -0.220212489, 0.094105266
3585, -0.220211759, 0.0840982646
3586, -0.220211044, 0.0740912631
3587, -0.220210314, 0.0640842617
3588, -0.220209584, 0.0540772602
3589, -0.220208868, 0.0440702587
3590, -0.220208138, 0.0340632573
3591, -0.220207408, 0.024056254
3592, -0.220206693, 0.0140492525
3593, -0.210214227, 0.193804383
3594, -0.210213512, 0.183798
3595, -0.210212812, 0.173791617
3596, -0.210212097, 0.163785249
3597, -0.210211396, 0.153778866
3598, -0.210210696, 0.143772483
3599, -0.210209981, 0.1337661
3600, -0.21020928, 0.123759724
3601, -0.210208565, 0.113753341
3602, -0.210207865, 0.103746966
3603, -0.210207149, 0.0937405825
3604, -0.210206449, 0.0837341994
3605, -0.210205749, 0.0737278238
3606, -0.210205033, 0.0637214407
3607, -0.210204333, 0.0537150614
3608, -0.210203618, 0.0437086821
3609, -0.210202917, 0.0337023027
3610, -0.210202217, 0.0236959215
3611, -0.210201502, 0.0136895413
3612, -0.200208083, 0.193450719
3613, -0.200207397, 0.183444932
3614, -0.200206712, 0.173439145
3615, -0.200206026, 0.163433358
3616, -0.200205341, 0.153427571
3617, -0.200204656, 0.143421784
3618, -0.20020397, 0.133415997
3619, -0.200203285, 0.12341021
3620, -0.200202599, 0.113404423
3621, -0.200201914, 0.103398636
3622, -0.200201228, 0.093392849
3623, -0.200200528, 0.083387062
3624, -0.200199842, 0.0733812749
3625, -0.200199157, 0.0633754879
3626, -0.200198472, 0.0533697046
3627, -0.200197786, 0.0433639176
3628, -0.200197101, 0.0333581306
3629, -0.200196415, 0.0233523417
3630, -0.20019573, 0.0133465547
3631, -0.190201357, 0.193114311
3632, -0.190200686, 0.18310909
3633, -0.190200031, 0.173103854
3634, -0.19019936, 0.163098633
3635, -0.19019869, 0.153093413
3636, -0.190198034, 0.143088192
3637, -0.190197363, 0.133082971
3638, -0.190196708, 0.123077743
3639, -0.190196037, 0.113072522
3640, -0.190195382, 0.103067301
3641, -0.190194711, 0.0930620804
3642, -0.190194041, 0.0830568522
3643, -0.190193385, 0.0730516315
3644, -0.190192714, 0.0630464107
3645, -0.190192059, 0.0530411862
3646, -0.190191388, 0.0430359617
3647, -0.190190732, 0.0330307409
3648, -0.190190062, 0.0230255164
3649, -0.190189391, 0.0130202938
3650, -0.18019405, 0.192795143
3651, -0.180193424, 0.182790443
3652, -0.180192783, 0.172785759
3653, -0.180192143, 0.162781075
3654, -0.180191502, 0.15277639
3655, -0.180190861, 0.142771691
3656, -0.18019022, 0.132767007
3657, -0.18018958, 0.122762322
3658, -0.180188939, 0.112757638
3659, -0.180188298, 0.102752946
3660, -0.180187657, 0.092748262
3661, -0.180187017, 0.0827435702
3662, -0.180186376, 0.0727388859
3663, -0.180185735, 0.0627341941
3664, -0.180185094, 0.0527295098
3665, -0.180184454, 0.0427248217
3666, -0.180183813, 0.0327201337
3667, -0.180183172, 0.0227154456
3668, -0.180182531, 0.0127107576
3669, -0.170186222, 0.192493215
3670, -0.170185611, 0.182489038
3671, -0.170185, 0.172484845
3672, -0.170184389, 0.162480667
3673, -0.170183763, 0.15247649
3674, -0.170183152, 0.142472312
3675, -0.170182541, 0.132468119
3676, -0.17018193, 0.122463942
3677, -0.170181304, 0.112459764
3678, -0.170180693, 0.102455579
3679, -0.170180082, 0.0924514011
3680, -0.170179471, 0.0824472159
3681, -0.17017886, 0.0724430382
3682, -0.170178235, 0.0624388568
3683, -0.170177624, 0.0524346754
3684, -0.170177013, 0.042430494
3685, -0.170176402, 0.0324263126
3686, -0.170175776, 0.0224221293
3687, -0.170175165, 0.0124179488
3688, -0.160177886, 0.192208543
3689, -0.160177305, 0.182204843
3690, -0.160176709, 0.172201127
3691, -0.160176128, 0.162197426
3692, -0.160175547, 0.152193725
3693, -0.160174951, 0.142190024
3694, -0.16017437, 0.132186323
3695, -0.160173774, 0.122182615
3696, -0.160173193, 0.112178907
3697, -0.160172611, 0.102175206
3698, -0.160172015, 0.0921714976
3699, -0.160171434, 0.0821677968
3700, -0.160170838, 0.0721640885
3701, -0.160170257, 0.0621603876
3702, -0.160169676, 0.0521566831
3703, -0.16016908, 0.0421529785
3704, -0.160168499, 0.0321492739
3705, -0.160167918, 0.0221455712
3706, -0.160167322, 0.0121418666
3707, -0.150169075, 0.191941112
3708, -0.150168523, 0.181937858
3709, -0.150167957, 0.171934605
3710, -0.150167406, 0.161931351
3711, -0.150166839, 0.151928097
3712, -0.150166288, 0.141924843
3713, -0.150165722, 0.131921574
3714, -0.15016517, 0.121918328
3715, -0.150164619, 0.111915067
3716, -0.150164053, 0.101911813
3717, -0.150163502, 0.0919085592
3718, -0.150162935, 0.0819053054
3719, -0.150162384, 0.0719020441
3720, -0.150161818, 0.0618987903
3721, -0.150161266, 0.0518955365
3722, -0.150160715, 0.0418922789
3723, -0.150160149, 0.0318890251
3724, -0.150159597, 0.0218857694
3725, -0.150159031, 0.0118825138
3726, -0.140159816, 0.191690937
3727, -0.140159294, 0.1816881
3728, -0.140158758, 0.171685264
3729, -0.140158236, 0.161682427
3730, -0.1401577, 0.15167959
3731, -0.140157178, 0.141676754
3732, -0.140156657, 0.131673917
3733, -0.14015612, 0.121671088
3734, -0.140155599, 0.111668251
3735, -0.140155077, 0.101665415
3736, -0.140154541, 0.0916625783
3737, -0.140154019, 0.0816597417
3738, -0.140153483, 0.0716569051
3739, -0.140152961, 0.0616540685
3740, -0.140152439, 0.0516512357
3741, -0.140151903, 0.0416483991
3742, -0.140151381, 0.0316455625
3743, -0.140150845, 0.0216427259
3744, -0.140150324, 0.0116398903
3745, -0.130150139, 0.191458017
3746, -0.130149648, 0.181455567
3747, -0.130149156, 0.171453118
3748, -0.130148649, 0.161450684
3749, -0.130148157, 0.151448235
3750, -0.130147666, 0.141445786
3751, -0.130147174, 0.131443337
3752, -0.130146667, 0.121440895
3753, -0.130146176, 0.111438453
3754, -0.130145684, 0.101436004
3755, -0.130145192, 0.0914335623
3756, -0.130144686, 0.0814311132
3757, -0.130144194, 0.0714286715
3758, -0.130143702, 0.0614262223
3759, -0.13014321, 0.0514237769
3760, -0.130142704, 0.0414213315
3761, -0.130142212, 0.031418886
3762, -0.13014172, 0.0214164406
3763, -0.130141228, 0.0114139952
3764, -0.120140076, 0.191242337
3765, -0.120139614, 0.181240261
3766, -0.120139152, 0.171238169
3767, -0.12013869, 0.161236092
3768, -0.120138228, 0.151234001
3769, -0.120137766, 0.141231924
3770, -0.120137304, 0.131229833
3771, -0.120136842, 0.121227756
3772, -0.12013638, 0.111225672
3773, -0.120135918, 0.101223588
3774, -0.120135456, 0.0912215039
3775, -0.120134994, 0.0812194198
3776, -0.120134532, 0.0712173358
3777, -0.120134071, 0.0612152517
3778, -0.120133609, 0.0512131676
3779, -0.120133147, 0.0412110835
3780, -0.120132685, 0.0312089995
3781, -0.120132223, 0.0212069154
3782, -0.120131761, 0.0112048313
3783, -0.110129654, 0.191043913
3784, -0.11012923, 0.181042165
3785, -0.110128805, 0.171040416
3786, -0.110128373, 0.161038667
3787, -0.110127948, 0.151036918
3788, -0.110127516, 0.141035154
3789, -0.110127091, 0.131033406
3790, -0.110126667, 0.121031657
3791, -0.110126235, 0.111029908
3792, -0.11012581, 0.101028159
3793, -0.110125378, 0.091026403
3794, -0.110124953, 0.0810246542
3795, -0.110124528, 0.0710229054
3796, -0.110124096, 0.0610211529
3797, -0.110123672, 0.0510194041
3798, -0.110123239, 0.0410176516
3799, -0.110122815, 0.0310159009
3800, -0.110122383, 0.0210141502
3801, -0.110121958, 0.0110123986
3802, -0.100118913, 0.190862745
3803, -0.100118518, 0.180861294
3804, -0.10011813, 0.170859843
3805, -0.100117736, 0.160858408
3806, -0.100117341, 0.150856957
3807, -0.100116953, 0.140855506
3808, -0.100116558, 0.130854055
3809, -0.100116163, 0.120852612
3810, -0.100115776, 0.110851169
3811, -0.100115381, 0.100849718
3812, -0.100114986, 0.0908482745
3813, -0.100114599, 0.0808468238
3814, -0.100114204, 0.0708453804
3815, -0.100113809, 0.0608439334
3816, -0.100113422, 0.0508424863
3817, -0.100113027, 0.0408410393
3818, -0.100112632, 0.0308395922
3819, -0.100112244, 0.0208381452
3820, -0.10011185, 0.0108366972
3821, -0.0901078656, 0.190698832
3822, -0.0901075155, 0.18069765
3823, -0.0901071578, 0.170696482
3824, -0.0901068002, 0.160695314
3825, -0.0901064426, 0.150694132
3826, -0.0901060849, 0.140692964
3827, -0.0901057348, 0.130691797
3828, -0.0901053771, 0.120690621
3829, -0.0901050195, 0.110689446
3830, -0.0901046619, 0.100688279
3831, -0.0901043117, 0.0906871036
3832, -0.0901039541, 0.0806859359
3833, -0.0901035964, 0.0706847608
3834, -0.0901032388, 0.0606835894
3835, -0.0901028886, 0.050682418
3836, -0.090102531, 0.0406812429
3837, -0.0901021734, 0.0306800716
3838, -0.0901018158, 0.0206789002
3839, -0.0901014656, 0.0106777279
3840, -0.0800965577, 0.19055216
3841, -0.0800962374, 0.180551231
3842, -0.080095917, 0.170550302
3843, -0.0800956041, 0.160549387
3844, -0.0800952837, 0.150548458
3845, -0.0800949633, 0.140547529
3846, -0.0800946429, 0.1305466
3847, -0.08009433, 0.120545678
3848, -0.0800940096, 0.110544749
3849, -0.0800936893, 0.100543827
3850, -0.0800933689, 0.0905428976
3851, -0.080093056, 0.0805419758
3852, -0.0800927356, 0.0705410466
3853, -0.0800924152, 0.060540121
3854, -0.0800920948, 0.0505391955
3855, -0.0800917819, 0.04053827
3856, -0.0800914615, 0.0305373427
3857, -0.0800911412, 0.0205364171
3858, -0.0800908208, 0.0105354907
3859, -0.070085004, 0.190422744
3860, -0.0700847283, 0.180422038
3861, -0.0700844452, 0.170421332
3862, -0.0700841695, 0.160420626
3863, -0.0700838864, 0.150419921
3864, -0.0700836033, 0.1404192
3865, -0.0700833276, 0.130418494
3866, -0.0700830445, 0.120417789
3867, -0.0700827613, 0.110417075
3868, -0.0700824857, 0.10041637
3869, -0.0700822026, 0.0904156566
3870, -0.0700819194, 0.0804149508
3871, -0.0700816438, 0.0704142377
3872, -0.0700813606, 0.060413532
3873, -0.070081085, 0.0504128225
3874, -0.0700808018, 0.0404121131
3875, -0.0700805187, 0.0304114055
3876, -0.0700802431, 0.020410696
3877, -0.0700799599, 0.0104099866
3878, -0.060073249, 0.190310597
3879, -0.0600730069, 0.180310071
3880, -0.0600727685, 0.170309544
3881, -0.0600725263, 0.160309032
3882, -0.0600722842, 0.150308505
3883, -0.060072042, 0.140307993
3884, -0.0600717999, 0.130307466
3885, -0.0600715578, 0.120306946
3886, -0.0600713156, 0.110306427
3887, -0.0600710735, 0.100305907
3888, -0.0600708351, 0.0903053805
3889, -0.0600705929, 0.0803048611
3890, -0.0600703508, 0.0703043416
3891, -0.0600701086, 0.0603038222
3892, -0.0600698665, 0.050303299
3893, -0.0600696243, 0.0403027795
3894, -0.0600693822, 0.0303022582
3895, -0.0600691438, 0.0203017369
3896, -0.0600689016, 0.0103012156
3897, -0.0500613153, 0.190215692
3898, -0.0500611104, 0.180215329
3899, -0.0500609092, 0.170214966
3900, -0.0500607081, 0.160214603
3901, -0.0500605069, 0.15021424
3902, -0.050060302, 0.140213877
3903, -0.0500601009, 0.130213514
3904, -0.0500598997, 0.120213158
3905, -0.0500596948, 0.110212795
3906, -0.0500594936, 0.100212432
3907, -0.0500592925, 0.0902120695
3908, -0.0500590876, 0.0802117139
3909, -0.0500588864, 0.0702113509
3910, -0.0500586852, 0.0602109879
3911, -0.0500584841, 0.0502106249
3912, -0.0500582792, 0.0402102619
3913, -0.050058078, 0.0302099008
3914, -0.0500578769, 0.0202095397
3915, -0.050057672, 0.0102091776
3916, -0.0400492288, 0.190138042
3917, -0.0400490686, 0.180137813
3918, -0.0400489047, 0.170137584
3919, -0.0400487445, 0.16013734
3920, -0.0400485806, 0.150137112
3921, -0.0400484167, 0.140136883
3922, -0.0400482565, 0.130136654
3923, -0.0400480926, 0.120136417
3924, -0.0400479324, 0.110136189
3925, -0.0400477685, 0.10013596
3926, -0.0400476046, 0.0901357234
3927, -0.0400474444, 0.0801354945
3928, -0.0400472805, 0.0701352656
3929, -0.0400471203, 0.060135033
3930, -0.0400469564, 0.0501348004
3931, -0.0400467925, 0.0401345678
3932, -0.0400466323, 0.030134337
3933, -0.0400464684, 0.0201341063
3934, -0.0400463082, 0.0101338746
3935, -0.0300370269, 0.190077648
3936, -0.0300369039, 0.180077523
3937, -0.0300367828, 0.170077384
3938, -0.0300366599, 0.160077259
3939, -0.0300365388, 0.150077134
3940, -0.0300364159, 0.140076995
3941, -0.030036293, 0.13007687
3942, -0.0300361719, 0.120076738
3943, -0.030036049, 0.110076606
3944, -0.0300359279, 0.100076474
3945, -0.030035805, 0.0900763497
3946, -0.030035682, 0.0800762177
3947, -0.030035561, 0.0700760856
3948, -0.030035438, 0.0600759573
3949, -0.0300353169, 0.0500758253
3950, -0.030035194, 0.0400756933
3951, -0.0300350729, 0.030075565
3952, -0.03003495, 0.0200754348
3953, -0.0300348271, 0.0100753047
3954, -0.0200247336, 0.190034509
3955, -0.0200246517, 0.180034459
3956, -0.0200245716, 0.170034394
3957, -0.0200244896, 0.160034344
3958, -0.0200244077, 0.150034279
3959, -0.0200243257, 0.140034229
3960, -0.0200242437, 0.130034164
3961, -0.0200241636, 0.120034106
3962, -0.0200240817, 0.110034049
3963, -0.0200239997, 0.100033991
3964, -0.0200239178, 0.0900339335
3965, -0.0200238358, 0.080033876
3966, -0.0200237539, 0.0700338185
3967, -0.0200236738, 0.0600337572
3968, -0.0200235918, 0.0500336997
3969, -0.0200235099, 0.0400336422
3970, -0.0200234279, 0.0300335847
3971, -0.0200233459, 0.0200335272
3972, -0.0200232659, 0.0100334687
3973, -0.0100123817, 0.190008625
3974, -0.0100123407, 0.18000862
3975, -0.0100122998, 0.1700086
3976, -0.0100122597, 0.160008579
3977, -0.0100122187, 0.150008574
3978, -0.0100121778, 0.140008554
3979, -0.0100121368, 0.130008534
3980, -0.0100120958, 0.120008528
3981, -0.0100120548, 0.110008515
3982, -0.0100120138, 0.100008495
3983, -0.0100119738, 0.0900084823
3984, -0.0100119328, 0.0800084695
3985, -0.0100118918, 0.0700084567
3986, -0.0100118509, 0.0600084402
3987, -0.0100118099, 0.0500084236
3988, -0.0100117689, 0.0400084108
3989, -0.0100117279, 0.0300083961
3990, -0.0100116879, 0.0200083815
3991, -0.0100116469, 0.0100083668
3992, 0, 0.189999998
3993, 0, 0.180000007
3994, 0, 0.170000002
3995, 0, 0.159999996
3996, 0, 0.150000006
3997, 0, 0.140000001
3998, 0, 0.129999995
3999, 0, 0.119999997
4000, 0, 0.109999999
4001, 0, 0.100000001
4002, 0, 0.0900000036
4003, 0, 0.0799999982
4004, 0, 0.0700000003
4005, 0, 0.0599999987
4006, 0, 0.0500000007
4007, 0, 0.0399999991
4008, 0, 0.0299999993
4009, 0, 0.0199999996
4010, 0, 0.00999999978
4011, 0.0100123817, 0.190008625
4012, 0.0100123407, 0.18000862
4013, 0.0100122998, 0.1700086
4014, 0.0100122597, 0.160008579
4015, 0.0100122187, 0.150008574
4016, 0.0100121778, 0.140008554
4017, 0.0100121368, 0.130008534
4018, 0.0100120958, 0.120008528
4019, 0.0100120548, 0.110008515
4020, 0.0100120138, 0.100008495
4021, 0.0100119738, 0.0900084823
4022, 0.0100119328, 0.0800084695
4023, 0.0100118918, 0.0700084567
4024, 0.0100118509, 0.0600084402
4025, 0.0100118099, 0.0500084236
4026, 0.0100117689, 0.0400084108
4027, 0.0100117279, 0.0300083961
4028, 0.0100116879, 0.0200083815
4029, 0.0100116469, 0.0100083668
4030, 0.0200247336, 0.190034509
4031, 0.0200246517, 0.180034459
4032, 0.0200245716, 0.170034394
4033, 0.0200244896, 0.160034344
4034, 0.0200244077, 0.150034279
4035, 0.0200243257, 0.140034229
4036, 0.0200242437, 0.130034164
4037, 0.0200241636, 0.120034106
4038, 0.0200240817, 0.110034049
4039, 0.0200239997, 0.100033991
4040, 0.0200239178, 0.0900339335
4041, 0.0200238358, 0.080033876
4042, 0.0200237539, 0.0700338185
4043, 0.0200236738, 0.0600337572
4044, 0.0200235918, 0.0500336997
4045, 0.0200235099, 0.0400336422
4046, 0.0200234279, 0.0300335847
4047, 0.0200233459, 0.0200335272
4048, 0.0200232659, 0.0100334687
4049, 0.0300370269, 0.190077648
4050, 0.0300369039, 0.180077523
4051, 0.0300367828, 0.170077384
4052, 0.0300366599, 0.160077259
4053, 0.0300365388, 0.150077134
4054, 0.0300364159, 0.140076995
4055, 0.030036293, 0.13007687
4056, 0.0300361719, 0.120076738
4057, 0.030036049, 0.110076606
4058, 0.0300359279, 0.100076474
4059, 0.030035805, 0.0900763497
4060, 0.030035682, 0.0800762177
4061, 0.030035561, 0.0700760856
4062, 0.030035438, 0.0600759573
4063, 0.0300353169, 0.0500758253
4064, 0.030035194, 0.0400756933
4065, 0.0300350729, 0.030075565
4066, 0.03003495, 0.0200754348
4067, 0.0300348271, 0.0100753047
4068, 0.0400492288, 0.190138042
4069, 0.0400490686, 0.180137813
4070, 0.0400489047, 0.170137584
4071, 0.0400487445, 0.16013734
4072, 0.0400485806, 0.150137112
4073, 0.0400484167, 0.140136883
4074, 0.0400482565, 0.130136654
4075, 0.0400480926, 0.120136417
4076, 0.0400479324, 0.110136189
4077, 0.0400477685, 0.10013596
4078, 0.0400476046, 0.0901357234
4079, 0.0400474444, 0.0801354945
4080, 0.0400472805, 0.0701352656
4081, 0.0400471203, 0.060135033
4082, 0.0400469564, 0.0501348004
4083, 0.0400467925, 0.0401345678
4084, 0.0400466323, 0.030134337
4085, 0.0400464684, 0.0201341063
4086, 0.0400463082, 0.0101338746
4087, 0.0500613153, 0.190215692
4088, 0.0500611104, 0.180215329
4089, 0.0500609092, 0.170214966
4090, 0.0500607081, 0.160214603
4091, 0.0500605069, 0.15021424
4092, 0.050060302, 0.140213877
4093, 0.0500601009, 0.130213514
4094, 0.0500598997, 0.120213158
4095, 0.0500596948, 0.110212795
4096, 0.0500594936, 0.100212432
4097, 0.0500592925, 0.0902120695
4098, 0.0500590876, 0.0802117139
4099, 0.0500588864, 0.0702113509
4100, 0.0500586852, 0.0602109879
4101, 0.0500584841, 0.0502106249
4102, 0.0500582792, 0.0402102619
4103, 0.050058078, 0.0302099008
4104, 0.0500578769, 0.0202095397
4105, 0.050057672, 0.0102091776
4106, 0.060073249, 0.190310597
4107, 0.0600730069, 0.180310071
4108, 0.0600727685, 0.170309544
4109, 0.0600725263, 0.160309032
4110, 0.0600722842, 0.150308505
4111, 0.060072042, 0.140307993
4112, 0.0600717999, 0.130307466
4113, 0.0600715578, 0.120306946
4114, 0.0600713156, 0.110306427
4115, 0.0600710735, 0.100305907
4116, 0.0600708351, 0.0903053805
4117, 0.0600705929, 0.0803048611
4118, 0.0600703508, 0.0703043416
4119, 0.0600701086, 0.0603038222
4120, 0.0600698665, 0.050303299
4121, 0.0600696243, 0.0403027795
4122, 0.0600693822, 0.0303022582
4123, 0.0600691438, 0.0203017369
4124, 0.0600689016, 0.0103012156
4125, 0.070085004, 0.190422744
4126, 0.0700847283, 0.180422038
4127, 0.0700844452, 0.170421332
4128, 0.0700841695, 0.160420626
4129, 0.0700838864, 0.150419921
4130, 0.0700836033, 0.1404192
4131, 0.0700833276, 0.130418494
4132, 0.0700830445, 0.120417789
4133, 0.0700827613, 0.110417075
4134, 0.0700824857, 0.10041637
4135, 0.0700822026, 0.0904156566
4136, 0.0700819194, 0.0804149508
4137, 0.0700816438, 0.0704142377
4138, 0.0700813606, 0.060413532
4139, 0.070081085, 0.0504128225
4140, 0.0700808018, 0.0404121131
4141, 0.0700805187, 0.0304114055
4142, 0.0700802431, 0.020410696
4143, 0.0700799599, 0.0104099866
4144, 0.0800965577, 0.19055216
4145, 0.0800962374, 0.180551231
4146, 0.080095917, 0.170550302
4147, 0.0800956041, 0.160549387
4148, 0.0800952837, 0.150548458
4149, 0.0800949633, 0.140547529
4150, 0.0800946429, 0.1305466
4151, 0.08009433, 0.120545678
4152, 0.0800940096, 0.110544749
4153, 0.0800936893, 0.100543827
4154, 0.0800933689, 0.0905428976
4155, 0.080093056, 0.0805419758
4156, 0.0800927356, 0.0705410466
4157, 0.0800924152, 0.060540121
4158, 0.0800920948, 0.0505391955
4159, 0.0800917819, 0.04053827
4160, 0.0800914615, 0.0305373427
4161, 0.0800911412, 0.0205364171
4162, 0.0800908208, 0.0105354907
4163, 0.0901078656, 0.190698832
4164, 0.0901075155, 0.18069765
4165, 0.0901071578, 0.170696482
4166, 0.0901068002, 0.160695314
4167, 0.0901064426, 0.150694132
4168, 0.0901060849, 0.140692964
4169, 0.0901057348, 0.130691797
4170, 0.0901053771, 0.120690621
4171, 0.0901050195, 0.110689446
4172, 0.0901046619, 0.100688279
4173, 0.0901043117, 0.0906871036
4174, 0.0901039541, 0.0806859359
4175, 0.0901035964, 0.0706847608
4176, 0.0901032388, 0.0606835894
4177, 0.0901028886, 0.050682418
4178, 0.090102531, 0.0406812429
4179, 0.0901021734, 0.0306800716
4180, 0.0901018158, 0.0206789002
4181, 0.0901014656, 0.0106777279
4182, 0.100118913, 0.190862745
4183, 0.100118518, 0.180861294
4184, 0.10011813, 0.170859843
4185, 0.100117736, 0.160858408
4186, 0.100117341, 0.150856957
4187, 0.100116953, 0.140855506
4188, 0.100116558, 0.130854055
4189, 0.100116163, 0.120852612
4190, 0.100115776, 0.110851169
4191, 0.100115381, 0.100849718
4192, 0.100114986, 0.0908482745
4193, 0.100114599, 0.0808468238
4194, 0.100114204, 0.0708453804
4195, 0.100113809, 0.0608439334
4196, 0.100113422, 0.0508424863
4197, 0.100113027, 0.0408410393
4198, 0.100112632, 0.0308395922
4199, 0.100112244, 0.0208381452
4200, 0.10011185, 0.0108366972
4201, 0.110129654, 0.191043913
4202, 0.11012923, 0.181042165
4203, 0.110128805, 0.171040416
4204, 0.110128373, 0.161038667
4205, 0.110127948, 0.151036918
4206, 0.110127516, 0.141035154
4207, 0.110127091, 0.131033406
4208, 0.110126667, 0.121031657
4209, 0.110126235, 0.111029908
4210, 0.11012581, 0.101028159
4211, 0.110125378, 0.091026403
4212, 0.110124953, 0.0810246542
4213, 0.110124528, 0.0710229054
4214, 0.110124096, 0.0610211529
4215, 0.110123672, 0.0510194041
4216, 0.110123239, 0.0410176516
4217, 0.110122815, 0.0310159009
4218, 0.110122383, 0.0210141502
4219, 0.110121958, 0.0110123986
4220, 0.120140076, 0.191242337
4221, 0.120139614, 0.181240261
4222, 0.120139152, 0.171238169
4223, 0.12013869, 0.161236092
4224, 0.120138228, 0.151234001
4225, 0.120137766, 0.141231924
4226, 0.120137304, 0.131229833
4227, 0.120136842, 0.121227756
4228, 0.12013638, 0.111225672
4229, 0.120135918, 0.101223588
4230, 0.120135456, 0.0912215039
4231, 0.120134994, 0.0812194198
4232, 0.120134532, 0.0712173358
4233, 0.120134071, 0.0612152517
4234, 0.120133609, 0.0512131676
4235, 0.120133147, 0.0412110835
4236, 0.120132685, 0.0312089995
4237, 0.120132223, 0.0212069154
4238, 0.120131761, 0.0112048313
4239, 0.130150139, 0.191458017
4240, 0.130149648, 0.181455567
4241, 0.130149156, 0.171453118
4242, 0.130148649, 0.161450684
4243, 0.130148157, 0.151448235
4244, 0.130147666, 0.141445786
4245, 0.130147174, 0.131443337
4246, 0.130146667, 0.121440895
4247, 0.130146176, 0.111438453
4248, 0.130145684, 0.101436004
4249, 0.130145192, 0.0914335623
4250, 0.130144686, 0.0814311132
4251, 0.130144194, 0.0714286715
4252, 0.130143702, 0.0614262223
4253, 0.13014321, 0.0514237769
4254, 0.130142704, 0.0414213315
4255, 0.130142212, 0.031418886
4256, 0.13014172, 0.0214164406
4257, 0.130141228, 0.0114139952
4258, 0.140159816, 0.191690937
4259, 0.140159294, 0.1816881
4260, 0.140158758, 0.171685264
4261, 0.140158236, 0.161682427
4262, 0.1401577, 0.15167959
4263, 0.140157178, 0.141676754
4264, 0.140156657, 0.131673917
4265, 0.14015612, 0.121671088
4266, 0.140155599, 0.111668251
4267, 0.140155077, 0.101665415
4268, 0.140154541, 0.0916625783
4269, 0.140154019, 0.0816597417
4270, 0.140153483, 0.0716569051
4271, 0.140152961, 0.0616540685
4272, 0.140152439, 0.0516512357
4273, 0.140151903, 0.0416483991
4274, 0.140151381, 0.0316455625
4275, 0.140150845, 0.0216427259
4276, 0.140150324, 0.0116398903
4277, 0.150169075, 0.191941112
4278, 0.150168523, 0.181937858
4279, 0.150167957, 0.171934605
4280, 0.150167406, 0.161931351
4281, 0.150166839, 0.151928097
4282, 0.150166288, 0.141924843
4283, 0.150165722, 0.131921574
4284, 0.15016517, 0.121918328
4285, 0.150164619, 0.111915067
4286, 0.150164053, 0.101911813
4287, 0.150163502, 0.0919085592
4288, 0.150162935, 0.0819053054
4289, 0.150162384, 0.0719020441
4290, 0.150161818, 0.0618987903
4291, 0.150161266, 0.0518955365
4292, 0.150160715, 0.0418922789
4293, 0.150160149, 0.0318890251
4294, 0.150159597, 0.0218857694
4295, 0.150159031, 0.0118825138
4296, 0.160177886, 0.192208543
4297, 0.160177305, 0.182204843
4298, 0.160176709, 0.172201127
4299, 0.160176128, 0.162197426
4300, 0.160175547, 0.152193725
4301, 0.160174951, 0.142190024
4302, 0.16017437, 0.132186323
4303, 0.160173774, 0.122182615
4304, 0.160173193, 0.112178907
4305, 0.160172611, 0.102175206
4306, 0.160172015, 0.0921714976
4307, 0.160171434, 0.0821677968
4308, 0.160170838, 0.0721640885
4309, 0.160170257, 0.0621603876
4310, 0.160169676, 0.0521566831
4311, 0.16016908, 0.0421529785
4312, 0.160168499, 0.0321492739
4313, 0.160167918, 0.0221455712
4314, 0.160167322, 0.0121418666
4315, 0.170186222, 0.192493215
4316, 0.170185611, 0.182489038
4317, 0.170185, 0.172484845
4318, 0.170184389, 0.162480667
4319, 0.170183763, 0.15247649
4320, 0.170183152, 0.142472312
4321, 0.170182541, 0.132468119
4322, 0.17018193, 0.122463942
4323, 0.170181304, 0.112459764
4324, 0.170180693, 0.102455579
4325, 0.170180082, 0.0924514011
4326, 0.170179471, 0.0824472159
4327, 0.17017886, 0.0724430382
4328, 0.170178235, 0.0624388568
4329, 0.170177624, 0.0524346754
4330, 0.170177013, 0.042430494
4331, 0.170176402, 0.0324263126
4332, 0.170175776, 0.0224221293
4333, 0.170175165, 0.0124179488
4334, 0.18019405, 0.192795143
4335, 0.180193424, 0.182790443
4336, 0.180192783, 0.172785759
4337, 0.180192143, 0.162781075
4338, 0.180191502, 0.15277639
4339, 0.180190861, 0.142771691
4340, 0.18019022, 0.132767007
4341, 0.18018958, 0.122762322
4342, 0.180188939, 0.112757638
4343, 0.180188298, 0.102752946
4344, 0.180187657, 0.092748262
4345, 0.180187017, 0.0827435702
4346, 0.180186376, 0.0727388859
4347, 0.180185735, 0.0627341941
4348, 0.180185094, 0.0527295098
4349, 0.180184454, 0.0427248217
4350, 0.180183813, 0.0327201337
4351, 0.180183172, 0.0227154456
4352, 0.180182531, 0.0127107576
4353, 0.190201357, 0.193114311
4354, 0.190200686, 0.18310909
4355, 0.190200031, 0.173103854
4356, 0.19019936, 0.163098633
4357, 0.19019869, 0.153093413
4358, 0.190198034, 0.143088192
4359, 0.190197363, 0.133082971
4360, 0.190196708, 0.123077743
4361, 0.190196037, 0.113072522
4362, 0.190195382, 0.103067301
4363, 0.190194711, 0.0930620804
4364, 0.190194041, 0.0830568522
4365, 0.190193385, 0.0730516315
4366, 0.190192714, 0.0630464107
4367, 0.190192059, 0.0530411862
4368, 0.190191388, 0.0430359617
4369, 0.190190732, 0.0330307409
4370, 0.190190062, 0.0230255164
4371, 0.190189391, 0.0130202938
4372, 0.200208083, 0.193450719
4373, 0.200207397, 0.183444932
4374, 0.200206712, 0.173439145
4375, 0.200206026, 0.163433358
4376, 0.200205341, 0.153427571
4377, 0.200204656, 0.143421784
4378, 0.20020397, 0.133415997
4379, 0.200203285, 0.12341021
4380, 0.200202599, 0.113404423
4381, 0.200201914, 0.103398636
4382, 0.200201228, 0.093392849
4383, 0.200200528, 0.083387062
4384, 0.200199842, 0.0733812749
4385, 0.200199157, 0.0633754879
4386, 0.200198472, 0.0533697046
4387, 0.200197786, 0.0433639176
4388, 0.200197101, 0.0333581306
4389, 0.200196415, 0.0233523417
4390, 0.20019573, 0.0133465547
4391, 0.210214227, 0.193804383
4392, 0.210213512, 0.183798
4393, 0.210212812, 0.173791617
4394, 0.210212097, 0.163785249
4395, 0.210211396, 0.153778866
4396, 0.210210696, 0.143772483
4397, 0.210209981, 0.1337661
4398, 0.21020928, 0.123759724
4399, 0.210208565, 0.113753341
4400, 0.210207865, 0.103746966
4401, 0.210207149, 0.0937405825
4402, 0.210206449, 0.0837341994
4403, 0.210205749, 0.0737278238
4404, 0.210205033, 0.0637214407
4405, 0.210204333, 0.0537150614
4406, 0.210203618, 0.0437086821
4407, 0.210202917, 0.0337023027
4408, 0.210202217, 0.0236959215
4409, 0.210201502, 0.0136895413
4410, 0.220219731, 0.194175288
4411, 0.220219016, 0.184168279
4412, 0.220218286, 0.174161285
4413, 0.220217556, 0.164154276
4414, 0.220216841, 0.154147282
4415, 0.22021611, 0.144140273
4416, 0.22021538, 0.134133279
4417, 0.220214665, 0.12412627
4418, 0.220213935, 0.114119269
4419, 0.22021322, 0.104112267
4420, 0.220212489, 0.094105266
4421, 0.220211759, 0.0840982646
4422, 0.220211044, 0.0740912631
4423, 0.220210314, 0.0640842617
4424, 0.220209584, 0.0540772602
4425, 0.220208868, 0.0440702587
4426, 0.220208138, 0.0340632573
4427, 0.220207408, 0.024056254
4428, 0.220206693, 0.0140492525
4429, 0.230224594, 0.194563434
4430, 0.230223849, 0.184555784
4431, 0.230223119, 0.174548134
4432, 0.230222374, 0.16454047
4433, 0.230221629, 0.15453282
4434, 0.230220884, 0.14452517
4435, 0.230220154, 0.134517521
4436, 0.230219409, 0.124509864
4437, 0.230218664, 0.114502214
4438, 0.230217934, 0.104494557
4439, 0.230217189, 0.0944869071
4440, 0.230216444, 0.0844792575
4441, 0.230215698, 0.0744716004
4442, 0.230214968, 0.0644639507
4443, 0.230214223, 0.0544562973
4444, 0.230213478, 0.0444486439
4445, 0.230212748, 0.0344409905
4446, 0.230212003, 0.024433339
4447, 0.230211258, 0.0144256866
4448, 0.240228772, 0.19496882
4449, 0.240228012, 0.184960485
4450, 0.240227267, 0.174952164
4451, 0.240226507, 0.164943829
4452, 0.240225747, 0.154935494
4453, 0.240225002, 0.144927159
4454, 0.240224242, 0.134918824
4455, 0.240223482, 0.124910496
4456, 0.240222737, 0.114902161
4457, 0.240221977, 0.104893833
4458, 0.240221217, 0.0948854983
4459, 0.240220472, 0.0848771706
4460, 0.240219712, 0.0748688355
4461, 0.240218952, 0.0648605004
4462, 0.240218207, 0.054852169
4463, 0.240217447, 0.0448438376
4464, 0.240216702, 0.0348355062
4465, 0.240215942, 0.0248271748
4466, 0.240215182, 0.0148188416
4467, 0.25023222, 0.195391446
4468, 0.250231475, 0.185382411
4469, 0.2502307, 0.175373375
4470, 0.250229925, 0.165364325
4471, 0.25022918, 0.15535529
4472, 0.250228405, 0.145346254
4473, 0.25022763, 0.135337204
4474, 0.250226855, 0.125328168
4475, 0.25022611, 0.115319125
4476, 0.250225335, 0.105310082
4477, 0.25022456, 0.095301047
4478, 0.250223815, 0.085292004
4479, 0.250223041, 0.0752829611
4480, 0.250222266, 0.0652739257
4481, 0.250221521, 0.0552648827
4482, 0.250220746, 0.0452558398
4483, 0.250219971, 0.0352468006
4484, 0.250219196, 0.0252377596
4485, 0.250218451, 0.0152287185
4486, 0.260234952, 0.195831314
4487, 0.260234177, 0.185821548
4488, 0.260233402, 0.175811768
4489, 0.260232627, 0.165801987
4490, 0.260231853, 0.155792207
4491, 0.260231078, 0.145782426
4492, 0.260230303, 0.135772645
4493, 0.260229528, 0.12576288
4494, 0.260228753, 0.115753099
4495, 0.260227978, 0.105743319
4496, 0.260227203, 0.0957335383
4497, 0.260226429, 0.0857237652
4498, 0.260225654, 0.0757139847
4499, 0.260224879, 0.0657042041
4500, 0.260224104, 0.0556944273
4501, 0.260223329, 0.0456846505
4502, 0.260222554, 0.03567487
4503, 0.260221779, 0.0256650932
4504, 0.260221004, 0.0156553145
4505, 0.27023688, 0.196288422
4506, 0.270236105, 0.186277881
4507, 0.27023533, 0.176267341
4508, 0.270234555, 0.1662568
4509, 0.27023378, 0.156246245
4510, 0.270232975, 0.146235704
4511, 0.270232201, 0.136225164
4512, 0.270231426, 0.126214623
4513, 0.270230651, 0.116204076
4514, 0.270229876, 0.106193528
4515, 0.270229071, 0.0961829871
4516, 0.270228297, 0.0861724392
4517, 0.270227522, 0.0761618987
4518, 0.270226747, 0.0661513507
4519, 0.270225942, 0.0561408065
4520, 0.270225167, 0.0461302623
4521, 0.270224392, 0.0361197181
4522, 0.270223618, 0.0261091739
4523, 0.270222843, 0.0160986297
4524, 0.280238032, 0.19676277
4525, 0.280237257, 0.186751425
4526, 0.280236453, 0.176740095
4527, 0.280235678, 0.16672875
4528, 0.280234903, 0.15671742
4529, 0.280234098, 0.146706074
4530, 0.280233324, 0.136694729
4531, 0.280232549, 0.126683399
4532, 0.280231744, 0.116672054
4533, 0.280230969, 0.106660716
4534, 0.280230194, 0.0966493785
4535, 0.28022939, 0.0866380408
4536, 0.280228615, 0.0766266957
4537, 0.28022784, 0.066615358
4538, 0.280227035, 0.0566040203
4539, 0.28022626, 0.0465926789
4540, 0.280225486, 0.0365813412
4541, 0.280224681, 0.0265700016
4542, 0.280223906, 0.0165586621
4543, 0.290238351, 0.197254345
4544, 0.290237546, 0.18724218
4545, 0.290236771, 0.17723003
4546, 0.290235996, 0.167217866
4547, 0.290235192, 0.157205701
4548, 0.290234417, 0.147193536
4549, 0.290233642, 0.137181371
4550, 0.290232837, 0.127169207
4551, 0.290232062, 0.117157042
4552, 0.290231258, 0.107144877
4553, 0.290230483, 0.0971327201
4554, 0.290229708, 0.0871205553
4555, 0.290228903, 0.0771083906
4556, 0.290228128, 0.0670962259
4557, 0.290227354, 0.0570840612
4558, 0.290226549, 0.0470719002
4559, 0.290225774, 0.0370597355
4560, 0.290224969, 0.0270475727
4561, 0.290224195, 0.0170354098
4562, 0.300237805, 0.19776316
4563, 0.300237, 0.187750146
4564, 0.300236225, 0.177737132
4565, 0.30023545, 0.167724118
4566, 0.300234646, 0.157711104
4567, 0.300233871, 0.147698075
4568, 0.300233096, 0.137685061
4569, 0.300232291, 0.127672046
4570, 0.300231516, 0.117659032
4571, 0.300230742, 0.107646018
4572, 0.300229937, 0.0976330042
4573, 0.300229162, 0.0876199827
4574, 0.300228387, 0.0776069686
4575, 0.300227612, 0.0675939545
4576, 0.300226808, 0.0575809367
4577, 0.300226033, 0.0475679189
4578, 0.300225258, 0.0375549048
4579, 0.300224453, 0.0275418889
4580, 0.300223678, 0.0175288729
4581, 0.310236365, 0.198289201
4582, 0.31023556, 0.188275307
4583, 0.310234785, 0.178261414
4584, 0.31023401, 0.168247521
4585, 0.310233235, 0.158233613
4586, 0.31023246, 0.14821972
4587, 0.310231686, 0.138205826
4588, 0.310230881, 0.128191918
4589, 0.310230106, 0.118178025
4590, 0.310229331, 0.108164124
4591, 0.310228556, 0.0981502309
4592, 0.310227782, 0.0881363302
4593, 0.310227007, 0.078122437
4594, 0.310226202, 0.0681085363
4595, 0.310225427, 0.0580946393
4596, 0.310224652, 0.0480807424
4597, 0.310223877, 0.0380668454
4598, 0.310223103, 0.0280529466
4599, 0.310222328, 0.0180390477
4600, 0.320233971, 0.198832482
4601, 0.320233226, 0.18881768
4602, 0.320232451, 0.178802863
4603, 0.320231676, 0.168788061
4604, 0.320230901, 0.158773243
4605, 0.320230126, 0.148758441
4606, 0.320229352, 0.138743639
4607, 0.320228577, 0.128728822
4608, 0.320227802, 0.11871402
4609, 0.320227027, 0.10869921
4610, 0.320226282, 0.0986844003
4611, 0.320225507, 0.0886695907
4612, 0.320224732, 0.0786547884
4613, 0.320223957, 0.0686399788
4614, 0.320223182, 0.0586251691
4615, 0.320222408, 0.0486103594
4616, 0.320221633, 0.0385955535
4617, 0.320220858, 0.0285807438
4618, 0.320220083, 0.018565936
4619, 0.330230683, 0.199392989
4620, 0.330229908, 0.189377233
4621, 0.330229133, 0.179361492
4622, 0.330228388, 0.169345751
4623, 0.330227613, 0.159329996
4624, 0.330226868, 0.149314255
4625, 0.330226094, 0.139298499
4626, 0.330225348, 0.129282758
4627, 0.330224574, 0.119267009
4628, 0.330223829, 0.109251261
4629, 0.330223054, 0.0992355123
4630, 0.330222309, 0.0892197639
4631, 0.330221534, 0.0792040154
4632, 0.330220789, 0.0691882744
4633, 0.330220014, 0.0591725223
4634, 0.330219269, 0.0491567776
4635, 0.330218494, 0.0391410291
4636, 0.330217749, 0.0291252825
4637, 0.330216974, 0.0191095341
4638, 0.340226382, 0.199970722
4639, 0.340225637, 0.189953998
4640, 0.340224892, 0.179937288
4641, 0.340224117, 0.169920579
4642, 0.340223372, 0.159903854
4643, 0.340222627, 0.149887145
4644, 0.340221882, 0.13987042
4645, 0.340221137, 0.129853711
4646, 0.340220392, 0.119836994
4647, 0.340219647, 0.109820284
4648, 0.340218902, 0.0998035669
4649, 0.340218157, 0.0897868499
4650, 0.340217412, 0.0797701329
4651, 0.340216666, 0.0697534159
4652, 0.340215921, 0.0597367026
4653, 0.340215176, 0.0497199893
4654, 0.340214431, 0.0397032723
4655, 0.340213686, 0.0296865571
4656, 0.340212941, 0.019669842
4657, 0.350221068, 0.200565681
4658, 0.350220323, 0.190547958
4659, 0.350219607, 0.18053025
4660, 0.350218862, 0.170512542
4661, 0.350218147, 0.160494834
4662, 0.350217432, 0.150477111
4663, 0.350216687, 0.140459403
4664, 0.350215971, 0.130441695
4665, 0.350215226, 0.12042398
4666, 0.350214511, 0.110406265
4667, 0.350213766, 0.100388557
4668, 0.350213051, 0.0903708413
4669, 0.350212306, 0.0803531259
4670, 0.350211591, 0.070335418
4671, 0.350210845, 0.0603177063
4672, 0.35021013, 0.0502999946
4673, 0.350209385, 0.0402822793
4674, 0.35020867, 0.0302645676
4675, 0.350207925, 0.0202468559
4676, 0.36021471, 0.201177865
4677, 0.360213995, 0.191159114
4678, 0.36021331, 0.181140378
4679, 0.360212594, 0.171121642
4680, 0.360211879, 0.161102906
4681, 0.360211164, 0.15108417
4682, 0.360210478, 0.141065434
4683, 0.360209763, 0.131046697
4684, 0.360209048, 0.121027954
4685, 0.360208333, 0.111009218
4686, 0.360207647, 0.100990482
4687, 0.360206932, 0.0909717381
4688, 0.360206217, 0.080953002
4689, 0.360205501, 0.0709342659
4690, 0.360204816, 0.060915526
4691, 0.360204101, 0.0508967899
4692, 0.360203385, 0.0408780538
4693, 0.36020267, 0.0308593139
4694, 0.360201955, 0.0208405759
4695, 0.37020731, 0.201807261
4696, 0.370206624, 0.191787466
4697, 0.370205939, 0.181767672
4698, 0.370205253, 0.171747878
4699, 0.370204568, 0.161728099
4700, 0.370203882, 0.151708305
4701, 0.370203197, 0.141688511
4702, 0.370202512, 0.131668717
4703, 0.370201826, 0.121648923
4704, 0.370201141, 0.111629128
4705, 0.370200455, 0.101609342
4706, 0.37019977, 0.0915895477
4707, 0.370199084, 0.0815697536
4708, 0.370198399, 0.0715499595
4709, 0.370197713, 0.0615301691
4710, 0.370197028, 0.0515103787
4711, 0.370196372, 0.0414905846
4712, 0.370195687, 0.0314707942
4713, 0.370195001, 0.0214510001
4714, 0.380198777, 0.202453882
4715, 0.380198121, 0.192433015
4716, 0.380197465, 0.182412133
4717, 0.38019681, 0.172391266
4718, 0.380196154, 0.162370384
4719, 0.380195498, 0.152349502
4720, 0.380194843, 0.142328635
4721, 0.380194187, 0.132307753
4722, 0.380193532, 0.122286879
4723, 0.380192876, 0.112266004
4724, 0.38019222, 0.10224513
4725, 0.380191565, 0.0922242552
4726, 0.380190909, 0.0822033808
4727, 0.380190253, 0.0721825063
4728, 0.380189598, 0.0621616282
4729, 0.380188942, 0.0521407537
4730, 0.380188286, 0.0421198793
4731, 0.380187631, 0.0320990011
4732, 0.380186975, 0.0220781267
4733, 0.390189141, 0.203117728
4734, 0.390188515, 0.193095744
4735, 0.390187889, 0.183073759
4736, 0.390187263, 0.17305176
4737, 0.390186638, 0.163029775
4738, 0.390186012, 0.15300779
4739, 0.390185386, 0.142985806
4740, 0.39018476, 0.132963821
4741, 0.390184134, 0.122941829
4742, 0.390183508, 0.112919845
4743, 0.390182883, 0.102897853
4744, 0.390182257, 0.0928758681
4745, 0.390181661, 0.0828538761
4746, 0.390181035, 0.0728318915
4747, 0.390180409, 0.0628099069
4748, 0.390179783, 0.0527879149
4749, 0.390179157, 0.0427659303
4750, 0.390178531, 0.032743942
4751, 0.390177906, 0.0227219537
4752, 0.400178313, 0.203798786
4753, 0.400177747, 0.193775654
4754, 0.400177151, 0.183752537
4755, 0.400176555, 0.173729405
4756, 0.400175989, 0.163706273
4757, 0.400175393, 0.153683141
4758, 0.400174797, 0.143660024
4759, 0.400174201, 0.133636892
4760, 0.400173634, 0.12361376
4761, 0.400173038, 0.113590635
4762, 0.400172442, 0.103567503
4763, 0.400171846, 0.0935443789
4764, 0.40017128, 0.0835212469
4765, 0.400170684, 0.0734981224
4766, 0.400170088, 0.0634749904
4767, 0.400169492, 0.0534518659
4768, 0.400168926, 0.0434287377
4769, 0.400168329, 0.0334056094
4770, 0.400167733, 0.0233824793
4771, 0.410166323, 0.204497054
4772, 0.410165787, 0.19447276
4773, 0.41016525, 0.184448466
4774, 0.410164684, 0.174424171
4775, 0.410164148, 0.164399862
4776, 0.410163581, 0.154375568
4777, 0.410163045, 0.144351274
4778, 0.410162479, 0.13432698
4779, 0.410161942, 0.124302678
4780, 0.410161406, 0.114278384
4781, 0.41016084, 0.104254082
4782, 0.410160303, 0.0942297876
4783, 0.410159737, 0.0842054859
4784, 0.4101592, 0.0741811916
4785, 0.410158664, 0.0641568899
4786, 0.410158098, 0.0541325957
4787, 0.410157561, 0.0441082977
4788, 0.410156995, 0.0340839997
4789, 0.410156459, 0.0240597036
4790, 0.420153111, 0.205212548
4791, 0.420152605, 0.195187047
4792, 0.420152098, 0.185161546
4793, 0.420151591, 0.17513606
4794, 0.420151114, 0.165110558
4795, 0.420150608, 0.155085072
4796, 0.420150101, 0.145059571
4797, 0.420149595, 0.135034069
4798, 0.420149088, 0.125008583
4799, 0.420148581, 0.114983082
4800, 0.420148075, 0.104957588
4801, 0.420147568, 0.0949320942
4802, 0.420147061, 0.084906593
4803, 0.420146555, 0.0748810992
4804, 0.420146048, 0.0648556054
4805, 0.420145541, 0.0548301078
4806, 0.420145035, 0.044804614
4807, 0.420144528, 0.0347791165
4808, 0.420144022, 0.0247536208
4809, 0.430138648, 0.205945238
4810, 0.430138201, 0.195918515
4811, 0.430137753, 0.185891792
4812, 0.430137277, 0.175865069
4813, 0.43013683, 0.165838346
4814, 0.430136383, 0.155811623
4815, 0.430135906, 0.1457849
4816, 0.430135459, 0.135758176
4817, 0.430135012, 0.125731453
4818, 0.430134535, 0.115704738
4819, 0.430134088, 0.105678014
4820, 0.430133641, 0.0956512913
4821, 0.430133164, 0.0856245682
4822, 0.430132717, 0.075597845
4823, 0.43013227, 0.0655711219
4824, 0.430131793, 0.0555443987
4825, 0.430131346, 0.0455176756
4826, 0.430130899, 0.0354909562
4827, 0.430130422, 0.0254642311
4828, 0.440122932, 0.206695139
4829, 0.440122515, 0.196667165
4830, 0.440122098, 0.18663919
4831, 0.44012171, 0.176611215
4832, 0.440121293, 0.166583225
4833, 0.440120906, 0.15655525
4834, 0.440120488, 0.146527275
4835, 0.440120071, 0.136499301
4836, 0.440119684, 0.126471311
4837, 0.440119267, 0.116443336
4838, 0.440118879, 0.106415361
4839, 0.440118462, 0.0963873789
4840, 0.440118045, 0.086359404
4841, 0.440117657, 0.0763314217
4842, 0.44011724, 0.0663034469
4843, 0.440116853, 0.0562754683
4844, 0.440116435, 0.0462474898
4845, 0.440116018, 0.0362195112
4846, 0.440115631, 0.0261915345
4847, 0.450105876, 0.207462251
4848, 0.450105518, 0.197432995
4849, 0.45010519, 0.187403724
4850, 0.450104833, 0.177374467
4851, 0.450104475, 0.167345196
4852, 0.450104117, 0.15731594
4853, 0.45010379, 0.147286683
4854, 0.450103432, 0.137257412
4855, 0.450103074, 0.127228156
4856, 0.450102746, 0.117198892
4857, 0.450102389, 0.107169628
4858, 0.450102031, 0.0971403643
4859, 0.450101674, 0.0871111006
4860, 0.450101346, 0.0770818368
4861, 0.450100988, 0.067052573
4862, 0.450100631, 0.0570233129
4863, 0.450100303, 0.0469940491
4864, 0.450099945, 0.036964789
4865, 0.450099587, 0.0269355252
4866, 0.460087478, 0.208246559
4867, 0.46008721, 0.198215991
4868, 0.460086912, 0.188185409
4869, 0.460086614, 0.178154841
4870, 0.460086346, 0.168124259
4871, 0.460086048, 0.158093691
4872, 0.46008575, 0.148063108
4873, 0.460085481, 0.138032541
4874, 0.460085183, 0.128001958
4875, 0.460084885, 0.117971383
4876, 0.460084617, 0.107940808
4877, 0.460084319, 0.0979102328
4878, 0.460084021, 0.0878796577
4879, 0.460083753, 0.0778490826
4880, 0.460083455, 0.0678185076
4881, 0.460083157, 0.0577879287
4882, 0.460082889, 0.0477573536
4883, 0.460082591, 0.0377267785
4884, 0.460082293, 0.0276962034
4885, 0.470067739, 0.209048077
4886, 0.470067531, 0.199016154
4887, 0.470067292, 0.188984245
4888, 0.470067084, 0.178952321
4889, 0.470066845, 0.168920413
4890, 0.470066637, 0.158888489
4891, 0.470066398, 0.14885658
4892, 0.47006619, 0.138824657
4893, 0.470065951, 0.128792733
4894, 0.470065743, 0.118760824
4895, 0.470065504, 0.108728908
4896, 0.470065296, 0.0986969844
4897, 0.470065057, 0.0886650681
4898, 0.470064849, 0.0786331519
4899, 0.47006461, 0.0686012357
4900, 0.470064402, 0.0585693195
4901, 0.470064163, 0.0485373996
4902, 0.470063955, 0.0385054834
4903, 0.470063716, 0.0284735654
4904, 0.4800466, 0.209866792
4905, 0.480046451, 0.199833497
4906, 0.480046302, 0.189800218
4907, 0.480046123, 0.179766923
4908, 0.480045974, 0.169733644
4909, 0.480045825, 0.159700349
4910, 0.480045676, 0.149667069
4911, 0.480045527, 0.139633775
4912, 0.480045378, 0.129600495
4913, 0.480045229, 0.119567201
4914, 0.48004505, 0.109533913
4915, 0.480044901, 0.0995006263
4916, 0.480044752, 0.0894673392
4917, 0.480044603, 0.0794340521
4918, 0.480044454, 0.069400765
4919, 0.480044305, 0.0593674742
4920, 0.480044127, 0.0493341871
4921, 0.480043977, 0.0393009
4922, 0.480043828, 0.0292676128
4923, 0.49002403, 0.210702702
4924, 0.490023941, 0.200668007
4925, 0.490023881, 0.190633327
4926, 0.490023792, 0.180598632
4927, 0.490023702, 0.170563951
4928, 0.490023643, 0.160529271
4929, 0.490023553, 0.150494576
4930, 0.490023464, 0.140459895
4931, 0.490023404, 0.1304252
4932, 0.490023315, 0.120390519
4933, 0.490023226, 0.110355832
4934, 0.490023166, 0.100321144
4935, 0.490023077, 0.090286456
4936, 0.490022987, 0.0802517682
4937, 0.490022928, 0.0702170879
4938, 0.490022838, 0.0601824
4939, 0.490022749, 0.0501477122
4940, 0.490022689, 0.0401130244
4941, 0.4900226, 0.0300783385
60001, 6, -6
60002, 0.5, -0.200000003
60003, -0.5, -0.200000003
60004, -6, -6
60005, -0.5, 0
60006, -6, 0
60007, 0.5, 0
60008, 6, 0
60009, 5.31125355, -5.27368546
60010, 4.70111609, -4.63026762
60011, 4.16061544, -4.06028557
60012, 3.68180394, -3.55535674
60013, 3.2576406, -3.1080575
60014, 2.88188839, -2.71180964
60015, 2.5490222, -2.36078691
60016, 2.25414681, -2.04982758
60017, 1.99292672, -1.77435911
60018, 1.7615205, -1.53033066
60019, 1.55652535, -1.31415403
60020, 1.37492692, -1.12265027
60021, 1.21405494, -0.953003407
60022, 1.07154381, -0.802718937
60023, 0.945297956, -0.669586897
60024, 0.833460927, -0.55164969
60025, 0.734388173, -0.447172999
60026, 0.646622956, -0.354620546
60027, 0.568874657, -0.272631437
60028, 0.49000001, -0.200000003
60029, 0.479999989, -0.200000003
60030, 0.469999999, -0.200000003
60031, 0.460000008, -0.200000003
60032, 0.449999988, -0.200000003
60033, 0.439999998, -0.200000003
60034, 0.430000007, -0.200000003
60035, 0.419999987, -0.200000003
60036, 0.409999996, -0.200000003
60037, 0.400000006, -0.200000003
60038, 0.389999986, -0.200000003
60039, 0.379999995, -0.200000003
60040, 0.370000005, -0.200000003
60041, 0.360000014, -0.200000003
60042, 0.349999994, -0.200000003
60043, 0.340000004, -0.200000003
60044, 0.330000013, -0.200000003
60045, 0.319999993, -0.200000003
60046, 0.310000002, -0.200000003
60047, 0.300000012, -0.200000003
60048, 0.289999992, -0.200000003
60049, 0.280000001, -0.200000003
60050, 0.270000011, -0.200000003
60051, 0.25999999, -0.200000003
60052, 0.25, -0.200000003
60053, 0.239999995, -0.200000003
60054, 0.230000004, -0.200000003
60055, 0.219999999, -0.200000003
60056, 0.209999993, -0.200000003
60057, 0.200000003, -0.200000003
60058, 0.189999998, -0.200000003
60059, 0.180000007, -0.200000003
60060, 0.170000002, -0.200000003
60061, 0.159999996, -0.200000003
60062, 0.150000006, -0.200000003
60063, 0.140000001, -0.200000003
60064, 0.129999995, -0.200000003
60065, 0.119999997, -0.200000003
60066, 0.109999999, -0.200000003
60067, 0.100000001, -0.200000003
60068, 0.0900000036, -0.200000003
60069, 0.0799999982, -0.200000003
60070, 0.0700000003, -0.200000003
60071, 0.0599999987, -0.200000003
60072, 0.0500000007, -0.200000003
60073, 0.0399999991, -0.200000003
60074, 0.0299999993, -0.200000003
60075, 0.0199999996, -0.200000003
60076, 0.00999999978, -0.200000003
60077, 0, -0.200000003
60078, -0.00999999978, -0.200000003
60079, -0.0199999996, -0.200000003
60080, -0.0299999993, -0.200000003
60081, -0.0399999991, -0.200000003
60082, -0.0500000007, -0.200000003
60083, -0.0599999987, -0.200000003
60084, -0.0700000003, -0.200000003
60085, -0.0799999982, -0.200000003
60086, -0.0900000036, -0.200000003
60087, -0.100000001, -0.200000003
60088, -0.109999999, -0.200000003
60089, -0.119999997, -0.200000003
60090, -0.129999995, -0.200000003
60091, -0.140000001, -0.200000003
60092, -0.150000006, -0.200000003
60093, -0.159999996, -0.200000003
60094, -0.170000002, -0.200000003
60095, -0.180000007, -0.200000003
60096, -0.189999998, -0.200000003
60097, -0.200000003, -0.200000003
60098, -0.209999993, -0.200000003
60099, -0.219999999, -0.200000003
60100, -0.230000004, -0.200000003
60101, -0.239999995, -0.200000003
60102, -0.25, -0.200000003
60103, -0.25999999, -0.200000003
60104, -0.270000011, -0.200000003
60105, -0.280000001, -0.200000003
60106, -0.289999992, -0.200000003
60107, -0.300000012, -0.200000003
60108, -0.310000002, -0.200000003
60109, -0.319999993, -0.200000003
60110, -0.330000013, -0.200000003
60111, -0.340000004, -0.200000003
60112, -0.349999994, -0.200000003
60113, -0.360000014, -0.200000003
60114, -0.370000005, -0.200000003
60115, -0.379999995, -0.200000003
60116, -0.389999986, -0.200000003
60117, -0.400000006, -0.200000003
60118, -0.409999996, -0.200000003
60119, -0.419999987, -0.200000003
60120, -0.430000007, -0.200000003
60121, -0.439999998, -0.200000003
60122, -0.449999988, -0.200000003
60123, -0.460000008, -0.200000003
60124, -0.469999999, -0.200000003
60125, -0.479999989, -0.200000003
60126, -0.49000001, -0.200000003
60127, -0.568874657, -0.272631437
60128, -0.646622956, -0.354620546
60129, -0.734388173, -0.447172999
60130, -0.833460927, -0.55164969
60131, -0.945297956, -0.669586897
60132, -1.07154381, -0.802718937
60133, -1.21405494, -0.953003407
60134, -1.37492692, -1.12265027
60135, -1.55652535, -1.31415403
60136, -1.7615205, -1.53033066
60137, -1.99292672, -1.77435911
60138, -2.25414681, -2.04982758
60139, -2.5490222, -2.36078691
60140, -2.88188839, -2.71180964
60141, -3.2576406, -3.1080575
60142, -3.68180394, -3.55535674
60143, -4.16061544, -4.06028557
60144, -4.70111609, -4.63026762
60145, -5.31125355, -5.27368546
60146, -5.88000011, -6
60147, -5.76000023, -6
60148, -5.63999987, -6
60149, -5.51999998, -6
60150, -5.4000001, -6
60151, -5.28000021, -6
60152, -5.15999985, -6
60153, -5.03999996, -6
60154, -4.92000008, -6
60155, -4.80000019, -6
60156, -4.67999983, -6
60157, -4.55999994, -6
60158, -4.44000006, -6
60159, -4.32000017, -6
60160, -4.19999981, -6
60161, -4.07999992, -6
60162, -3.96000004, -6
60163, -3.83999991, -6
60164, -3.72000003, -6
60165, -3.5999999, -6
60166, -3.48000002, -6
60167, -3.3599999, -6
60168, -3.24000001, -6
60169, -3.11999989, -6
60170, -3, -6
60171, -2.88000011, -6
60172, -2.75999999, -6
60173, -2.6400001, -6
60174, -2.51999998, -6
60175, -2.4000001, -6
60176, -2.27999997, -6
60177, -2.16000009, -6
60178, -2.03999996, -6
60179, -1.91999996, -6
60180, -1.79999995, -6
60181, -1.67999995, -6
60182, -1.55999994, -6
60183, -1.44000006, -6
60184, -1.32000005, -6
60185, -1.20000005, -6
60186, -1.08000004, -6
60187, -0.959999979, -6
60188, -0.839999974, -6
60189, -0.720000029, -6
60190, -0.600000024, -6
60191, -0.479999989, -6
60192, -0.360000014, -6
60193, -0.239999995, -6
60194, -0.119999997, -6
60195, 0, -6
60196, 0.119999997, -6
60197, 0.239999995, -6
60198, 0.360000014, -6
60199, 0.479999989, -6
60200, 0.600000024, -6
60201, 0.720000029, -6
60202, 0.839999974, -6
60203, 0.959999979, -6
60204, 1.08000004, -6
60205, 1.20000005, -6
60206, 1.32000005, -6
60207, 1.44000006, -6
60208, 1.55999994, -6
60209, 1.67999995, -6
60210, 1.79999995, -6
60211, 1.91999996, -6
60212, 2.03999996, -6
60213, 2.16000009, -6
60214, 2.27999997, -6
60215, 2.4000001, -6
60216, 2.51999998, -6
60217, 2.6400001, -6
60218, 2.75999999, -6
60219, 2.88000011, -6
60220, 3, -6
60221, 3.11999989, -6
60222, 3.24000001, -6
60223, 3.3599999, -6
60224, 3.48000002, -6
60225, 3.5999999, -6
60226, 3.72000003, -6
60227, 3.83999991, -6
60228, 3.96000004, -6
60229, 4.07999992, -6
60230, 4.19999981, -6
60231, 4.32000017, -6
60232, 4.44000006, -6
60233, 4.55999994, -6
60234, 4.67999983, -6
60235, 4.80000019, -6
60236, 4.92000008, -6
60237, 5.03999996, -6
60238, 5.15999985, -6
60239, 5.28000021, -6
60240, 5.4000001, -6
60241, 5.51999998, -6
60242, 5.63999987, -6
60243, 5.76000023, -6
60244, 5.88000011, -6
60245, -0.5, -0.189999998
60246, -0.5, -0.180000007
60247, -0.5, -0.170000002
60248, -0.5, -0.159999996
60249, -0.5, -0.150000006
60250, -0.5, -0.140000001
60251, -0.5, -0.129999995
60252, -0.5, -0.119999997
60253, -0.5, -0.109999999
60254, -0.5, -0.100000001
60255, -0.5, -0.0900000036
60256, -0.5, -0.0799999982
60257, -0.5, -0.0700000003
60258, -0.5, -0.0599999987
60259, -0.5, -0.0500000007
60260, -0.5, -0.0399999991
60261, -0.5, -0.0299999993
60262, -0.5, -0.0199999996
60263, -0.5, -0.00999999978
60264, -0.568874657, 0
60265, -0.646622956, 0
60266, -0.734388173, 0
60267, -0.833460927, 0
60268, -0.945297956, 0
60269, -1.07154381, 0
60270, -1.21405494, 0
60271, -1.37492692, 0
60272, -1.55652535, 0
60273, -1.7615205, 0
60274, -1.99292672, 0
60275, -2.25414681, 0
60276, -2.5490222, 0
60277, -2.88188839, 0
60278, -3.2576406, 0
60279, -3.68180394, 0
60280, -4.16061544, 0
60281, -4.70111609, 0
60282, -5.31125355, 0
60283, -6, -0.300000012
60284, -6, -0.600000024
60285, -6, -0.899999976
60286, -6, -1.20000005
60287, -6, -1.5
60288, -6, -1.79999995
60289, -6, -2.0999999
60290, -6, -2.4000001
60291, -6, -2.70000005
60292, -6, -3
60293, -6, -3.29999995
60294, -6, -3.5999999
60295, -6, -3.9000001
60296, -6, -4.19999981
60297, -6, -4.5
60298, -6, -4.80000019
60299, -6, -5.0999999
60300, -6, -5.4000001
60301, -6, -5.69999981
60302, 0.5, -0.00999999978
60303, 0.5, -0.0199999996
60304, 0.5, -0.0299999993
60305, 0.5, -0.0399999991
60306, 0.5, -0.0500000007
60307, 0.5, -0.0599999987
60308, 0.5, -0.0700000003
60309, 0.5, -0.0799999982
60310, 0.5, -0.0900000036
60311, 0.5, -0.100000001
60312, 0.5, -0.109999999
60313, 0.5, -0.119999997
60314, 0.5, -0.129999995
60315, 0.5, -0.140000001
60316, 0.5, -0.150000006
60317, 0.5, -0.159999996
60318, 0.5, -0.170000002
60319, 0.5, -0.180000007
60320, 0.5, -0.189999998
60321, 6, -5.69999981
60322, 6, -5.4000001
60323, 6, -5.0999999
60324, 6, -4.80000019
60325, 6, -4.5
60326, 6, -4.19999981
60327, 6, -3.9000001
60328, 6, -3.5999999
60329, 6, -3.29999995
60330, 6, -3
60331, 6, -2.70000005
60332, 6, -2.4000001
60333, 6, -2.0999999
60334, 6, -1.79999995
60335, 6, -1.5
60336, 6, -1.20000005
60337, 6, -0.899999976
60338, 6, -0.600000024
60339, 6, -0.300000012
60340, 5.31125355, 0
60341, 4.70111609, 0
60342, 4.16061544, 0
60343, 3.68180394, 0
60344, 3.2576406, 0
60345, 2.88188839, 0
60346, 2.5490222, 0
60347, 2.25414681, 0
60348, 1.99292672, 0
60349, 1.7615205, 0
60350, 1.55652535, 0
60351, 1.37492692, 0
60352, 1.21405494, 0
60353, 1.07154381, 0
60354, 0.945297956, 0
60355, 0.833460927, 0
60356, 0.734388173, 0
60357, 0.646622956, 0
60358, 0.568874657, 0
60359, 0.49000001, 0
60360, 0.479999989, 0
60361, 0.469999999, 0
60362, 0.460000008, 0
60363, 0.449999988, 0
60364, 0.439999998, 0
60365, 0.430000007, 0
60366, 0.419999987, 0
60367, 0.409999996, 0
60368, 0.400000006, 0
60369, 0.389999986, 0
60370, 0.379999995, 0
60371, 0.370000005, 0
60372, 0.360000014, 0
60373, 0.349999994, 0
60374, 0.340000004, 0
60375, 0.330000013, 0
60376, 0.319999993, 0
60377, 0.310000002, 0
60378, 0.300000012, 0
60379, 0.289999992, 0
60380, 0.280000001, 0
60381, 0.270000011, 0
60382, 0.25999999, 0
60383, 0.25, 0
60384, 0.239999995, 0
60385, 0.230000004, 0
60386, 0.219999999, 0
60387, 0.209999993, 0
60388, 0.200000003, 0
60389, 0.189999998, 0
60390, 0.180000007, 0
60391, 0.170000002, 0
60392, 0.159999996, 0
60393, 0.150000006, 0
60394, 0.140000001, 0
60395, 0.129999995, 0
60396, 0.119999997, 0
60397, 0.109999999, 0
60398, 0.100000001, 0
60399, 0.0900000036, 0
60400, 0.0799999982, 0
60401, 0.0700000003, 0
60402, 0.0599999987, 0
60403, 0.0500000007, 0
60404, 0.0399999991, 0
60405, 0.0299999993, 0
60406, 0.0199999996, 0
60407, 0.00999999978, 0
60408, 0, 0
60409, -0.00999999978, 0
60410, -0.0199999996, 0
60411, -0.0299999993, 0
60412, -0.0399999991, 0
60413, -0.0500000007, 0
60414, -0.0599999987, 0
60415, -0.0700000003, 0
60416, -0.0799999982, 0
60417, -0.0900000036, 0
60418, -0.100000001, 0
60419, -0.109999999, 0
60420, -0.119999997, 0
60421, -0.129999995, 0
60422, -0.140000001, 0
60423, -0.150000006, 0
60424, -0.159999996, 0
60425, -0.170000002, 0
60426, -0.180000007, 0
60427, -0.189999998, 0
60428, -0.200000003, 0
60429, -0.209999993, 0
60430, -0.219999999, 0
60431, -0.230000004, 0
60432, -0.239999995, 0
60433, -0.25, 0
60434, -0.25999999, 0
60435, -0.270000011, 0
60436, -0.280000001, 0
60437, -0.289999992, 0
60438, -0.300000012, 0
60439, -0.310000002, 0
60440, -0.319999993, 0
60441, -0.330000013, 0
60442, -0.340000004, 0
60443, -0.349999994, 0
60444, -0.360000014, 0
60445, -0.370000005, 0
60446, -0.379999995, 0
60447, -0.389999986, 0
60448, -0.400000006, 0
60449, -0.409999996, 0
60450, -0.419999987, 0
60451, -0.430000007, 0
60452, -0.439999998, 0
60453, -0.449999988, 0
60454, -0.460000008, 0
60455, -0.469999999, 0
60456, -0.479999989, 0
60457, -0.49000001, 0
60458, 5.20502853, -5.27368546
60459, 4.60709381, -4.63026762
60460, 4.07740307, -4.06028557
60461, 3.60816789, -3.55535674
60462, 3.19248772, -3.1080575
60463, 2.8242507, -2.71180964
60464, 2.49804163, -2.36078691
60465, 2.20906401, -2.04982758
60466, 1.95306826, -1.77435911
60467, 1.72629011, -1.53033066
60468, 1.5253948, -1.31415403
60469, 1.34742844, -1.12265027
60470, 1.18977392, -0.953003407
60471, 1.05011296, -0.802718937
60472, 0.926391959, -0.669586897
60473, 0.816791654, -0.55164969
60474, 0.719700396, -0.447172999
60475, 0.633690476, -0.354620546
60476, 0.557497144, -0.272631437
60477, 5.09880352, -5.27368546
60478, 4.51307154, -4.63026762
60479, 3.99419069, -4.06028557
60480, 3.53453159, -3.55535674
60481, 3.12733507, -3.1080575
60482, 2.76661301, -2.71180964
60483, 2.4470613, -2.36078691
60484, 2.16398096, -2.04982758
60485, 1.91320968, -1.77435911
60486, 1.69105959, -1.53033066
60487, 1.49426436, -1.31415403
60488, 1.31992984, -1.12265027
60489, 1.16549277, -0.953003407
60490, 1.02868211, -0.802718937
60491, 0.907486022, -0.669586897
60492, 0.80012244, -0.55164969
60493, 0.705012679, -0.447172999
60494, 0.620758057, -0.354620546
60495, 0.54611963, -0.272631437
60496, 4.99257851, -5.27368546
60497, 4.41904926, -4.63026762
60498, 3.91097856, -4.06028557
60499, 3.46089554, -3.55535674
60500, 3.06218219, -3.1080575
60501, 2.70897508, -2.71180964
60502, 2.39608073, -2.36078691
60503, 2.11889815, -2.04982758
60504, 1.8733511, -1.77435911
60505, 1.65582919, -1.53033066
60506, 1.46313381, -1.31415403
60507, 1.29243135, -1.12265027
60508, 1.14121163, -0.953003407
60509, 1.00725114, -0.802718937
60510, 0.888580084, -0.669586897
60511, 0.783453226, -0.55164969
60512, 0.690324903, -0.447172999
60513, 0.607825577, -0.354620546
60514, 0.534742177, -0.272631437
60515, 4.88635349, -5.27368546
60516, 4.32502651, -4.63026762
60517, 3.82776618, -4.06028557
60518, 3.38725948, -3.55535674
60519, 2.9970293, -3.1080575
60520, 2.65133739, -2.71180964
60521, 2.3451004, -2.36078691
60522, 2.07381511, -2.04982758
60523, 1.83349264, -1.77435911
60524, 1.62059879, -1.53033066
60525, 1.43200326, -1.31415403
60526, 1.26493275, -1.12265027
60527, 1.1169306, -0.953003407
60528, 0.985820293, -0.802718937
60529, 0.869674087, -0.669586897
60530, 0.766784012, -0.55164969
60531, 0.675637126, -0.447172999
60532, 0.594893098, -0.354620546
60533, 0.523364663, -0.272631437
60534, 4.780128, -5.27368546
60535, 4.23100424, -4.63026762
60536, 3.7445538, -4.06028557
60537, 3.31362343, -3.55535674
60538, 2.93187666, -3.1080575
60539, 2.59369969, -2.71180964
60540, 2.29411983, -2.36078691
60541, 2.0287323, -2.04982758
60542, 1.79363406, -1.77435911
60543, 1.58536839, -1.53033066
60544, 1.40087283, -1.31415403
60545, 1.23743427, -1.12265027
60546, 1.09264946, -0.953003407
60547, 0.964389443, -0.802718937
60548, 0.850768149, -0.669586897
60549, 0.750114799, -0.55164969
60550, 0.660949349, -0.447172999
60551, 0.581960678, -0.354620546
60552, 0.51198715, -0.272631437
60553, 4.67390299, -5.27368546
60554, 4.13698196, -4.63026762
60555, 3.66134167, -4.06028557
60556, 3.23998737, -3.55535674
60557, 2.86672378, -3.1080575
60558, 2.53606176, -2.71180964
60559, 2.24313951, -2.36078691
60560, 1.98364925, -2.04982758
60561, 1.75377548, -1.77435911
60562, 1.550138, -1.53033066
60563, 1.36974227, -1.31415403
60564, 1.20993567, -1.12265027
60565, 1.06836832, -0.953003407
60566, 0.942958593, -0.802718937
60567, 0.831862211, -0.669586897
60568, 0.733445585, -0.55164969
60569, 0.646261573, -0.447172999
60570, 0.569028199, -0.354620546
60571, 0.500609696, -0.272631437
60572, 4.56767797, -5.27368546
60573, 4.04295969, -4.63026762
60574, 3.57812929, -4.06028557
60575, 3.16635132, -3.55535674
60576, 2.80157089, -3.1080575
60577, 2.47842407, -2.71180964
60578, 2.19215894, -2.36078691
60579, 1.93856633, -2.04982758
60580, 1.71391702, -1.77435911
60581, 1.5149076, -1.53033066
60582, 1.33861184, -1.31415403
60583, 1.18243718, -1.12265027
60584, 1.04408729, -0.953003407
60585, 0.921527684, -0.802718937
60586, 0.812956214, -0.669586897
60587, 0.716776371, -0.55164969
60588, 0.631573856, -0.447172999
60589, 0.556095719, -0.354620546
60590, 0.489232183, -0.272631437
60591, 4.46145296, -5.27368546
60592, 3.94893742, -4.63026762
60593, 3.49491692, -4.06028557
60594, 3.09271526, -3.55535674
60595, 2.73641801, -3.1080575
60596, 2.42078638, -2.71180964
60597, 2.14117861, -2.36078691
60598, 1.8934834, -2.04982758
60599, 1.67405844, -1.77435911
60600, 1.4796772, -1.53033066
60601, 1.30748129, -1.31415403
60602, 1.15493858, -1.12265027
60603, 1.01980615, -0.953003407
60604, 0.900096834, -0.802718937
60605, 0.794050276, -0.669586897
60606, 0.700107157, -0.55164969
60607, 0.616886079, -0.447172999
60608, 0.5431633, -0.354620546
60609, 0.477854699, -0.272631437
60610, 4.35522795, -5.27368546
60611, 3.85491514, -4.63026762
60612, 3.41170454, -4.06028557
60613, 3.01907921, -3.55535674
60614, 2.67126536, -3.1080575
60615, 2.36314845, -2.71180964
60616, 2.09019828, -2.36078691
60617, 1.84840047, -2.04982758
60618, 1.63419998, -1.77435911
60619, 1.4444468, -1.53033066
60620, 1.27635074, -1.31415403
60621, 1.12744009, -1.12265027
60622, 0.995525062, -0.953003407
60623, 0.878665924, -0.802718937
60624, 0.775144279, -0.669586897
60625, 0.683437943, -0.55164969
60626, 0.602198303, -0.447172999
60627, 0.53023082, -0.354620546
60628, 0.466477215, -0.272631437
60629, 4.24900293, -5.27368546
60630, 3.76089287, -4.63026762
60631, 3.3284924, -4.06028557
60632, 2.94544315, -3.55535674
60633, 2.60611248, -3.1080575
60634, 2.30551076, -2.71180964
60635, 2.03921771, -2.36078691
60636, 1.80331755, -2.04982758
60637, 1.5943414, -1.77435911
60638, 1.4092164, -1.53033066
60639, 1.2452203, -1.31415403
60640, 1.09994161, -1.12265027
60641, 0.971243978, -0.953003407
60642, 0.857235074, -0.802718937
60643, 0.756238341, -0.669586897
60644, 0.66676873, -0.55164969
60645, 0.587510526, -0.447172999
60646, 0.517298341, -0.354620546
60647, 0.455099702, -0.272631437
60648, 4.14277792, -5.27368546
60649, 3.66687059, -4.63026762
60650, 3.24528003, -4.06028557
60651, 2.8718071, -3.55535674
60652, 2.5409596, -3.1080575
60653, 2.24787307, -2.71180964
60654, 1.98823726, -2.36078691
60655, 1.75823462, -2.04982758
60656, 1.55448282, -1.77435911
60657, 1.37398601, -1.53033066
60658, 1.21408975, -1.31415403
60659, 1.07244301, -1.12265027
60660, 0.946962893, -0.953003407
60661, 0.835804164, -0.802718937
60662, 0.737332404, -0.669586897
60663, 0.650099516, -0.55164969
60664, 0.57282275, -0.447172999
60665, 0.504365921, -0.354620546
60666, 0.443722218, -0.272631437
60667, 4.03655291, -5.27368546
60668, 3.57284808, -4.63026762
60669, 3.16206765, -4.06028557
60670, 2.79817104, -3.55535674
60671, 2.47580695, -3.1080575
60672, 2.19023514, -2.71180964
60673, 1.93725681, -2.36078691
60674, 1.71315169, -2.04982758
60675, 1.51462436, -1.77435911
60676, 1.33875561, -1.53033066
60677, 1.1829592, -1.31415403
60678, 1.04494452, -1.12265027
60679, 0.922681749, -0.953003407
60680, 0.814373314, -0.802718937
60681, 0.718426406, -0.669586897
60682, 0.633430302, -0.55164969
60683, 0.558135033, -0.447172999
60684, 0.491433442, -0.354620546
60685, 0.432344735, -0.272631437
60686, 3.93032765, -5.27368546
60687, 3.47882581, -4.63026762
60688, 3.07885551, -4.06028557
60689, 2.72453475, -3.55535674
60690, 2.41065407, -3.1080575
60691, 2.13259745, -2.71180964
60692, 1.88627636, -2.36078691
60693, 1.66806877, -2.04982758
60694, 1.47476578, -1.77435911
60695, 1.30352509, -1.53033066
60696, 1.15182877, -1.31415403
60697, 1.01744592, -1.12265027
60698, 0.898400664, -0.953003407
60699, 0.792942405, -0.802718937
60700, 0.699520469, -0.669586897
60701, 0.616761088, -0.55164969
60702, 0.543447256, -0.447172999
60703, 0.478500992, -0.354620546
60704, 0.420967221, -0.272631437
60705, 3.82410264, -5.27368546
60706, 3.38480353, -4.63026762
60707, 2.99564314, -4.06028557
60708, 2.65089869, -3.55535674
60709, 2.34550118, -3.1080575
60710, 2.07495975, -2.71180964
60711, 1.83529592, -2.36078691
60712, 1.62298584, -2.04982758
60713, 1.4349072, -1.77435911
60714, 1.26829469, -1.53033066
60715, 1.12069821, -1.31415403
60716, 0.989947379, -1.12265027
60717, 0.87411958, -0.953003407
60718, 0.771511555, -0.802718937
60719, 0.680614531, -0.669586897
60720, 0.600091875, -0.55164969
60721, 0.52875948, -0.447172999
60722, 0.465568513, -0.354620546
60723, 0.409589738, -0.272631437
60724, 3.71787763, -5.27368546
60725, 3.29078126, -4.63026762
60726, 2.91243076, -4.06028557
60727, 2.57726264, -3.55535674
60728, 2.28034854, -3.1080575
60729, 2.01732183, -2.71180964
60730, 1.78431547, -2.36078691
60731, 1.57790279, -2.04982758
60732, 1.39504874, -1.77435911
60733, 1.23306429, -1.53033066
60734, 1.08956778, -1.31415403
60735, 0.962448835, -1.12265027
60736, 0.849838495, -0.953003407
60737, 0.750080705, -0.802718937
60738, 0.661708534, -0.669586897
60739, 0.583422601, -0.55164969
60740, 0.514071703, -0.447172999
60741, 0.452636063, -0.354620546
60742, 0.398212254, -0.272631437
60743, 3.61165237, -5.27368546
60744, 3.19675899, -4.63026762
60745, 2.82921839, -4.06028557
60746, 2.50362659, -3.55535674
60747, 2.21519566, -3.1080575
60748, 1.95968413, -2.71180964
60749, 1.73333502, -2.36078691
60750, 1.53281987, -2.04982758
60751, 1.35519016, -1.77435911
60752, 1.1978339, -1.53033066
60753, 1.05843723, -1.31415403
60754, 0.934950352, -1.12265027
60755, 0.825557351, -0.953003407
60756, 0.728649795, -0.802718937
60757, 0.642802596, -0.669586897
60758, 0.566753387, -0.55164969
60759, 0.499383956, -0.447172999
60760, 0.439703614, -0.354620546
60761, 0.38683477, -0.272631437
60762, 3.50542736, -5.27368546
60763, 3.10273647, -4.63026762
60764, 2.74600625, -4.06028557
60765, 2.42999053, -3.55535674
60766, 2.15004277, -3.1080575
60767, 1.90204644, -2.71180964
60768, 1.68235457, -2.36078691
60769, 1.48773694, -2.04982758
60770, 1.3153317, -1.77435911
60771, 1.1626035, -1.53033066
60772, 1.02730668, -1.31415403
60773, 0.907451808, -1.12265027
60774, 0.801276267, -0.953003407
60775, 0.707218945, -0.802718937
60776, 0.623896658, -0.669586897
60777, 0.550084174, -0.55164969
60778, 0.484696209, -0.447172999
60779, 0.426771134, -0.354620546
60780, 0.375457257, -0.272631437
60781, 3.39920235, -5.27368546
60782, 3.0087142, -4.63026762
60783, 2.66279387, -4.06028557
60784, 2.35635448, -3.55535674
60785, 2.08488989, -3.1080575
60786, 1.84440863, -2.71180964
60787, 1.63137412, -2.36078691
60788, 1.44265401, -2.04982758
60789, 1.27547312, -1.77435911
60790, 1.1273731, -1.53033066
60791, 0.996176183, -1.31415403
60792, 0.879953265, -1.12265027
60793, 0.776995182, -0.953003407
60794, 0.685788035, -0.802718937
60795, 0.604990661, -0.669586897
60796, 0.53341496, -0.55164969
60797, 0.470008433, -0.447172999
60798, 0.413838685, -0.354620546
60799, 0.364079773, -0.272631437
60800, 3.29297733, -5.27368546
60801, 2.91469193, -4.63026762
60802, 2.5795815, -4.06028557
60803, 2.28271842, -3.55535674
60804, 2.01973724, -3.1080575
60805, 1.78677082, -2.71180964
60806, 1.58039379, -2.36078691
60807, 1.39757109, -2.04982758
60808, 1.23561454, -1.77435911
60809, 1.0921427, -1.53033066
60810, 0.965045691, -1.31415403
60811, 0.852454722, -1.12265027
60812, 0.752714097, -0.953003407
60813, 0.664357185, -0.802718937
60814, 0.586084723, -0.669586897
60815, 0.516745746, -0.55164969
60816, 0.455320656, -0.447172999
60817, 0.400906235, -0.354620546
60818, 0.35270229, -0.272631437
60819, 3.18675208, -5.27368546
60820, 2.82066965, -4.63026762
60821, 2.49636936, -4.06028557
60822, 2.20908237, -3.55535674
60823, 1.95458436, -3.1080575
60824, 1.72913313, -2.71180964
60825, 1.52941334, -2.36078691
60826, 1.35248816, -2.04982758
60827, 1.19575608, -1.77435911
60828, 1.0569123, -1.53033066
60829, 0.933915198, -1.31415403
60830, 0.824956179, -1.12265027
60831, 0.728432953, -0.953003407
60832, 0.642926276, -0.802718937
60833, 0.567178786, -0.669586897
60834, 0.500076532, -0.55164969
60835, 0.44063291, -0.447172999
60836, 0.387973756, -0.354620546
60837, 0.341324776, -0.272631437
60838, 3.08052707, -5.27368546
60839, 2.72664738, -4.63026762
60840, 2.41315699, -4.06028557
60841, 2.13544631, -3.55535674
60842, 1.8894316, -3.1080575
60843, 1.67149532, -2.71180964
60844, 1.47843289, -2.36078691
60845, 1.30740523, -2.04982758
60846, 1.1558975, -1.77435911
60847, 1.0216819, -1.53033066
60848, 0.902784705, -1.31415403
60849, 0.797457635, -1.12265027
60850, 0.704151869, -0.953003407
60851, 0.621495426, -0.802718937
60852, 0.548272789, -0.669586897
60853, 0.483407319, -0.55164969
60854, 0.425945133, -0.447172999
60855, 0.375041306, -0.354620546
60856, 0.329947293, -0.272631437
60857, 2.97430205, -5.27368546
60858, 2.63262486, -4.63026762
60859, 2.32994461, -4.06028557
60860, 2.06181026, -3.55535674
60861, 1.82427871, -3.1080575
60862, 1.61385751, -2.71180964
60863, 1.42745245, -2.36078691
60864, 1.26232231, -2.04982758
60865, 1.11603892, -1.77435911
60866, 0.986451447, -1.53033066
60867, 0.871654212, -1.31415403
60868, 0.769959092, -1.12265027
60869, 0.679870784, -0.953003407
60870, 0.600064516, -0.802718937
60871, 0.529366851, -0.669586897
60872, 0.466738105, -0.55164969
60873, 0.411257386, -0.447172999
60874, 0.362108856, -0.354620546
60875, 0.318569809, -0.272631437
60876, 2.86807704, -5.27368546
60877, 2.53860259, -4.63026762
60878, 2.24673223, -4.06028557
60879, 1.98817408, -3.55535674
60880, 1.75912595, -3.1080575
60881, 1.55621982, -2.71180964
60882, 1.376472, -2.36078691
60883, 1.21723938, -2.04982758
60884, 1.07618046, -1.77435911
60885, 0.951221049, -1.53033066
60886, 0.84052366, -1.31415403
60887, 0.742460549, -1.12265027
60888, 0.6555897, -0.953003407
60889, 0.578633666, -0.802718937
60890, 0.510460913, -0.669586897
60891, 0.450068891, -0.55164969
60892, 0.39656961, -0.447172999
60893, 0.349176377, -0.354620546
60894, 0.307192296, -0.272631437
60895, 2.76185179, -5.27368546
60896, 2.44458032, -4.63026762
60897, 2.1635201, -4.06028557
60898, 1.91453803, -3.55535674
60899, 1.69397306, -3.1080575
60900, 1.49858201, -2.71180964
60901, 1.32549155, -2.36078691
60902, 1.17215645, -2.04982758
60903, 1.03632188, -1.77435911
60904, 0.915990651, -1.53033066
60905, 0.809393167, -1.31415403
60906, 0.714962006, -1.12265027
60907, 0.631308556, -0.953003407
60908, 0.557202816, -0.802718937
60909, 0.491554916, -0.669586897
60910, 0.433399677, -0.55164969
60911, 0.381881863, -0.447172999
60912, 0.336243927, -0.354620546
60913, 0.295814812, -0.272631437
60914, 2.65562677, -5.27368546
60915, 2.35055804, -4.63026762
60916, 2.08030772, -4.06028557
60917, 1.84090197, -3.55535674
60918, 1.6288203, -3.1080575
60919, 1.44094419, -2.71180964
60920, 1.2745111, -2.36078691
60921, 1.12707341, -2.04982758
60922, 0.996463358, -1.77435911
60923, 0.880760252, -1.53033066
60924, 0.778262675, -1.31415403
60925, 0.687463462, -1.12265027
60926, 0.607027471, -0.953003407
60927, 0.535771906, -0.802718937
60928, 0.472648978, -0.669586897
60929, 0.416730464, -0.55164969
60930, 0.367194086, -0.447172999
60931, 0.323311478, -0.354620546
60932, 0.284437329, -0.272631437
60933, 2.54940176, -5.27368546
60934, 2.25653577, -4.63026762
60935, 1.99709535, -4.06028557
60936, 1.7672658, -3.55535674
60937, 1.56366754, -3.1080575
60938, 1.3833065, -2.71180964
60939, 1.22353065, -2.36078691
60940, 1.08199048, -2.04982758
60941, 0.956604838, -1.77435911
60942, 0.845529795, -1.53033066
60943, 0.747132182, -1.31415403
60944, 0.659964919, -1.12265027
60945, 0.582746387, -0.953003407
60946, 0.514341056, -0.802718937
60947, 0.453743011, -0.669586897
60948, 0.40006122, -0.55164969
60949, 0.35250634, -0.447172999
60950, 0.310379028, -0.354620546
60951, 0.273059815, -0.272631437
60952, 2.44317675, -5.27368546
60953, 2.16251326, -4.63026762
60954, 1.91388309, -4.06028557
60955, 1.69362974, -3.55535674
60956, 1.49851465, -3.1080575
60957, 1.32566869, -2.71180964
60958, 1.1725502, -2.36078691
60959, 1.03690755, -2.04982758
60960, 0.916746318, -1.77435911
60961, 0.810299397, -1.53033066
60962, 0.71600163, -1.31415403
60963, 0.632466376, -1.12265027
60964, 0.558465302, -0.953003407
60965, 0.492910147, -0.802718937
60966, 0.434837043, -0.669586897
60967, 0.383392006, -0.55164969
60968, 0.337818563, -0.447172999
60969, 0.297446549, -0.354620546
60970, 0.261682332, -0.272631437
60971, 2.33695149, -5.27368546
60972, 2.06849098, -4.63026762
60973, 1.83067083, -4.06028557
60974, 1.61999369, -3.55535674
60975, 1.43336189, -3.1080575
60976, 1.26803088, -2.71180964
60977, 1.12156975, -2.36078691
60978, 0.991824627, -2.04982758
60979, 0.876887739, -1.77435911
60980, 0.775068998, -1.53033066
60981, 0.684871137, -1.31415403
60982, 0.604967833, -1.12265027
60983, 0.534184158, -0.953003407
60984, 0.471479297, -0.802718937
60985, 0.415931106, -0.669586897
60986, 0.366722792, -0.55164969
60987, 0.323130786, -0.447172999
60988, 0.284514099, -0.354620546
60989, 0.250304848, -0.272631437
60990, 2.23072648, -5.27368546
60991, 1.97446871, -4.63026762
60992, 1.74745846, -4.06028557
60993, 1.54635763, -3.55535674
60994, 1.368209, -3.1080575
60995, 1.21039319, -2.71180964
60996, 1.0705893, -2.36078691
60997, 0.9467417, -2.04982758
60998, 0.837029219, -1.77435911
60999, 0.7398386, -1.53033066
61000, 0.653740644, -1.31415403
61001, 0.577469289, -1.12265027
61002, 0.509903073, -0.953003407
61003, 0.450048417, -0.802718937
61004, 0.397025138, -0.669586897
61005, 0.350053579, -0.55164969
61006, 0.30844304, -0.447172999
61007, 0.27158165, -0.354620546
61008, 0.238927349, -0.272631437
61009, 2.12450147, -5.27368546
61010, 1.88044643, -4.63026762
61011, 1.6642462, -4.06028557
61012, 1.47272158, -3.55535674
61013, 1.30305624, -3.1080575
61014, 1.15275538, -2.71180964
61015, 1.01960886, -2.36078691
61016, 0.901658773, -2.04982758
61017, 0.797170699, -1.77435911
61018, 0.704608202, -1.53033066
61019, 0.622610152, -1.31415403
61020, 0.549970806, -1.12265027
61021, 0.485621989, -0.953003407
61022, 0.428617537, -0.802718937
61023, 0.378119171, -0.669586897
61024, 0.333384365, -0.55164969
61025, 0.293755263, -0.447172999
61026, 0.25864917, -0.354620546
61027, 0.227549851, -0.272631437
61028, 2.01827645, -5.27368546
61029, 1.78642404, -4.63026762
61030, 1.58103383, -4.06028557
61031, 1.39908552, -3.55535674
61032, 1.23790348, -3.1080575
61033, 1.09511757, -2.71180964
61034, 0.968628407, -2.36078691
61035, 0.856575847, -2.04982758
61036, 0.757312179, -1.77435911
61037, 0.669377804, -1.53033066
61038, 0.591479599, -1.31415403
61039, 0.522472262, -1.12265027
61040, 0.461340874, -0.953003407
61041, 0.407186657, -0.802718937
61042, 0.359213203, -0.669586897
61043, 0.316715151, -0.55164969
61044, 0.279067516, -0.447172999
61045, 0.245716721, -0.354620546
61046, 0.216172367, -0.272631437
61047, 1.91205132, -5.27368546
61048, 1.69240177, -4.63026762
61049, 1.49782157, -4.06028557
61050, 1.32544935, -3.55535674
61051, 1.17275059, -3.1080575
61052, 1.03747988, -2.71180964
61053, 0.917647958, -2.36078691
61054, 0.81149292, -2.04982758
61055, 0.717453599, -1.77435911
61056, 0.634147346, -1.53033066
61057, 0.560349107, -1.31415403
61058, 0.494973689, -1.12265027
61059, 0.43705979, -0.953003407
61060, 0.385755777, -0.802718937
61061, 0.340307266, -0.669586897
61062, 0.300045937, -0.55164969
61063, 0.26437974, -0.447172999
61064, 0.232784256, -0.354620546
61065, 0.204794869, -0.272631437
61066, 1.80582619, -5.27368546
61067, 1.59837949, -4.63026762
61068, 1.41460919, -4.06028557
61069, 1.25181329, -3.55535674
61070, 1.10759783, -3.1080575
61071, 0.979842067, -2.71180964
61072, 0.866667509, -2.36078691
61073, 0.766409934, -2.04982758
61074, 0.677595079, -1.77435911
61075, 0.598916948, -1.53033066
61076, 0.529218614, -1.31415403
61077, 0.467475176, -1.12265027
61078, 0.412778676, -0.953003407
61079, 0.364324898, -0.802718937
61080, 0.321401298, -0.669586897
61081, 0.283376694, -0.55164969
61082, 0.249691978, -0.447172999
61083, 0.219851807, -0.354620546
61084, 0.193417385, -0.272631437
61085, 1.69960117, -5.27368546
61086, 1.5043571, -4.63026762
61087, 1.33139694, -4.06028557
61088, 1.17817724, -3.55535674
61089, 1.04244494, -3.1080575
61090, 0.922204316, -2.71180964
61091, 0.81568706, -2.36078691
61092, 0.721327007, -2.04982758
61093, 0.637736559, -1.77435911
61094, 0.56368655, -1.53033066
61095, 0.498088092, -1.31415403
61096, 0.439976633, -1.12265027
61097, 0.388497591, -0.953003407
61098, 0.342894018, -0.802718937
61099, 0.302495331, -0.669586897
61100, 0.26670748, -0.55164969
61101, 0.235004216, -0.447172999
61102, 0.206919342, -0.354620546
61103, 0.182039887, -0.272631437
61104, 1.59337604, -5.27368546
61105, 1.41033483, -4.63026762
61106, 1.24818468, -4.06028557
61107, 1.10454118, -3.55535674
61108, 0.97729218, -3.1080575
61109, 0.864566565, -2.71180964
61110, 0.764706671, -2.36078691
61111, 0.67624408, -2.04982758
61112, 0.597878039, -1.77435911
61113, 0.528456151, -1.53033066
61114, 0.466957599, -1.31415403
61115, 0.412478089, -1.12265027
61116, 0.364216477, -0.953003407
61117, 0.321463138, -0.802718937
61118, 0.283589393, -0.669586897
61119, 0.250038266, -0.55164969
61120, 0.220316455, -0.447172999
61121, 0.193986878, -0.354620546
61122, 0.170662388, -0.272631437
61123, 1.48715103, -5.27368546
61124, 1.31631243, -4.63026762
61125, 1.16497231, -4.06028557
61126, 1.03090513, -3.55535674
61127, 0.912139356, -3.1080575
61128, 0.806928754, -2.71180964
61129, 0.713726223, -2.36078691
61130, 0.631161153, -2.04982758
61131, 0.558019459, -1.77435911
61132, 0.493225724, -1.53033066
61133, 0.435827106, -1.31415403
61134, 0.384979546, -1.12265027
61135, 0.339935392, -0.953003407
61136, 0.300032258, -0.802718937
61137, 0.264683425, -0.669586897
61138, 0.233369052, -0.55164969
61139, 0.205628693, -0.447172999
61140, 0.181054428, -0.354620546
61141, 0.159284905, -0.272631437
61142, 1.38092589, -5.27368546
61143, 1.22229016, -4.63026762
61144, 1.08176005, -4.06028557
61145, 0.957269013, -3.55535674
61146, 0.846986532, -3.1080575
61147, 0.749291003, -2.71180964
61148, 0.662745774, -2.36078691
61149, 0.586078227, -2.04982758
61150, 0.518160939, -1.77435911
61151, 0.457995325, -1.53033066
61152, 0.404696584, -1.31415403
61153, 0.357481003, -1.12265027
61154, 0.315654278, -0.953003407
61155, 0.278601408, -0.802718937
61156, 0.245777458, -0.669586897
61157, 0.216699839, -0.55164969
61158, 0.190940931, -0.447172999
61159, 0.168121964, -0.354620546
61160, 0.147907406, -0.272631437
61161, 1.27470088, -5.27368546
61162, 1.12826788, -4.63026762
61163, 0.998547673, -4.06028557
61164, 0.883632898, -3.55535674
61165, 0.781833768, -3.1080575
61166, 0.691653252, -2.71180964
61167, 0.611765325, -2.36078691
61168, 0.54099524, -2.04982758
61169, 0.478302419, -1.77435911
61170, 0.422764897, -1.53033066
61171, 0.373566091, -1.31415403
61172, 0.32998246, -1.12265027
61173, 0.291373193, -0.953003407
61174, 0.257170528, -0.802718937
61175, 0.226871505, -0.669586897
61176, 0.20003061, -0.55164969
61177, 0.17625317, -0.447172999
61178, 0.155189514, -0.354620546
61179, 0.136529908, -0.272631437
61180, 1.16847575, -5.27368546
61181, 1.03424549, -4.63026762
61182, 0.915335417, -4.06028557
61183, 0.809996843, -3.55535674
61184, 0.716680944, -3.1080575
61185, 0.634015441, -2.71180964
61186, 0.560784876, -2.36078691
61187, 0.495912313, -2.04982758
61188, 0.438443869, -1.77435911
61189, 0.387534499, -1.53033066
61190, 0.342435569, -1.31415403
61191, 0.302483916, -1.12265027
61192, 0.267092079, -0.953003407
61193, 0.235739648, -0.802718937
61194, 0.207965553, -0.669586897
61195, 0.183361396, -0.55164969
61196, 0.161565393, -0.447172999
61197, 0.14225705, -0.354620546
61198, 0.125152424, -0.272631437
61199, 1.06225073, -5.27368546
61200, 0.940223217, -4.63026762
61201, 0.832123101, -4.06028557
61202, 0.736360788, -3.55535674
61203, 0.65152812, -3.1080575
61204, 0.57637769, -2.71180964
61205, 0.509804428, -2.36078691
61206, 0.450829387, -2.04982758
61207, 0.398585349, -1.77435911
61208, 0.352304101, -1.53033066
61209, 0.311305076, -1.31415403
61210, 0.274985403, -1.12265027
61211, 0.242810994, -0.953003407
61212, 0.214308769, -0.802718937
61213, 0.189059585, -0.669586897
61214, 0.166692182, -0.55164969
61215, 0.146877632, -0.447172999
61216, 0.129324585, -0.354620546
61217, 0.113774925, -0.272631437
61218, 0.95602566, -5.27368546
61219, 0.846200883, -4.63026762
61220, 0.748910785, -4.06028557
61221, 0.662724674, -3.55535674
61222, 0.586375296, -3.1080575
61223, 0.518739939, -2.71180964
61224, 0.458823979, -2.36078691
61225, 0.40574646, -2.04982758
61226, 0.358726799, -1.77435911
61227, 0.317073673, -1.53033066
61228, 0.280174553, -1.31415403
61229, 0.247486845, -1.12265027
61230, 0.218529895, -0.953003407
61231, 0.192877889, -0.802718937
61232, 0.170153633, -0.669586897
61233, 0.150022969, -0.55164969
61234, 0.13218987, -0.447172999
61235, 0.116392128, -0.354620546
61236, 0.102397434, -0.272631437
61237, 0.849800587, -5.27368546
61238, 0.75217855, -4.63026762
61239, 0.665698469, -4.06028557
61240, 0.589088619, -3.55535674
61241, 0.521222472, -3.1080575
61242, 0.461102158, -2.71180964
61243, 0.40784353, -2.36078691
61244, 0.360663503, -2.04982758
61245, 0.318868279, -1.77435911
61246, 0.281843275, -1.53033066
61247, 0.249044046, -1.31415403
61248, 0.219988316, -1.12265027
61249, 0.194248796, -0.953003407
61250, 0.171447009, -0.802718937
61251, 0.151247665, -0.669586897
61252, 0.13335374, -0.55164969
61253, 0.117502108, -0.447172999
61254, 0.103459671, -0.354620546
61255, 0.0910199434, -0.272631437
61256, 0.743575513, -5.27368546
61257, 0.658156216, -4.63026762
61258, 0.582486153, -4.06028557
61259, 0.515452564, -3.55535674
61260, 0.456069678, -3.1080575
61261, 0.403464377, -2.71180964
61262, 0.356863111, -2.36078691
61263, 0.315580577, -2.04982758
61264, 0.27900973, -1.77435911
61265, 0.246612862, -1.53033066
61266, 0.217913553, -1.31415403
61267, 0.192489773, -1.12265027
61268, 0.169967696, -0.953003407
61269, 0.150016129, -0.802718937
61270, 0.132341713, -0.669586897
61271, 0.116684526, -0.55164969
61272, 0.102814347, -0.447172999
61273, 0.0905272141, -0.354620546
61274, 0.0796424523, -0.272631437
61275, 0.63735044, -5.27368546
61276, 0.564133942, -4.63026762
61277, 0.499273837, -4.06028557
61278, 0.441816449, -3.55535674
61279, 0.390916884, -3.1080575
61280, 0.345826626, -2.71180964
61281, 0.305882663, -2.36078691
61282, 0.27049762, -2.04982758
61283, 0.23915121, -1.77435911
61284, 0.211382449, -1.53033066
61285, 0.186783046, -1.31415403
61286, 0.16499123, -1.12265027
61287, 0.145686597, -0.953003407
61288, 0.128585264, -0.802718937
61289, 0.113435753, -0.669586897
61290, 0.100015305, -0.55164969
61291, 0.0881265849, -0.447172999
61292, 0.0775947571, -0.354620546
61293, 0.0682649538, -0.272631437
61294, 0.531125367, -5.27368546
61295, 0.470111609, -4.63026762
61296, 0.41606155, -4.06028557
61297, 0.368180394, -3.55535674
61298, 0.32576406, -3.1080575
61299, 0.288188845, -2.71180964
61300, 0.254902214, -2.36078691
61301, 0.225414693, -2.04982758
61302, 0.199292675, -1.77435911
61303, 0.17615205, -1.53033066
61304, 0.155652538, -1.31415403
61305, 0.137492701, -1.12265027
61306, 0.121405497, -0.953003407
61307, 0.107154384, -0.802718937
61308, 0.0945297927, -0.669586897
61309, 0.0833460912, -0.55164969
61310, 0.0734388158, -0.447172999
61311, 0.0646622926, -0.354620546
61312, 0.0568874627, -0.272631437
61313, 0.424900293, -5.27368546
61314, 0.376089275, -4.63026762
61315, 0.332849234, -4.06028557
61316, 0.294544309, -3.55535674
61317, 0.260611236, -3.1080575
61318, 0.230551079, -2.71180964
61319, 0.203921765, -2.36078691
61320, 0.180331752, -2.04982758
61321, 0.15943414, -1.77435911
61322, 0.140921637, -1.53033066
61323, 0.124522023, -1.31415403
61324, 0.109994158, -1.12265027
61325, 0.0971243978, -0.953003407
61326, 0.0857235044, -0.802718937
61327, 0.0756238326, -0.669586897
61328, 0.06667687, -0.55164969
61329, 0.0587510541, -0.447172999
61330, 0.0517298356, -0.354620546
61331, 0.0455099717, -0.272631437
61332, 0.31867522, -5.27368546
61333, 0.282066971, -4.63026762
61334, 0.249636918, -4.06028557
61335, 0.220908225, -3.55535674
61336, 0.195458442, -3.1080575
61337, 0.172913313, -2.71180964
61338, 0.152941331, -2.36078691
61339, 0.13524881, -2.04982758
61340, 0.119575605, -1.77435911
61341, 0.105691224, -1.53033066
61342, 0.0933915228, -1.31415403
61343, 0.0824956149, -1.12265027
61344, 0.0728432983, -0.953003407
61345, 0.064292632, -0.802718937
61346, 0.0567178763, -0.669586897
61347, 0.0500076525, -0.55164969
61348, 0.0440632924, -0.447172999
61349, 0.0387973785, -0.354620546
61350, 0.0341324769, -0.272631437
61351, 0.212450147, -5.27368546
61352, 0.188044637, -4.63026762
61353, 0.166424617, -4.06028557
61354, 0.147272155, -3.55535674
61355, 0.130305618, -3.1080575
61356, 0.115275539, -2.71180964
61357, 0.101960883, -2.36078691
61358, 0.0901658759, -2.04982758
61359, 0.0797170699, -1.77435911
61360, 0.0704608187, -1.53033066
61361, 0.0622610115, -1.31415403
61362, 0.0549970791, -1.12265027
61363, 0.0485621989, -0.953003407
61364, 0.0428617522, -0.802718937
61365, 0.0378119163, -0.669586897
61366, 0.033338435, -0.55164969
61367, 0.0293755271, -0.447172999
61368, 0.0258649178, -0.354620546
61369, 0.0227549858, -0.272631437
61370, 0.106225073, -5.27368546
61371, 0.0940223187, -4.63026762
61372, 0.0832123086, -4.06028557
61373, 0.0736360773, -3.55535674
61374, 0.065152809, -3.1080575
61375, 0.0576377697, -2.71180964
61376, 0.0509804413, -2.36078691
61377, 0.0450829379, -2.04982758
61378, 0.0398585349, -1.77435911
61379, 0.0352304094, -1.53033066
61380, 0.0311305057, -1.31415403
61381, 0.0274985395, -1.12265027
61382, 0.0242810994, -0.953003407
61383, 0.0214308761, -0.802718937
61384, 0.0189059582, -0.669586897
61385, 0.0166692175, -0.55164969
61386, 0.0146877635, -0.447172999
61387, 0.0129324589, -0.354620546
61388, 0.0113774929, -0.272631437
61389, 0, -5.27368546
61390, 0, -4.63026762
61391, 0, -4.06028557
61392, 0, -3.55535674
61393, 0, -3.1080575
61394, 0, -2.71180964
61395, 0, -2.36078691
61396, 0, -2.04982758
61397, 0, -1.77435911
61398, 0, -1.53033066
61399, 0, -1.31415403
61400, 0, -1.12265027
61401, 0, -0.953003407
61402, 0, -0.802718937
61403, 0, -0.669586897
61404, 0, -0.55164969
61405, 0, -0.447172999
61406, 0, -0.354620546
61407, 0, -0.272631437
61408, -0.106225073, -5.27368546
61409, -0.0940223187, -4.63026762
61410, -0.0832123086, -4.06028557
61411, -0.0736360773, -3.55535674
61412, -0.065152809, -3.1080575
61413, -0.0576377697, -2.71180964
61414, -0.0509804413, -2.36078691
61415, -0.0450829379, -2.04982758
61416, -0.0398585349, -1.77435911
61417, -0.0352304094, -1.53033066
61418, -0.0311305057, -1.31415403
61419, -0.0274985395, -1.12265027
61420, -0.0242810994, -0.953003407
61421, -0.0214308761, -0.802718937
61422, -0.0189059582, -0.669586897
61423, -0.0166692175, -0.55164969
61424, -0.0146877635, -0.447172999
61425, -0.0129324589, -0.354620546
61426, -0.0113774929, -0.272631437
61427, -0.212450147, -5.27368546
61428, -0.188044637, -4.63026762
61429, -0.166424617, -4.06028557
61430, -0.147272155, -3.55535674
61431, -0.130305618, -3.1080575
61432, -0.115275539, -2.71180964
61433, -0.101960883, -2.36078691
61434, -0.0901658759, -2.04982758
61435, -0.0797170699, -1.77435911
61436, -0.0704608187, -1.53033066
61437, -0.0622610115, -1.31415403
61438, -0.0549970791, -1.12265027
61439, -0.0485621989, -0.953003407
61440, -0.0428617522, -0.802718937
61441, -0.0378119163, -0.669586897
61442, -0.033338435, -0.55164969
61443, -0.0293755271, -0.447172999
61444, -0.0258649178, -0.354620546
61445, -0.0227549858, -0.272631437
61446, -0.31867522, -5.27368546
61447, -0.282066971, -4.63026762
61448, -0.249636918, -4.06028557
61449, -0.220908225, -3.55535674
61450, -0.195458442, -3.1080575
61451, -0.172913313, -2.71180964
61452, -0.152941331, -2.36078691
61453, -0.13524881, -2.04982758
61454, -0.119575605, -1.77435911
61455, -0.105691224, -1.53033066
61456, -0.0933915228, -1.31415403
61457, -0.0824956149, -1.12265027
61458, -0.0728432983, -0.953003407
61459, -0.064292632, -0.802718937
61460, -0.0567178763, -0.669586897
61461, -0.0500076525, -0.55164969
61462, -0.0440632924, -0.447172999
61463, -0.0387973785, -0.354620546
61464, -0.0341324769, -0.272631437
61465, -0.424900293, -5.27368546
61466, -0.376089275, -4.63026762
61467, -0.332849234, -4.06028557
61468, -0.294544309, -3.55535674
61469, -0.260611236, -3.1080575
61470, -0.230551079, -2.71180964
61471, -0.203921765, -2.36078691
61472, -0.180331752, -2.04982758
61473, -0.15943414, -1.77435911
61474, -0.140921637, -1.53033066
61475, -0.124522023, -1.31415403
61476, -0.109994158, -1.12265027
61477, -0.0971243978, -0.953003407
61478, -0.0857235044, -0.802718937
61479, -0.0756238326, -0.669586897
61480, -0.06667687, -0.55164969
61481, -0.0587510541, -0.447172999
61482, -0.0517298356, -0.354620546
61483, -0.0455099717, -0.272631437
61484, -0.531125367, -5.27368546
61485, -0.470111609, -4.63026762
61486, -0.41606155, -4.06028557
61487, -0.368180394, -3.55535674
61488, -0.32576406, -3.1080575
61489, -0.288188845, -2.71180964
61490, -0.254902214, -2.36078691
61491, -0.225414693, -2.04982758
61492, -0.199292675, -1.77435911
61493, -0.17615205, -1.53033066
61494, -0.155652538, -1.31415403
61495, -0.137492701, -1.12265027
61496, -0.121405497, -0.953003407
61497, -0.107154384, -0.802718937
61498, -0.0945297927, -0.669586897
61499, -0.0833460912, -0.55164969
61500, -0.0734388158, -0.447172999
61501, -0.0646622926, -0.354620546
61502, -0.0568874627, -0.272631437
61503, -0.63735044, -5.27368546
61504, -0.564133942, -4.63026762
61505, -0.499273837, -4.06028557
61506, -0.441816449, -3.55535674
61507, -0.390916884, -3.1080575
61508, -0.345826626, -2.71180964
61509, -0.305882663, -2.36078691
61510, -0.27049762, -2.04982758
61511, -0.23915121, -1.77435911
61512, -0.211382449, -1.53033066
61513, -0.186783046, -1.31415403
61514, -0.16499123, -1.12265027
61515, -0.145686597, -0.953003407
61516, -0.128585264, -0.802718937
61517, -0.113435753, -0.669586897
61518, -0.100015305, -0.55164969
61519, -0.0881265849, -0.447172999
61520, -0.0775947571, -0.354620546
61521, -0.0682649538, -0.272631437
61522, -0.743575513, -5.27368546
61523, -0.658156216, -4.63026762
61524, -0.582486153, -4.06028557
61525, -0.515452564, -3.55535674
61526, -0.456069678, -3.1080575
61527, -0.403464377, -2.71180964
61528, -0.356863111, -2.36078691
61529, -0.315580577, -2.04982758
61530, -0.27900973, -1.77435911
61531, -0.246612862, -1.53033066
61532, -0.217913553, -1.31415403
61533, -0.192489773, -1.12265027
61534, -0.169967696, -0.953003407
61535, -0.150016129, -0.802718937
61536, -0.132341713, -0.669586897
61537, -0.116684526, -0.55164969
61538, -0.102814347, -0.447172999
61539, -0.0905272141, -0.354620546
61540, -0.0796424523, -0.272631437
61541, -0.849800587, -5.27368546
61542, -0.75217855, -4.63026762
61543, -0.665698469, -4.06028557
61544, -0.589088619, -3.55535674
61545, -0.521222472, -3.1080575
61546, -0.461102158, -2.71180964
61547, -0.40784353, -2.36078691
61548, -0.360663503, -2.04982758
61549, -0.318868279, -1.77435911
61550, -0.281843275, -1.53033066
61551, -0.249044046, -1.31415403
61552, -0.219988316, -1.12265027
61553, -0.194248796, -0.953003407
61554, -0.171447009, -0.802718937
61555, -0.151247665, -0.669586897
61556, -0.13335374, -0.55164969
61557, -0.117502108, -0.447172999
61558, -0.103459671, -0.354620546
61559, -0.0910199434, -0.272631437
61560, -0.95602566, -5.27368546
61561, -0.846200883, -4.63026762
61562, -0.748910785, -4.06028557
61563, -0.662724674, -3.55535674
61564, -0.586375296, -3.1080575
61565, -0.518739939, -2.71180964
61566, -0.458823979, -2.36078691
61567, -0.40574646, -2.04982758
61568, -0.358726799, -1.77435911
61569, -0.317073673, -1.53033066
61570, -0.280174553, -1.31415403
61571, -0.247486845, -1.12265027
61572, -0.218529895, -0.953003407
61573, -0.192877889, -0.802718937
61574, -0.170153633, -0.669586897
61575, -0.150022969, -0.55164969
61576, -0.13218987, -0.447172999
61577, -0.116392128, -0.354620546
61578, -0.102397434, -0.272631437
61579, -1.06225073, -5.27368546
61580, -0.940223217, -4.63026762
61581, -0.832123101, -4.06028557
61582, -0.736360788, -3.55535674
61583, -0.65152812, -3.1080575
61584, -0.57637769, -2.71180964
61585, -0.509804428, -2.36078691
61586, -0.450829387, -2.04982758
61587, -0.398585349, -1.77435911
61588, -0.352304101, -1.53033066
61589, -0.311305076, -1.31415403
61590, -0.274985403, -1.12265027
61591, -0.242810994, -0.953003407
61592, -0.214308769, -0.802718937
61593, -0.189059585, -0.669586897
61594, -0.166692182, -0.55164969
61595, -0.146877632, -0.447172999
61596, -0.129324585, -0.354620546
61597, -0.113774925, -0.272631437
61598, -1.16847575, -5.27368546
61599, -1.03424549, -4.63026762
61600, -0.915335417, -4.06028557
61601, -0.809996843, -3.55535674
61602, -0.716680944, -3.1080575
61603, -0.634015441, -2.71180964
61604, -0.560784876, -2.36078691
61605, -0.495912313, -2.04982758
61606, -0.438443869, -1.77435911
61607, -0.387534499, -1.53033066
61608, -0.342435569, -1.31415403
61609, -0.302483916, -1.12265027
61610, -0.267092079, -0.953003407
61611, -0.235739648, -0.802718937
61612, -0.207965553, -0.669586897
61613, -0.183361396, -0.55164969
61614, -0.161565393, -0.447172999
61615, -0.14225705, -0.354620546
61616, -0.125152424, -0.272631437
61617, -1.27470088, -5.27368546
61618, -1.12826788, -4.63026762
61619, -0.998547673, -4.06028557
61620, -0.883632898, -3.55535674
61621, -0.781833768, -3.1080575
61622, -0.691653252, -2.71180964
61623, -0.611765325, -2.36078691
61624, -0.54099524, -2.04982758
61625, -0.478302419, -1.77435911
61626, -0.422764897, -1.53033066
61627, -0.373566091, -1.31415403
61628, -0.32998246, -1.12265027
61629, -0.291373193, -0.953003407
61630, -0.257170528, -0.802718937
61631, -0.226871505, -0.669586897
61632, -0.20003061, -0.55164969
61633, -0.17625317, -0.447172999
61634, -0.155189514, -0.354620546
61635, -0.136529908, -0.272631437
61636, -1.38092589, -5.27368546
61637, -1.22229016, -4.63026762
61638, -1.08176005, -4.06028557
61639, -0.957269013, -3.55535674
61640, -0.846986532, -3.1080575
61641, -0.749291003, -2.71180964
61642, -0.662745774, -2.36078691
61643, -0.586078227, -2.04982758
61644, -0.518160939, -1.77435911
61645, -0.457995325, -1.53033066
61646, -0.404696584, -1.31415403
61647, -0.357481003, -1.12265027
61648, -0.315654278, -0.953003407
61649, -0.278601408, -0.802718937
61650, -0.245777458, -0.669586897
61651, -0.216699839, -0.55164969
61652, -0.190940931, -0.447172999
61653, -0.168121964, -0.354620546
61654, -0.147907406, -0.272631437
61655, -1.48715103, -5.27368546
61656, -1.31631243, -4.63026762
61657, -1.16497231, -4.06028557
61658, -1.03090513, -3.55535674
61659, -0.912139356, -3.1080575
61660, -0.806928754, -2.71180964
61661, -0.713726223, -2.36078691
61662, -0.631161153, -2.04982758
61663, -0.558019459, -1.77435911
61664, -0.493225724, -1.53033066
61665, -0.435827106, -1.31415403
61666, -0.384979546, -1.12265027
61667, -0.339935392, -0.953003407
61668, -0.300032258, -0.802718937
61669, -0.264683425, -0.669586897
61670, -0.233369052, -0.55164969
61671, -0.205628693, -0.447172999
61672, -0.181054428, -0.354620546
61673, -0.159284905, -0.272631437
61674, -1.59337604, -5.27368546
61675, -1.41033483, -4.63026762
61676, -1.24818468, -4.06028557
61677, -1.10454118, -3.55535674
61678, -0.97729218, -3.1080575
61679, -0.864566565, -2.71180964
61680, -0.764706671, -2.36078691
61681, -0.67624408, -2.04982758
61682, -0.597878039, -1.77435911
61683, -0.528456151, -1.53033066
61684, -0.466957599, -1.31415403
61685, -0.412478089, -1.12265027
61686, -0.364216477, -0.953003407
61687, -0.321463138, -0.802718937
61688, -0.283589393, -0.669586897
61689, -0.250038266, -0.55164969
61690, -0.220316455, -0.447172999
61691, -0.193986878, -0.354620546
61692, -0.170662388, -0.272631437
61693, -1.69960117, -5.27368546
61694, -1.5043571, -4.63026762
61695, -1.33139694, -4.06028557
61696, -1.17817724, -3.55535674
61697, -1.04244494, -3.1080575
61698, -0.922204316, -2.71180964
61699, -0.81568706, -2.36078691
61700, -0.721327007, -2.04982758
61701, -0.637736559, -1.77435911
61702, -0.56368655, -1.53033066
61703, -0.498088092, -1.31415403
61704, -0.439976633, -1.12265027
61705, -0.388497591, -0.953003407
61706, -0.342894018, -0.802718937
61707, -0.302495331, -0.669586897
61708, -0.26670748, -0.55164969
61709, -0.235004216, -0.447172999
61710, -0.206919342, -0.354620546
61711, -0.182039887, -0.272631437
61712, -1.80582619, -5.27368546
61713, -1.59837949, -4.63026762
61714, -1.41460919, -4.06028557
61715, -1.25181329, -3.55535674
61716, -1.10759783, -3.1080575
61717, -0.979842067, -2.71180964
61718, -0.866667509, -2.36078691
61719, -0.766409934, -2.04982758
61720, -0.677595079, -1.77435911
61721, -0.598916948, -1.53033066
61722, -0.529218614, -1.31415403
61723, -0.467475176, -1.12265027
61724, -0.412778676, -0.953003407
61725, -0.364324898, -0.802718937
61726, -0.321401298, -0.669586897
61727, -0.283376694, -0.55164969
61728, -0.249691978, -0.447172999
61729, -0.219851807, -0.354620546
61730, -0.193417385, -0.272631437
61731, -1.91205132, -5.27368546
61732, -1.69240177, -4.63026762
61733, -1.49782157, -4.06028557
61734, -1.32544935, -3.55535674
61735, -1.17275059, -3.1080575
61736, -1.03747988, -2.71180964
61737, -0.917647958, -2.36078691
61738, -0.81149292, -2.04982758
61739, -0.717453599, -1.77435911
61740, -0.634147346, -1.53033066
61741, -0.560349107, -1.31415403
61742, -0.494973689, -1.12265027
61743, -0.43705979, -0.953003407
61744, -0.385755777, -0.802718937
61745, -0.340307266, -0.669586897
61746, -0.300045937, -0.55164969
61747, -0.26437974, -0.447172999
61748, -0.232784256, -0.354620546
61749, -0.204794869, -0.272631437
61750, -2.01827645, -5.27368546
61751, -1.78642404, -4.63026762
61752, -1.58103383, -4.06028557
61753, -1.39908552, -3.55535674
61754, -1.23790348, -3.1080575
61755, -1.09511757, -2.71180964
61756, -0.968628407, -2.36078691
61757, -0.856575847, -2.04982758
61758, -0.757312179, -1.77435911
61759, -0.669377804, -1.53033066
61760, -0.591479599, -1.31415403
61761, -0.522472262, -1.12265027
61762, -0.461340874, -0.953003407
61763, -0.407186657, -0.802718937
61764, -0.359213203, -0.669586897
61765, -0.316715151, -0.55164969
61766, -0.279067516, -0.447172999
61767, -0.245716721, -0.354620546
61768, -0.216172367, -0.272631437
61769, -2.12450147, -5.27368546
61770, -1.88044643, -4.63026762
61771, -1.6642462, -4.06028557
61772, -1.47272158, -3.55535674
61773, -1.30305624, -3.1080575
61774, -1.15275538, -2.71180964
61775, -1.01960886, -2.36078691
61776, -0.901658773, -2.04982758
61777, -0.797170699, -1.77435911
61778, -0.704608202, -1.53033066
61779, -0.622610152, -1.31415403
61780, -0.549970806, -1.12265027
61781, -0.485621989, -0.953003407
61782, -0.428617537, -0.802718937
61783, -0.378119171, -0.669586897
61784, -0.333384365, -0.55164969
61785, -0.293755263, -0.447172999
61786, -0.25864917, -0.354620546
61787, -0.227549851, -0.272631437
61788, -2.23072648, -5.27368546
61789, -1.97446871, -4.63026762
61790, -1.74745846, -4.06028557
61791, -1.54635763, -3.55535674
61792, -1.368209, -3.1080575
61793, -1.21039319, -2.71180964
61794, -1.0705893, -2.36078691
61795, -0.9467417, -2.04982758
61796, -0.837029219, -1.77435911
61797, -0.7398386, -1.53033066
61798, -0.653740644, -1.31415403
61799, -0.577469289, -1.12265027
61800, -0.509903073, -0.953003407
61801, -0.450048417, -0.802718937
61802, -0.397025138, -0.669586897
61803, -0.350053579, -0.55164969
61804, -0.30844304, -0.447172999
61805, -0.27158165, -0.354620546
61806, -0.238927349, -0.272631437
61807, -2.33695149, -5.27368546
61808, -2.06849098, -4.63026762
61809, -1.83067083, -4.06028557
61810, -1.61999369, -3.55535674
61811, -1.43336189, -3.1080575
61812, -1.26803088, -2.71180964
61813, -1.12156975, -2.36078691
61814, -0.991824627, -2.04982758
61815, -0.876887739, -1.77435911
61816, -0.775068998, -1.53033066
61817, -0.684871137, -1.31415403
61818, -0.604967833, -1.12265027
61819, -0.534184158, -0.953003407
61820, -0.471479297, -0.802718937
61821, -0.415931106, -0.669586897
61822, -0.366722792, -0.55164969
61823, -0.323130786, -0.447172999
61824, -0.284514099, -0.354620546
61825, -0.250304848, -0.272631437
61826, -2.44317675, -5.27368546
61827, -2.16251326, -4.63026762
61828, -1.91388309, -4.06028557
61829, -1.69362974, -3.55535674
61830, -1.49851465, -3.1080575
61831, -1.32566869, -2.71180964
61832, -1.1725502, -2.36078691
61833, -1.03690755, -2.04982758
61834, -0.916746318, -1.77435911
61835, -0.810299397, -1.53033066
61836, -0.71600163, -1.31415403
61837, -0.632466376, -1.12265027
61838, -0.558465302, -0.953003407
61839, -0.492910147, -0.802718937
61840, -0.434837043, -0.669586897
61841, -0.383392006, -0.55164969
61842, -0.337818563, -0.447172999
61843, -0.297446549, -0.354620546
61844, -0.261682332, -0.272631437
61845, -2.54940176, -5.27368546
61846, -2.25653577, -4.63026762
61847, -1.99709535, -4.06028557
61848, -1.7672658, -3.55535674
61849, -1.56366754, -3.1080575
61850, -1.3833065, -2.71180964
61851, -1.22353065, -2.36078691
61852, -1.08199048, -2.04982758
61853, -0.956604838, -1.77435911
61854, -0.845529795, -1.53033066
61855, -0.747132182, -1.31415403
61856, -0.659964919, -1.12265027
61857, -0.582746387, -0.953003407
61858, -0.514341056, -0.802718937
61859, -0.453743011, -0.669586897
61860, -0.40006122, -0.55164969
61861, -0.35250634, -0.447172999
61862, -0.310379028, -0.354620546
61863, -0.273059815, -0.272631437
61864, -2.65562677, -5.27368546
61865, -2.35055804, -4.63026762
61866, -2.08030772, -4.06028557
61867, -1.84090197, -3.55535674
61868, -1.6288203, -3.1080575
61869, -1.44094419, -2.71180964
61870, -1.2745111, -2.36078691
61871, -1.12707341, -2.04982758
61872, -0.996463358, -1.77435911
61873, -0.880760252, -1.53033066
61874, -0.778262675, -1.31415403
61875, -0.687463462, -1.12265027
61876, -0.607027471, -0.953003407
61877, -0.535771906, -0.802718937
61878, -0.472648978, -0.669586897
61879, -0.416730464, -0.55164969
61880, -0.367194086, -0.447172999
61881, -0.323311478, -0.354620546
61882, -0.284437329, -0.272631437
61883, -2.76185179, -5.27368546
61884, -2.44458032, -4.63026762
61885, -2.1635201, -4.06028557
61886, -1.91453803, -3.55535674
61887, -1.69397306, -3.1080575
61888, -1.49858201, -2.71180964
61889, -1.32549155, -2.36078691
61890, -1.17215645, -2.04982758
61891, -1.03632188, -1.77435911
61892, -0.915990651, -1.53033066
61893, -0.809393167, -1.31415403
61894, -0.714962006, -1.12265027
61895, -0.631308556, -0.953003407
61896, -0.557202816, -0.802718937
61897, -0.491554916, -0.669586897
61898, -0.433399677, -0.55164969
61899, -0.381881863, -0.447172999
61900, -0.336243927, -0.354620546
61901, -0.295814812, -0.272631437
61902, -2.86807704, -5.27368546
61903, -2.53860259, -4.63026762
61904, -2.24673223, -4.06028557
61905, -1.98817408, -3.55535674
61906, -1.75912595, -3.1080575
61907, -1.55621982, -2.71180964
61908, -1.376472, -2.36078691
61909, -1.21723938, -2.04982758
61910, -1.07618046, -1.77435911
61911, -0.951221049, -1.53033066
61912, -0.84052366, -1.31415403
61913, -0.742460549, -1.12265027
61914, -0.6555897, -0.953003407
61915, -0.578633666, -0.802718937
61916, -0.510460913, -0.669586897
61917, -0.450068891, -0.55164969
61918, -0.39656961, -0.447172999
61919, -0.349176377, -0.354620546
61920, -0.307192296, -0.272631437
61921, -2.97430205, -5.27368546
61922, -2.63262486, -4.63026762
61923, -2.32994461, -4.06028557
61924, -2.06181026, -3.55535674
61925, -1.82427871, -3.1080575
61926, -1.61385751, -2.71180964
61927, -1.42745245, -2.36078691
61928, -1.26232231, -2.04982758
61929, -1.11603892, -1.77435911
61930, -0.986451447, -1.53033066
61931, -0.871654212, -1.31415403
61932, -0.769959092, -1.12265027
61933, -0.679870784, -0.953003407
61934, -0.600064516, -0.802718937
61935, -0.529366851, -0.669586897
61936, -0.466738105, -0.55164969
61937, -0.411257386, -0.447172999
61938, -0.362108856, -0.354620546
61939, -0.318569809, -0.272631437
61940, -3.08052707, -5.27368546
61941, -2.72664738, -4.63026762
61942, -2.41315699, -4.06028557
61943, -2.13544631, -3.55535674
61944, -1.8894316, -3.1080575
61945, -1.67149532, -2.71180964
61946, -1.47843289, -2.36078691
61947, -1.30740523, -2.04982758
61948, -1.1558975, -1.77435911
61949, -1.0216819, -1.53033066
61950, -0.902784705, -1.31415403
61951, -0.797457635, -1.12265027
61952, -0.704151869, -0.953003407
61953, -0.621495426, -0.802718937
61954, -0.548272789, -0.669586897
61955, -0.483407319, -0.55164969
61956, -0.425945133, -0.447172999
61957, -0.375041306, -0.354620546
61958, -0.329947293, -0.272631437
61959, -3.18675208, -5.27368546
61960, -2.82066965, -4.63026762
61961, -2.49636936, -4.06028557
61962, -2.20908237, -3.55535674
61963, -1.95458436, -3.1080575
61964, -1.72913313, -2.71180964
61965, -1.52941334, -2.36078691
61966, -1.35248816, -2.04982758
61967, -1.19575608, -1.77435911
61968, -1.0569123, -1.53033066
61969, -0.933915198, -1.31415403
61970, -0.824956179, -1.12265027
61971, -0.728432953, -0.953003407
61972, -0.642926276, -0.802718937
61973, -0.567178786, -0.669586897
61974, -0.500076532, -0.55164969
61975, -0.44063291, -0.447172999
61976, -0.387973756, -0.354620546
61977, -0.341324776, -0.272631437
61978, -3.29297733, -5.27368546
61979, -2.91469193, -4.63026762
61980, -2.5795815, -4.06028557
61981, -2.28271842, -3.55535674
61982, -2.01973724, -3.1080575
61983, -1.78677082, -2.71180964
61984, -1.58039379, -2.36078691
61985, -1.39757109, -2.04982758
61986, -1.23561454, -1.77435911
61987, -1.0921427, -1.53033066
61988, -0.965045691, -1.31415403
61989, -0.852454722, -1.12265027
61990, -0.752714097, -0.953003407
61991, -0.664357185, -0.802718937
61992, -0.586084723, -0.669586897
61993, -0.516745746, -0.55164969
61994, -0.455320656, -0.447172999
61995, -0.400906235, -0.354620546
61996, -0.35270229, -0.272631437
61997, -3.39920235, -5.27368546
61998, -3.0087142, -4.63026762
61999, -2.66279387, -4.06028557
62000, -2.35635448, -3.55535674
62001, -2.08488989, -3.1080575
62002, -1.84440863, -2.71180964
62003, -1.63137412, -2.36078691
62004, -1.44265401, -2.04982758
62005, -1.27547312, -1.77435911
62006, -1.1273731, -1.53033066
62007, -0.996176183, -1.31415403
62008, -0.879953265, -1.12265027
62009, -0.776995182, -0.953003407
62010, -0.685788035, -0.802718937
62011, -0.604990661, -0.669586897
62012, -0.53341496, -0.55164969
62013, -0.470008433, -0.447172999
62014, -0.413838685, -0.354620546
62015, -0.364079773, -0.272631437
62016, -3.50542736, -5.27368546
62017, -3.10273647, -4.63026762
62018, -2.74600625, -4.06028557
62019, -2.42999053, -3.55535674
62020, -2.15004277, -3.1080575
62021, -1.90204644, -2.71180964
62022, -1.68235457, -2.36078691
62023, -1.48773694, -2.04982758
62024, -1.3153317, -1.77435911
62025, -1.1626035, -1.53033066
62026, -1.02730668, -1.31415403
62027, -0.907451808, -1.12265027
62028, -0.801276267, -0.953003407
62029, -0.707218945, -0.802718937
62030, -0.623896658, -0.669586897
62031, -0.550084174, -0.55164969
62032, -0.484696209, -0.447172999
62033, -0.426771134, -0.354620546
62034, -0.375457257, -0.272631437
62035, -3.61165237, -5.27368546
62036, -3.19675899, -4.63026762
62037, -2.82921839, -4.06028557
62038, -2.50362659, -3.55535674
62039, -2.21519566, -3.1080575
62040, -1.95968413, -2.71180964
62041, -1.73333502, -2.36078691
62042, -1.53281987, -2.04982758
62043, -1.35519016, -1.77435911
62044, -1.1978339, -1.53033066
62045, -1.05843723, -1.31415403
62046, -0.934950352, -1.12265027
62047, -0.825557351, -0.953003407
62048, -0.728649795, -0.802718937
62049, -0.642802596, -0.669586897
62050, -0.566753387, -0.55164969
62051, -0.499383956, -0.447172999
62052, -0.439703614, -0.354620546
62053, -0.38683477, -0.272631437
62054, -3.71787763, -5.27368546
62055, -3.29078126, -4.63026762
62056, -2.91243076, -4.06028557
62057, -2.57726264, -3.55535674
62058, -2.28034854, -3.1080575
62059, -2.01732183, -2.71180964
62060, -1.78431547, -2.36078691
62061, -1.57790279, -2.04982758
62062, -1.39504874, -1.77435911
62063, -1.23306429, -1.53033066
62064, -1.08956778, -1.31415403
62065, -0.962448835, -1.12265027
62066, -0.849838495, -0.953003407
62067, -0.750080705, -0.802718937
62068, -0.661708534, -0.669586897
62069, -0.583422601, -0.55164969
62070, -0.514071703, -0.447172999
62071, -0.452636063, -0.354620546
62072, -0.398212254, -0.272631437
62073, -3.82410264, -5.27368546
62074, -3.38480353, -4.63026762
62075, -2.99564314, -4.06028557
62076, -2.65089869, -3.55535674
62077, -2.34550118, -3.1080575
62078, -2.07495975, -2.71180964
62079, -1.83529592, -2.36078691
62080, -1.62298584, -2.04982758
62081, -1.4349072, -1.77435911
62082, -1.26829469, -1.53033066
62083, -1.12069821, -1.31415403
62084, -0.989947379, -1.12265027
62085, -0.87411958, -0.953003407
62086, -0.771511555, -0.802718937
62087, -0.680614531, -0.669586897
62088, -0.600091875, -0.55164969
62089, -0.52875948, -0.447172999
62090, -0.465568513, -0.354620546
62091, -0.409589738, -0.272631437
62092, -3.93032765, -5.27368546
62093, -3.47882581, -4.63026762
62094, -3.07885551, -4.06028557
62095, -2.72453475, -3.55535674
62096, -2.41065407, -3.1080575
62097, -2.13259745, -2.71180964
62098, -1.88627636, -2.36078691
62099, -1.66806877, -2.04982758
62100, -1.47476578, -1.77435911
62101, -1.30352509, -1.53033066
62102, -1.15182877, -1.31415403
62103, -1.01744592, -1.12265027
62104, -0.898400664, -0.953003407
62105, -0.792942405, -0.802718937
62106, -0.699520469, -0.669586897
62107, -0.616761088, -0.55164969
62108, -0.543447256, -0.447172999
62109, -0.478500992, -0.354620546
62110, -0.420967221, -0.272631437
62111, -4.03655291, -5.27368546
62112, -3.57284808, -4.63026762
62113, -3.16206765, -4.06028557
62114, -2.79817104, -3.55535674
62115, -2.47580695, -3.1080575
62116, -2.19023514, -2.71180964
62117, -1.93725681, -2.36078691
62118, -1.71315169, -2.04982758
62119, -1.51462436, -1.77435911
62120, -1.33875561, -1.53033066
62121, -1.1829592, -1.31415403
62122, -1.04494452, -1.12265027
62123, -0.922681749, -0.953003407
62124, -0.814373314, -0.802718937
62125, -0.718426406, -0.669586897
62126, -0.633430302, -0.55164969
62127, -0.558135033, -0.447172999
62128, -0.491433442, -0.354620546
62129, -0.432344735, -0.272631437
62130, -4.14277792, -5.27368546
62131, -3.66687059, -4.63026762
62132, -3.24528003, -4.06028557
62133, -2.8718071, -3.55535674
62134, -2.5409596, -3.1080575
62135, -2.24787307, -2.71180964
62136, -1.98823726, -2.36078691
62137, -1.75823462, -2.04982758
62138, -1.55448282, -1.77435911
62139, -1.37398601, -1.53033066
62140, -1.21408975, -1.31415403
62141, -1.07244301, -1.12265027
62142, -0.946962893, -0.953003407
62143, -0.835804164, -0.802718937
62144, -0.737332404, -0.669586897
62145, -0.650099516, -0.55164969
62146, -0.57282275, -0.447172999
62147, -0.504365921, -0.354620546
62148, -0.443722218, -0.272631437
62149, -4.24900293, -5.27368546
62150, -3.76089287, -4.63026762
62151, -3.3284924, -4.06028557
62152, -2.94544315, -3.55535674
62153, -2.60611248, -3.1080575
62154, -2.30551076, -2.71180964
62155, -2.03921771, -2.36078691
62156, -1.80331755, -2.04982758
62157, -1.5943414, -1.77435911
62158, -1.4092164, -1.53033066
62159, -1.2452203, -1.31415403
62160, -1.09994161, -1.12265027
62161, -0.971243978, -0.953003407
62162, -0.857235074, -0.802718937
62163, -0.756238341, -0.669586897
62164, -0.66676873, -0.55164969
62165, -0.587510526, -0.447172999
62166, -0.517298341, -0.354620546
62167, -0.455099702, -0.272631437
62168, -4.35522795, -5.27368546
62169, -3.85491514, -4.63026762
62170, -3.41170454, -4.06028557
62171, -3.01907921, -3.55535674
62172, -2.67126536, -3.1080575
62173, -2.36314845, -2.71180964
62174, -2.09019828, -2.36078691
62175, -1.84840047, -2.04982758
62176, -1.63419998, -1.77435911
62177, -1.4444468, -1.53033066
62178, -1.27635074, -1.31415403
62179, -1.12744009, -1.12265027
62180, -0.995525062, -0.953003407
62181, -0.878665924, -0.802718937
62182, -0.775144279, -0.669586897
62183, -0.683437943, -0.55164969
62184, -0.602198303, -0.447172999
62185, -0.53023082, -0.354620546
62186, -0.466477215, -0.272631437
62187, -4.46145296, -5.27368546
62188, -3.94893742, -4.63026762
62189, -3.49491692, -4.06028557
62190, -3.09271526, -3.55535674
62191, -2.73641801, -3.1080575
62192, -2.42078638, -2.71180964
62193, -2.14117861, -2.36078691
62194, -1.8934834, -2.04982758
62195, -1.67405844, -1.77435911
62196, -1.4796772, -1.53033066
62197, -1.30748129, -1.31415403
62198, -1.15493858, -1.12265027
62199, -1.01980615, -0.953003407
62200, -0.900096834, -0.802718937
62201, -0.794050276, -0.669586897
62202, -0.700107157, -0.55164969
62203, -0.616886079, -0.447172999
62204, -0.5431633, -0.354620546
62205, -0.477854699, -0.272631437
62206, -4.56767797, -5.27368546
62207, -4.04295969, -4.63026762
62208, -3.57812929, -4.06028557
62209, -3.16635132, -3.55535674
62210, -2.80157089, -3.1080575
62211, -2.47842407, -2.71180964
62212, -2.19215894, -2.36078691
62213, -1.93856633, -2.04982758
62214, -1.71391702, -1.77435911
62215, -1.5149076, -1.53033066
62216, -1.33861184, -1.31415403
62217, -1.18243718, -1.12265027
62218, -1.04408729, -0.953003407
62219, -0.921527684, -0.802718937
62220, -0.812956214, -0.669586897
62221, -0.716776371, -0.55164969
62222, -0.631573856, -0.447172999
62223, -0.556095719, -0.354620546
62224, -0.489232183, -0.272631437
62225, -4.67390299, -5.27368546
62226, -4.13698196, -4.63026762
62227, -3.66134167, -4.06028557
62228, -3.23998737, -3.55535674
62229, -2.86672378, -3.1080575
62230, -2.53606176, -2.71180964
62231, -2.24313951, -2.36078691
62232, -1.98364925, -2.04982758
62233, -1.75377548, -1.77435911
62234, -1.550138, -1.53033066
62235, -1.36974227, -1.31415403
62236, -1.20993567, -1.12265027
62237, -1.06836832, -0.953003407
62238, -0.942958593, -0.802718937
62239, -0.831862211, -0.669586897
62240, -0.733445585, -0.55164969
62241, -0.646261573, -0.447172999
62242, -0.569028199, -0.354620546
62243, -0.500609696, -0.272631437
62244, -4.780128, -5.27368546
62245, -4.23100424, -4.63026762
62246, -3.7445538, -4.06028557
62247, -3.31362343, -3.55535674
62248, -2.93187666, -3.1080575
62249, -2.59369969, -2.71180964
62250, -2.29411983, -2.36078691
62251, -2.0287323, -2.04982758
62252, -1.79363406, -1.77435911
62253, -1.58536839, -1.53033066
62254, -1.40087283, -1.31415403
62255, -1.23743427, -1.12265027
62256, -1.09264946, -0.953003407
62257, -0.964389443, -0.802718937
62258, -0.850768149, -0.669586897
62259, -0.750114799, -0.55164969
62260, -0.660949349, -0.447172999
62261, -0.581960678, -0.354620546
62262, -0.51198715, -0.272631437
62263, -4.88635349, -5.27368546
62264, -4.32502651, -4.63026762
62265, -3.82776618, -4.06028557
62266, -3.38725948, -3.55535674
62267, -2.9970293, -3.1080575
62268, -2.65133739, -2.71180964
62269, -2.3451004, -2.36078691
62270, -2.07381511, -2.04982758
62271, -1.83349264, -1.77435911
62272, -1.62059879, -1.53033066
62273, -1.43200326, -1.31415403
62274, -1.26493275, -1.12265027
62275, -1.1169306, -0.953003407
62276, -0.985820293, -0.802718937
62277, -0.869674087, -0.669586897
62278, -0.766784012, -0.55164969
62279, -0.675637126, -0.447172999
62280, -0.594893098, -0.354620546
62281, -0.523364663, -0.272631437
62282, -4.99257851, -5.27368546
62283, -4.41904926, -4.63026762
62284, -3.91097856, -4.06028557
62285, -3.46089554, -3.55535674
62286, -3.06218219, -3.1080575
62287, -2.70897508, -2.71180964
62288, -2.39608073, -2.36078691
62289, -2.11889815, -2.04982758
62290, -1.8733511, -1.77435911
62291, -1.65582919, -1.53033066
62292, -1.46313381, -1.31415403
62293, -1.29243135, -1.12265027
62294, -1.14121163, -0.953003407
62295, -1.00725114, -0.802718937
62296, -0.888580084, -0.669586897
62297, -0.783453226, -0.55164969
62298, -0.690324903, -0.447172999
62299, -0.607825577, -0.354620546
62300, -0.534742177, -0.272631437
62301, -5.09880352, -5.27368546
62302, -4.51307154, -4.63026762
62303, -3.99419069, -4.06028557
62304, -3.53453159, -3.55535674
62305, -3.12733507, -3.1080575
62306, -2.76661301, -2.71180964
62307, -2.4470613, -2.36078691
62308, -2.16398096, -2.04982758
62309, -1.91320968, -1.77435911
62310, -1.69105959, -1.53033066
62311, -1.49426436, -1.31415403
62312, -1.31992984, -1.12265027
62313, -1.16549277, -0.953003407
62314, -1.02868211, -0.802718937
62315, -0.907486022, -0.669586897
62316, -0.80012244, -0.55164969
62317, -0.705012679, -0.447172999
62318, -0.620758057, -0.354620546
62319, -0.54611963, -0.272631437
62320, -5.20502853, -5.27368546
62321, -4.60709381, -4.63026762
62322, -4.07740307, -4.06028557
62323, -3.60816789, -3.55535674
62324, -3.19248772, -3.1080575
62325, -2.8242507, -2.71180964
62326, -2.49804163, -2.36078691
62327, -2.20906401, -2.04982758
62328, -1.95306826, -1.77435911
62329, -1.72629011, -1.53033066
62330, -1.5253948, -1.31415403
62331, -1.34742844, -1.12265027
62332, -1.18977392, -0.953003407
62333, -1.05011296, -0.802718937
62334, -0.926391959, -0.669586897
62335, -0.816791654, -0.55164969
62336, -0.719700396, -0.447172999
62337, -0.633690476, -0.354620546
62338, -0.557497144, -0.272631437
62339, -5.31125355, -5.01000118
62340, -4.70111609, -4.3987546
62341, -4.16061544, -3.85727096
62342, -3.68180394, -3.37758899
62343, -3.2576406, -2.9526546
62344, -2.88188839, -2.57621908
62345, -2.5490222, -2.24274755
62346, -2.25414681, -1.94733632
62347, -1.99292672, -1.68564117
62348, -1.7615205, -1.45381415
62349, -1.55652535, -1.24844623
62350, -1.37492692, -1.06651771
62351, -1.21405494, -0.905353248
62352, -1.07154381, -0.762583017
62353, -0.945297956, -0.636107564
62354, -0.833460927, -0.524067163
62355, -0.734388173, -0.424814343
62356, -0.646622956, -0.336889535
62357, -0.568874657, -0.258999854
62358, -5.31125355, -4.74631691
62359, -4.70111609, -4.1672411
62360, -4.16061544, -3.65425682
62361, -3.68180394, -3.19982123
62362, -3.2576406, -2.7972517
62363, -2.88188839, -2.44062877
62364, -2.5490222, -2.12470841
62365, -2.25414681, -1.84484494
62366, -1.99292672, -1.59692323
62367, -1.7615205, -1.37729764
62368, -1.55652535, -1.18273854
62369, -1.37492692, -1.01038516
62370, -1.21405494, -0.85770309
62371, -1.07154381, -0.722447038
62372, -0.945297956, -0.602628231
62373, -0.833460927, -0.496484697
62374, -0.734388173, -0.402455688
62375, -0.646622956, -0.319158494
62376, -0.568874657, -0.245368302
62377, -5.31125355, -4.48263264
62378, -4.70111609, -3.9357276
62379, -4.16061544, -3.45124245
62380, -3.68180394, -3.02205324
62381, -3.2576406, -2.6418488
62382, -2.88188839, -2.30503821
62383, -2.5490222, -2.00666904
62384, -2.25414681, -1.74235356
62385, -1.99292672, -1.50820529
62386, -1.7615205, -1.30078113
62387, -1.55652535, -1.11703086
62388, -1.37492692, -0.95425272
62389, -1.21405494, -0.810052931
62390, -1.07154381, -0.682311118
62391, -0.945297956, -0.569148898
62392, -0.833460927, -0.46890223
62393, -0.734388173, -0.380097032
62394, -0.646622956, -0.301427484
62395, -0.568874657, -0.23173672
62396, -5.31125355, -4.21894836
62397, -4.70111609, -3.70421433
62398, -4.16061544, -3.24822831
62399, -3.68180394, -2.84428549
62400, -3.2576406, -2.4864459
62401, -2.88188839, -2.16944766
62402, -2.5490222, -1.88862956
62403, -2.25414681, -1.63986218
62404, -1.99292672, -1.41948724
62405, -1.7615205, -1.2242645
62406, -1.55652535, -1.05132318
62407, -1.37492692, -0.898120165
62408, -1.21405494, -0.762402713
62409, -1.07154381, -0.642175138
62410, -0.945297956, -0.535669506
62411, -0.833460927, -0.441319734
62412, -0.734388173, -0.357738376
62413, -0.646622956, -0.283696443
62414, -0.568874657, -0.218105152
62415, -5.31125355, -3.95526409
62416, -4.70111609, -3.47270083
62417, -4.16061544, -3.04521394
62418, -3.68180394, -2.6665175
62419, -3.2576406, -2.331043
62420, -2.88188839, -2.03385735
62421, -2.5490222, -1.77059031
62422, -2.25414681, -1.5373708
62423, -1.99292672, -1.3307693
62424, -1.7615205, -1.14774799
62425, -1.55652535, -0.985615492
62426, -1.37492692, -0.841987669
62427, -1.21405494, -0.714752555
62428, -1.07154381, -0.602039218
62429, -0.945297956, -0.502190173
62430, -0.833460927, -0.413737267
62431, -0.734388173, -0.33537975
62432, -0.646622956, -0.265965432
62433, -0.568874657, -0.204473585
62434, -5.31125355, -3.69157982
62435, -4.70111609, -3.24118757
62436, -4.16061544, -2.8421998
62437, -3.68180394, -2.48874974
62438, -3.2576406, -2.17564011
62439, -2.88188839, -1.89826679
62440, -2.5490222, -1.65255094
62441, -2.25414681, -1.43487942
62442, -1.99292672, -1.24205136
62443, -1.7615205, -1.07123148
62444, -1.55652535, -0.919907808
62445, -1.37492692, -0.785855174
62446, -1.21405494, -0.667102396
62447, -1.07154381, -0.561903238
62448, -0.945297956, -0.46871084
62449, -0.833460927, -0.386154771
62450, -0.734388173, -0.313021094
62451, -0.646622956, -0.248234391
62452, -0.568874657, -0.190842003
62453, -5.31125355, -3.42789555
62454, -4.70111609, -3.00967407
62455, -4.16061544, -2.63918543
62456, -3.68180394, -2.31098199
62457, -3.2576406, -2.02023721
62458, -2.88188839, -1.76267624
62459, -2.5490222, -1.53451157
62460, -2.25414681, -1.33238792
62461, -1.99292672, -1.15333343
62462, -1.7615205, -0.994714916
62463, -1.55652535, -0.854200065
62464, -1.37492692, -0.729722679
62465, -1.21405494, -0.619452238
62466, -1.07154381, -0.521767318
62467, -0.945297956, -0.435231507
62468, -0.833460927, -0.358572274
62469, -0.734388173, -0.290662438
62470, -0.646622956, -0.230503365
62471, -0.568874657, -0.177210435
62472, -5.31125355, -3.16421127
62473, -4.70111609, -2.77816057
62474, -4.16061544, -2.43617129
62475, -3.68180394, -2.133214
62476, -3.2576406, -1.86483443
62477, -2.88188839, -1.6270858
62478, -2.5490222, -1.4164722
62479, -2.25414681, -1.22989655
62480, -1.99292672, -1.06461549
62481, -1.7615205, -0.918198407
62482, -1.55652535, -0.788492382
62483, -1.37492692, -0.673590124
62484, -1.21405494, -0.57180208
62485, -1.07154381, -0.481631368
62486, -0.945297956, -0.401752144
62487, -0.833460927, -0.330989808
62488, -0.734388173, -0.268303782
62489, -0.646622956, -0.21277234
62490, -0.568874657, -0.163578868
62491, -5.31125355, -2.900527
62492, -4.70111609, -2.54664731
62493, -4.16061544, -2.23315692
62494, -3.68180394, -1.95544624
62495, -3.2576406, -1.70943153
62496, -2.88188839, -1.49149537
62497, -2.5490222, -1.29843283
62498, -2.25414681, -1.12740517
62499, -1.99292672, -0.975897491
62500, -1.7615205, -0.841681898
62501, -1.55652535, -0.722784698
62502, -1.37492692, -0.617457628
62503, -1.21405494, -0.524151862
62504, -1.07154381, -0.441495419
62505, -0.945297956, -0.368272811
62506, -0.833460927, -0.303407311
62507, -0.734388173, -0.245945141
62508, -0.646622956, -0.195041314
62509, -0.568874657, -0.149947286
62510, -5.31125355, -2.63684273
62511, -4.70111609, -2.31513381
62512, -4.16061544, -2.03014278
62513, -3.68180394, -1.77767837
62514, -3.2576406, -1.55402875
62515, -2.88188839, -1.35590482
62516, -2.5490222, -1.18039346
62517, -2.25414681, -1.02491379
62518, -1.99292672, -0.887179554
62519, -1.7615205, -0.765165329
62520, -1.55652535, -0.657077014
62521, -1.37492692, -0.561325133
62522, -1.21405494, -0.476501703
62523, -1.07154381, -0.401359469
62524, -0.945297956, -0.334793448
62525, -0.833460927, -0.275824845
62526, -0.734388173, -0.2235865
62527, -0.646622956, -0.177310273
62528, -0.568874657, -0.136315718
62529, -5.31125355, -2.37315845
62530, -4.70111609, -2.08362055
62531, -4.16061544, -1.82712841
62532, -3.68180394, -1.59991062
62533, -3.2576406, -1.39862585
62534, -2.88188839, -1.22031438
62535, -2.5490222, -1.06235421
62536, -2.25414681, -0.922422469
62537, -1.99292672, -0.798461616
62538, -1.7615205, -0.68864882
62539, -1.55652535, -0.591369271
62540, -1.37492692, -0.505192578
62541, -1.21405494, -0.428851545
62542, -1.07154381, -0.361223519
62543, -0.945297956, -0.301314116
62544, -0.833460927, -0.248242348
62545, -0.734388173, -0.201227844
62546, -0.646622956, -0.159579247
62547, -0.568874657, -0.122684151
62548, -5.31125355, -2.10947418
62549, -4.70111609, -1.85210717
62550, -4.16061544, -1.62411416
62551, -3.68180394, -1.42214274
62552, -3.2576406, -1.24322295
62553, -2.88188839, -1.08472383
62554, -2.5490222, -0.944314778
62555, -2.25414681, -0.81993109
62556, -1.99292672, -0.709743619
62557, -1.7615205, -0.612132251
62558, -1.55652535, -0.525661588
62559, -1.37492692, -0.449060082
62560, -1.21405494, -0.381201357
62561, -1.07154381, -0.321087569
62562, -0.945297956, -0.267834753
62563, -0.833460927, -0.220659867
62564, -0.734388173, -0.178869188
62565, -0.646622956, -0.141848221
62566, -0.568874657, -0.109052576
62567, -5.31125355, -1.84578991
62568, -4.70111609, -1.62059379
62569, -4.16061544, -1.4210999
62570, -3.68180394, -1.24437487
62571, -3.2576406, -1.08782005
62572, -2.88188839, -0.949133396
62573, -2.5490222, -0.826275468
62574, -2.25414681, -0.717439711
62575, -1.99292672, -0.621025681
62576, -1.7615205, -0.535615742
62577, -1.55652535, -0.459953904
62578, -1.37492692, -0.392927587
62579, -1.21405494, -0.333551198
62580, -1.07154381, -0.280951619
62581, -0.945297956, -0.23435542
62582, -0.833460927, -0.193077385
62583, -0.734388173, -0.156510547
62584, -0.646622956, -0.124117196
62585, -0.568874657, -0.0954210013
62586, -5.31125355, -1.58210564
62587, -4.70111609, -1.38908029
62588, -4.16061544, -1.21808565
62589, -3.68180394, -1.066607
62590, -3.2576406, -0.932417214
62591, -2.88188839, -0.813542902
62592, -2.5490222, -0.708236098
62593, -2.25414681, -0.614948273
62594, -1.99292672, -0.532307744
62595, -1.7615205, -0.459099203
62596, -1.55652535, -0.394246191
62597, -1.37492692, -0.336795062
62598, -1.21405494, -0.28590104
62599, -1.07154381, -0.240815684
62600, -0.945297956, -0.200876072
62601, -0.833460927, -0.165494904
62602, -0.734388173, -0.134151891
62603, -0.646622956, -0.10638617
62604, -0.568874657, -0.081789434
62605, -5.31125355, -1.31842136
62606, -4.70111609, -1.15756691
62607, -4.16061544, -1.01507139
62608, -3.68180394, -0.888839185
62609, -3.2576406, -0.777014375
62610, -2.88188839, -0.677952409
62611, -2.5490222, -0.590196729
62612, -2.25414681, -0.512456894
62613, -1.99292672, -0.443589777
62614, -1.7615205, -0.382582664
62615, -1.55652535, -0.328538507
62616, -1.37492692, -0.280662566
62617, -1.21405494, -0.238250852
62618, -1.07154381, -0.200679734
62619, -0.945297956, -0.167396724
62620, -0.833460927, -0.137912422
62621, -0.734388173, -0.11179325
62622, -0.646622956, -0.0886551365
62623, -0.568874657, -0.0681578591
62624, -5.31125355, -1.05473709
62625, -4.70111609, -0.926053584
62626, -4.16061544, -0.812057078
62627, -3.68180394, -0.711071372
62628, -3.2576406, -0.621611476
62629, -2.88188839, -0.542361915
62630, -2.5490222, -0.472157389
62631, -2.25414681, -0.409965545
62632, -1.99292672, -0.354871809
62633, -1.7615205, -0.306066126
62634, -1.55652535, -0.262830794
62635, -1.37492692, -0.224530041
62636, -1.21405494, -0.190600678
62637, -1.07154381, -0.160543784
62638, -0.945297956, -0.133917376
62639, -0.833460927, -0.110329933
62640, -0.734388173, -0.0894345939
62641, -0.646622956, -0.0709241107
62642, -0.568874657, -0.0545262881
62643, -5.31125355, -0.791052818
62644, -4.70111609, -0.694540143
62645, -4.16061544, -0.609042823
62646, -3.68180394, -0.533303499
62647, -3.2576406, -0.466208607
62648, -2.88188839, -0.406771451
62649, -2.5490222, -0.354118049
62650, -2.25414681, -0.307474136
62651, -1.99292672, -0.266153872
62652, -1.7615205, -0.229549602
62653, -1.55652535, -0.197123095
62654, -1.37492692, -0.168397531
62655, -1.21405494, -0.14295052
62656, -1.07154381, -0.120407842
62657, -0.945297956, -0.100438036
62658, -0.833460927, -0.082747452
62659, -0.734388173, -0.0670759454
62660, -0.646622956, -0.0531930849
62661, -0.568874657, -0.040894717
62662, -5.31125355, -0.527368546
62663, -4.70111609, -0.463026792
62664, -4.16061544, -0.406028539
62665, -3.68180394, -0.355535686
62666, -3.2576406, -0.310805738
62667, -2.88188839, -0.271180958
62668, -2.5490222, -0.236078694
62669, -2.25414681, -0.204982772
62670, -1.99292672, -0.177435905
62671, -1.7615205, -0.153033063
62672, -1.55652535, -0.131415397
62673, -1.37492692, -0.112265021
62674, -1.21405494, -0.0953003392
62675, -1.07154381, -0.0802718922
62676, -0.945297956, -0.0669586882
62677, -0.833460927, -0.0551649667
62678, -0.734388173, -0.044717297
62679, -0.646622956, -0.0354620554
62680, -0.568874657, -0.027263144
62681, -5.31125355, -0.263684273
62682, -4.70111609, -0.231513396
62683, -4.16061544, -0.203014269
62684, -3.68180394, -0.177767843
62685, -3.2576406, -0.155402869
62686, -2.88188839, -0.135590479
62687, -2.5490222, -0.118039347
62688, -2.25414681, -0.102491386
62689, -1.99292672, -0.0887179524
62690, -1.7615205, -0.0765165314
62691, -1.55652535, -0.0657076985
62692, -1.37492692, -0.0561325103
62693, -1.21405494, -0.0476501696
62694, -1.07154381, -0.0401359461
62695, -0.945297956, -0.0334793441
62696, -0.833460927, -0.0275824834
62697, -0.734388173, -0.0223586485
62698, -0.646622956, -0.0177310277
62699, -0.568874657, -0.013631572
62700, 0.568874657, -0.013631572
62701, 0.568874657, -0.027263144
62702, 0.568874657, -0.040894717
62703, 0.568874657, -0.0545262881
62704, 0.568874657, -0.0681578591
62705, 0.568874657, -0.081789434
62706, 0.568874657, -0.0954210013
62707, 0.568874657, -0.109052576
62708, 0.568874657, -0.122684151
62709, 0.568874657, -0.136315718
62710, 0.568874657, -0.149947286
62711, 0.568874657, -0.163578868
62712, 0.568874657, -0.177210435
62713, 0.568874657, -0.190842003
62714, 0.568874657, -0.204473585
62715, 0.568874657, -0.218105152
62716, 0.568874657, -0.23173672
62717, 0.568874657, -0.245368302
62718, 0.568874657, -0.258999854
62719, 0.646622956, -0.0177310277
62720, 0.646622956, -0.0354620554
62721, 0.646622956, -0.0531930849
62722, 0.646622956, -0.0709241107
62723, 0.646622956, -0.0886551365
62724, 0.646622956, -0.10638617
62725, 0.646622956, -0.124117196
62726, 0.646622956, -0.141848221
62727, 0.646622956, -0.159579247
62728, 0.646622956, -0.177310273
62729, 0.646622956, -0.195041314
62730, 0.646622956, -0.21277234
62731, 0.646622956, -0.230503365
62732, 0.646622956, -0.248234391
62733, 0.646622956, -0.265965432
62734, 0.646622956, -0.283696443
62735, 0.646622956, -0.301427484
62736, 0.646622956, -0.319158494
62737, 0.646622956, -0.336889535
62738, 0.734388173, -0.0223586485
62739, 0.734388173, -0.044717297
62740, 0.734388173, -0.0670759454
62741, 0.734388173, -0.0894345939
62742, 0.734388173, -0.11179325
62743, 0.734388173, -0.134151891
62744, 0.734388173, -0.156510547
62745, 0.734388173, -0.178869188
62746, 0.734388173, -0.201227844
62747, 0.734388173, -0.2235865
62748, 0.734388173, -0.245945141
62749, 0.734388173, -0.268303782
62750, 0.734388173, -0.290662438
62751, 0.734388173, -0.313021094
62752, 0.734388173, -0.33537975
62753, 0.734388173, -0.357738376
62754, 0.734388173, -0.380097032
62755, 0.734388173, -0.402455688
62756, 0.734388173, -0.424814343
62757, 0.833460927, -0.0275824834
62758, 0.833460927, -0.0551649667
62759, 0.833460927, -0.082747452
62760, 0.833460927, -0.110329933
62761, 0.833460927, -0.137912422
62762, 0.833460927, -0.165494904
62763, 0.833460927, -0.193077385
62764, 0.833460927, -0.220659867
62765, 0.833460927, -0.248242348
62766, 0.833460927, -0.275824845
62767, 0.833460927, -0.303407311
62768, 0.833460927, -0.330989808
62769, 0.833460927, -0.358572274
62770, 0.833460927, -0.386154771
62771, 0.833460927, -0.413737267
62772, 0.833460927, -0.441319734
62773, 0.833460927, -0.46890223
62774, 0.833460927, -0.496484697
62775, 0.833460927, -0.524067163
62776, 0.945297956, -0.0334793441
62777, 0.945297956, -0.0669586882
62778, 0.945297956, -0.100438036
62779, 0.945297956, -0.133917376
62780, 0.945297956, -0.167396724
62781, 0.945297956, -0.200876072
62782, 0.945297956, -0.23435542
62783, 0.945297956, -0.267834753
62784, 0.945297956, -0.301314116
62785, 0.945297956, -0.334793448
62786, 0.945297956, -0.368272811
62787, 0.945297956, -0.401752144
62788, 0.945297956, -0.435231507
62789, 0.945297956, -0.46871084
62790, 0.945297956, -0.502190173
62791, 0.945297956, -0.535669506
62792, 0.945297956, -0.569148898
62793, 0.945297956, -0.602628231
62794, 0.945297956, -0.636107564
62795, 1.07154381, -0.0401359461
62796, 1.07154381, -0.0802718922
62797, 1.07154381, -0.120407842
62798, 1.07154381, -0.160543784
62799, 1.07154381, -0.200679734
62800, 1.07154381, -0.240815684
62801, 1.07154381, -0.280951619
62802, 1.07154381, -0.321087569
62803, 1.07154381, -0.361223519
62804, 1.07154381, -0.401359469
62805, 1.07154381, -0.441495419
62806, 1.07154381, -0.481631368
62807, 1.07154381, -0.521767318
62808, 1.07154381, -0.561903238
62809, 1.07154381, -0.602039218
62810, 1.07154381, -0.642175138
62811, 1.07154381, -0.682311118
62812, 1.07154381, -0.722447038
62813, 1.07154381, -0.762583017
62814, 1.21405494, -0.0476501696
62815, 1.21405494, -0.0953003392
62816, 1.21405494, -0.14295052
62817, 1.21405494, -0.190600678
62818, 1.21405494, -0.238250852
62819, 1.21405494, -0.28590104
62820, 1.21405494, -0.333551198
62821, 1.21405494, -0.381201357
62822, 1.21405494, -0.428851545
62823, 1.21405494, -0.476501703
62824, 1.21405494, -0.524151862
62825, 1.21405494, -0.57180208
62826, 1.21405494, -0.619452238
62827, 1.21405494, -0.667102396
62828, 1.21405494, -0.714752555
62829, 1.21405494, -0.762402713
62830, 1.21405494, -0.810052931
62831, 1.21405494, -0.85770309
62832, 1.21405494, -0.905353248
62833, 1.37492692, -0.0561325103
62834, 1.37492692, -0.112265021
62835, 1.37492692, -0.168397531
62836, 1.37492692, -0.224530041
62837, 1.37492692, -0.280662566
62838, 1.37492692, -0.336795062
62839, 1.37492692, -0.392927587
62840, 1.37492692, -0.449060082
62841, 1.37492692, -0.505192578
62842, 1.37492692, -0.561325133
62843, 1.37492692, -0.617457628
62844, 1.37492692, -0.673590124
62845, 1.37492692, -0.729722679
62846, 1.37492692, -0.785855174
62847, 1.37492692, -0.841987669
62848, 1.37492692, -0.898120165
62849, 1.37492692, -0.95425272
62850, 1.37492692, -1.01038516
62851, 1.37492692, -1.06651771
62852, 1.55652535, -0.0657076985
62853, 1.55652535, -0.131415397
62854, 1.55652535, -0.197123095
62855, 1.55652535, -0.262830794
62856, 1.55652535, -0.328538507
62857, 1.55652535, -0.394246191
62858, 1.55652535, -0.459953904
62859, 1.55652535, -0.525661588
62860, 1.55652535, -0.591369271
62861, 1.55652535, -0.657077014
62862, 1.55652535, -0.722784698
62863, 1.55652535, -0.788492382
62864, 1.55652535, -0.854200065
62865, 1.55652535, -0.919907808
62866, 1.55652535, -0.985615492
62867, 1.55652535, -1.05132318
62868, 1.55652535, -1.11703086
62869, 1.55652535, -1.18273854
62870, 1.55652535, -1.24844623
62871, 1.7615205, -0.0765165314
62872, 1.7615205, -0.153033063
62873, 1.7615205, -0.229549602
62874, 1.7615205, -0.306066126
62875, 1.7615205, -0.382582664
62876, 1.7615205, -0.459099203
62877, 1.7615205, -0.535615742
62878, 1.7615205, -0.612132251
62879, 1.7615205, -0.68864882
62880, 1.7615205, -0.765165329
62881, 1.7615205, -0.841681898
62882, 1.7615205, -0.918198407
62883, 1.7615205, -0.994714916
62884, 1.7615205, -1.07123148
62885, 1.7615205, -1.14774799
62886, 1.7615205, -1.2242645
62887, 1.7615205, -1.30078113
62888, 1.7615205, -1.37729764
62889, 1.7615205, -1.45381415
62890, 1.99292672, -0.0887179524
62891, 1.99292672, -0.177435905
62892, 1.99292672, -0.266153872
62893, 1.99292672, -0.354871809
62894, 1.99292672, -0.443589777
62895, 1.99292672, -0.532307744
62896, 1.99292672, -0.621025681
62897, 1.99292672, -0.709743619
62898, 1.99292672, -0.798461616
62899, 1.99292672, -0.887179554
62900, 1.99292672, -0.975897491
62901, 1.99292672, -1.06461549
62902, 1.99292672, -1.15333343
62903, 1.99292672, -1.24205136
62904, 1.99292672, -1.3307693
62905, 1.99292672, -1.41948724
62906, 1.99292672, -1.50820529
62907, 1.99292672, -1.59692323
62908, 1.99292672, -1.68564117
62909, 2.25414681, -0.102491386
62910, 2.25414681, -0.204982772
62911, 2.25414681, -0.307474136
62912, 2.25414681, -0.409965545
62913, 2.25414681, -0.512456894
62914, 2.25414681, -0.614948273
62915, 2.25414681, -0.717439711
62916, 2.25414681, -0.81993109
62917, 2.25414681, -0.922422469
62918, 2.25414681, -1.02491379
62919, 2.25414681, -1.12740517
62920, 2.25414681, -1.22989655
62921, 2.25414681, -1.33238792
62922, 2.25414681, -1.43487942
62923, 2.25414681, -1.5373708
62924, 2.25414681, -1.63986218
62925, 2.25414681, -1.74235356
62926, 2.25414681, -1.84484494
62927, 2.25414681, -1.94733632
62928, 2.5490222, -0.118039347
62929, 2.5490222, -0.236078694
62930, 2.5490222, -0.354118049
62931, 2.5490222, -0.472157389
62932, 2.5490222, -0.590196729
62933, 2.5490222, -0.708236098
62934, 2.5490222, -0.826275468
62935, 2.5490222, -0.944314778
62936, 2.5490222, -1.06235421
62937, 2.5490222, -1.18039346
62938, 2.5490222, -1.29843283
62939, 2.5490222, -1.4164722
62940, 2.5490222, -1.53451157
62941, 2.5490222, -1.65255094
62942, 2.5490222, -1.77059031
62943, 2.5490222, -1.88862956
62944, 2.5490222, -2.00666904
62945, 2.5490222, -2.12470841
62946, 2.5490222, -2.24274755
62947, 2.88188839, -0.135590479
62948, 2.88188839, -0.271180958
62949, 2.88188839, -0.406771451
62950, 2.88188839, -0.542361915
62951, 2.88188839, -0.677952409
62952, 2.88188839, -0.813542902
62953, 2.88188839, -0.949133396
62954, 2.88188839, -1.08472383
62955, 2.88188839, -1.22031438
62956, 2.88188839, -1.35590482
62957, 2.88188839, -1.49149537
62958, 2.88188839, -1.6270858
62959, 2.88188839, -1.76267624
62960, 2.88188839, -1.89826679
62961, 2.88188839, -2.03385735
62962, 2.88188839, -2.16944766
62963, 2.88188839, -2.30503821
62964, 2.88188839, -2.44062877
62965, 2.88188839, -2.57621908
62966, 3.2576406, -0.155402869
62967, 3.2576406, -0.310805738
62968, 3.2576406, -0.466208607
62969, 3.2576406, -0.621611476
62970, 3.2576406, -0.777014375
62971, 3.2576406, -0.932417214
62972, 3.2576406, -1.08782005
62973, 3.2576406, -1.24322295
62974, 3.2576406, -1.39862585
62975, 3.2576406, -1.55402875
62976, 3.2576406, -1.70943153
62977, 3.2576406, -1.86483443
62978, 3.2576406, -2.02023721
62979, 3.2576406, -2.17564011
62980, 3.2576406, -2.331043
62981, 3.2576406, -2.4864459
62982, 3.2576406, -2.6418488
62983, 3.2576406, -2.7972517
62984, 3.2576406, -2.9526546
62985, 3.68180394, -0.177767843
62986, 3.68180394, -0.355535686
62987, 3.68180394, -0.533303499
62988, 3.68180394, -0.711071372
62989, 3.68180394, -0.888839185
62990, 3.68180394, -1.066607
62991, 3.68180394, -1.24437487
62992, 3.68180394, -1.42214274
62993, 3.68180394, -1.59991062
62994, 3.68180394, -1.77767837
62995, 3.68180394, -1.95544624
62996, 3.68180394, -2.133214
62997, 3.68180394, -2.31098199
62998, 3.68180394, -2.48874974
62999, 3.68180394, -2.6665175
63000, 3.68180394, -2.84428549
63001, 3.68180394, -3.02205324
63002, 3.68180394, -3.19982123
63003, 3.68180394, -3.37758899
63004, 4.16061544, -0.203014269
63005, 4.16061544, -0.406028539
63006, 4.16061544, -0.609042823
63007, 4.16061544, -0.812057078
63008, 4.16061544, -1.01507139
63009, 4.16061544, -1.21808565
63010, 4.16061544, -1.4210999
63011, 4.16061544, -1.62411416
63012, 4.16061544, -1.82712841
63013, 4.16061544, -2.03014278
63014, 4.16061544, -2.23315692
63015, 4.16061544, -2.43617129
63016, 4.16061544, -2.63918543
63017, 4.16061544, -2.8421998
63018, 4.16061544, -3.04521394
63019, 4.16061544, -3.24822831
63020, 4.16061544, -3.45124245
63021, 4.16061544, -3.65425682
63022, 4.16061544, -3.85727096
63023, 4.70111609, -0.231513396
63024, 4.70111609, -0.463026792
63025, 4.70111609, -0.694540143
63026, 4.70111609, -0.926053584
63027, 4.70111609, -1.15756691
63028, 4.70111609, -1.38908029
63029, 4.70111609, -1.62059379
63030, 4.70111609, -1.85210717
63031, 4.70111609, -2.08362055
63032, 4.70111609, -2.31513381
63033, 4.70111609, -2.54664731
63034, 4.70111609, -2.77816057
63035, 4.70111609, -3.00967407
63036, 4.70111609, -3.24118757
63037, 4.70111609, -3.47270083
63038, 4.70111609, -3.70421433
63039, 4.70111609, -3.9357276
63040, 4.70111609, -4.1672411
63041, 4.70111609, -4.3987546
63042, 5.31125355, -0.263684273
63043, 5.31125355, -0.527368546
63044, 5.31125355, -0.791052818
63045, 5.31125355, -1.05473709
63046, 5.31125355, -1.31842136
63047, 5.31125355, -1.58210564
63048, 5.31125355, -1.84578991
63049, 5.31125355, -2.10947418
63050, 5.31125355, -2.37315845
63051, 5.31125355, -2.63684273
63052, 5.31125355, -2.900527
63053, 5.31125355, -3.16421127
63054, 5.31125355, -3.42789555
63055, 5.31125355, -3.69157982
63056, 5.31125355, -3.95526409
63057, 5.31125355, -4.21894836
63058, 5.31125355, -4.48263264
63059, 5.31125355, -4.74631691
63060, 5.31125355, -5.01000118
63061, 0.49000001, -0.189999998
63062, 0.49000001, -0.180000007
63063, 0.49000001, -0.170000002
63064, 0.49000001, -0.159999996
63065, 0.49000001, -0.150000006
63066, 0.49000001, -0.140000001
63067, 0.49000001, -0.129999995
63068, 0.49000001, -0.119999997
63069, 0.49000001, -0.109999999
63070, 0.49000001, -0.100000001
63071, 0.49000001, -0.0900000036
63072, 0.49000001, -0.0799999982
63073, 0.49000001, -0.0700000003
63074, 0.49000001, -0.0599999987
63075, 0.49000001, -0.0500000007
63076, 0.49000001, -0.0399999991
63077, 0.49000001, -0.0299999993
63078, 0.49000001, -0.0199999996
63079, 0.49000001, -0.00999999978
63080, 0.479999989, -0.189999998
63081, 0.479999989, -0.180000007
63082, 0.479999989, -0.170000002
63083, 0.479999989, -0.159999996
63084, 0.479999989, -0.150000006
63085, 0.479999989, -0.140000001
63086, 0.479999989, -0.129999995
63087, 0.479999989, -0.119999997
63088, 0.479999989, -0.109999999
63089, 0.479999989, -0.100000001
63090, 0.479999989, -0.0900000036
63091, 0.479999989, -0.0799999982
63092, 0.479999989, -0.0700000003
63093, 0.479999989, -0.0599999987
63094, 0.479999989, -0.0500000007
63095, 0.479999989, -0.0399999991
63096, 0.479999989, -0.0299999993
63097, 0.479999989, -0.0199999996
63098, 0.479999989, -0.00999999978
63099, 0.469999999, -0.189999998
63100, 0.469999999, -0.180000007
63101, 0.469999999, -0.170000002
63102, 0.469999999, -0.159999996
63103, 0.469999999, -0.150000006
63104, 0.469999999, -0.140000001
63105, 0.469999999, -0.129999995
63106, 0.469999999, -0.119999997
63107, 0.469999999, -0.109999999
63108, 0.469999999, -0.100000001
63109, 0.469999999, -0.0900000036
63110, 0.469999999, -0.0799999982
63111, 0.469999999, -0.0700000003
63112, 0.469999999, -0.0599999987
63113, 0.469999999, -0.0500000007
63114, 0.469999999, -0.0399999991
63115, 0.469999999, -0.0299999993
63116, 0.469999999, -0.0199999996
63117, 0.469999999, -0.00999999978
63118, 0.460000008, -0.189999998
63119, 0.460000008, -0.180000007
63120, 0.460000008, -0.170000002
63121, 0.460000008, -0.159999996
63122, 0.460000008, -0.150000006
63123, 0.460000008, -0.140000001
63124, 0.460000008, -0.129999995
63125, 0.460000008, -0.119999997
63126, 0.460000008, -0.109999999
63127, 0.460000008, -0.100000001
63128, 0.460000008, -0.0900000036
63129, 0.460000008, -0.0799999982
63130, 0.460000008, -0.0700000003
63131, 0.460000008, -0.0599999987
63132, 0.460000008, -0.0500000007
63133, 0.460000008, -0.0399999991
63134, 0.460000008, -0.0299999993
63135, 0.460000008, -0.0199999996
63136, 0.460000008, -0.00999999978
63137, 0.449999988, -0.189999998
63138, 0.449999988, -0.180000007
63139, 0.449999988, -0.170000002
63140, 0.449999988, -0.159999996
63141, 0.449999988, -0.150000006
63142, 0.449999988, -0.140000001
63143, 0.449999988, -0.129999995
63144, 0.449999988, -0.119999997
63145, 0.449999988, -0.109999999
63146, 0.449999988, -0.100000001
63147, 0.449999988, -0.0900000036
63148, 0.449999988, -0.0799999982
63149, 0.449999988, -0.0700000003
63150, 0.449999988, -0.0599999987
63151, 0.449999988, -0.0500000007
63152, 0.449999988, -0.0399999991
63153, 0.449999988, -0.0299999993
63154, 0.449999988, -0.0199999996
63155, 0.449999988, -0.00999999978
63156, 0.439999998, -0.189999998
63157, 0.439999998, -0.180000007
63158, 0.439999998, -0.170000002
63159, 0.439999998, -0.159999996
63160, 0.439999998, -0.150000006
63161, 0.439999998, -0.140000001
63162, 0.439999998, -0.129999995
63163, 0.439999998, -0.119999997
63164, 0.439999998, -0.109999999
63165, 0.439999998, -0.100000001
63166, 0.439999998, -0.0900000036
63167, 0.439999998, -0.0799999982
63168, 0.439999998, -0.0700000003
63169, 0.439999998, -0.0599999987
63170, 0.439999998, -0.0500000007
63171, 0.439999998, -0.0399999991
63172, 0.439999998, -0.0299999993
63173, 0.439999998, -0.0199999996
63174, 0.439999998, -0.00999999978
63175, 0.430000007, -0.189999998
63176, 0.430000007, -0.180000007
63177, 0.430000007, -0.170000002
63178, 0.430000007, -0.159999996
63179, 0.430000007, -0.150000006
63180, 0.430000007, -0.140000001
63181, 0.430000007, -0.129999995
63182, 0.430000007, -0.119999997
63183, 0.430000007, -0.109999999
63184, 0.430000007, -0.100000001
63185, 0.430000007, -0.0900000036
63186, 0.430000007, -0.0799999982
63187, 0.430000007, -0.0700000003
63188, 0.430000007, -0.0599999987
63189, 0.430000007, -0.0500000007
63190, 0.430000007, -0.0399999991
63191, 0.430000007, -0.0299999993
63192, 0.430000007, -0.0199999996
63193, 0.430000007, -0.00999999978
63194, 0.419999987, -0.189999998
63195, 0.419999987, -0.180000007
63196, 0.419999987, -0.170000002
63197, 0.419999987, -0.159999996
63198, 0.419999987, -0.150000006
63199, 0.419999987, -0.140000001
63200, 0.419999987, -0.129999995
63201, 0.419999987, -0.119999997
63202, 0.419999987, -0.109999999
63203, 0.419999987, -0.100000001
63204, 0.419999987, -0.0900000036
63205, 0.419999987, -0.0799999982
63206, 0.419999987, -0.0700000003
63207, 0.419999987, -0.0599999987
63208, 0.419999987, -0.0500000007
63209, 0.419999987, -0.0399999991
63210, 0.419999987, -0.0299999993
63211, 0.419999987, -0.0199999996
63212, 0.419999987, -0.00999999978
63213, 0.409999996, -0.189999998
63214, 0.409999996, -0.180000007
63215, 0.409999996, -0.170000002
63216, 0.409999996, -0.159999996
63217, 0.409999996, -0.150000006
63218, 0.409999996, -0.140000001
63219, 0.409999996, -0.129999995
63220, 0.409999996, -0.119999997
63221, 0.409999996, -0.109999999
63222, 0.409999996, -0.100000001
63223, 0.409999996, -0.0900000036
63224, 0.409999996, -0.0799999982
63225, 0.409999996, -0.0700000003
63226, 0.409999996, -0.0599999987
63227, 0.409999996, -0.0500000007
63228, 0.409999996, -0.0399999991
63229, 0.409999996, -0.0299999993
63230, 0.409999996, -0.0199999996
63231, 0.409999996, -0.00999999978
63232, 0.400000006, -0.189999998
63233, 0.400000006, -0.180000007
63234, 0.400000006, -0.170000002
63235, 0.400000006, -0.159999996
63236, 0.400000006, -0.150000006
63237, 0.400000006, -0.140000001
63238, 0.400000006, -0.129999995
63239, 0.400000006, -0.119999997
63240, 0.400000006, -0.109999999
63241, 0.400000006, -0.100000001
63242, 0.400000006, -0.0900000036
63243, 0.400000006, -0.0799999982
63244, 0.400000006, -0.0700000003
63245, 0.400000006, -0.0599999987
63246, 0.400000006, -0.0500000007
63247, 0.400000006, -0.0399999991
63248, 0.400000006, -0.0299999993
63249, 0.400000006, -0.0199999996
63250, 0.400000006, -0.00999999978
63251, 0.389999986, -0.189999998
63252, 0.389999986, -0.180000007
63253, 0.389999986, -0.170000002
63254, 0.389999986, -0.159999996
63255, 0.389999986, -0.150000006
63256, 0.389999986, -0.140000001
63257, 0.389999986, -0.129999995
63258, 0.389999986, -0.119999997
63259, 0.389999986, -0.109999999
63260, 0.389999986, -0.100000001
63261, 0.389999986, -0.0900000036
63262, 0.389999986, -0.0799999982
63263, 0.389999986, -0.0700000003
63264, 0.389999986, -0.0599999987
63265, 0.389999986, -0.0500000007
63266, 0.389999986, -0.0399999991
63267, 0.389999986, -0.0299999993
63268, 0.389999986, -0.0199999996
63269, 0.389999986, -0.00999999978
63270, 0.379999995, -0.189999998
63271, 0.379999995, -0.180000007
63272, 0.379999995, -0.170000002
63273, 0.379999995, -0.159999996
63274, 0.379999995, -0.150000006
63275, 0.379999995, -0.140000001
63276, 0.379999995, -0.129999995
63277, 0.379999995, -0.119999997
63278, 0.379999995, -0.109999999
63279, 0.379999995, -0.100000001
63280, 0.379999995, -0.0900000036
63281, 0.379999995, -0.0799999982
63282, 0.379999995, -0.0700000003
63283, 0.379999995, -0.0599999987
63284, 0.379999995, -0.0500000007
63285, 0.379999995, -0.0399999991
63286, 0.379999995, -0.0299999993
63287, 0.379999995, -0.0199999996
63288, 0.379999995, -0.00999999978
63289, 0.370000005, -0.189999998
63290, 0.370000005, -0.180000007
63291, 0.370000005, -0.170000002
63292, 0.370000005, -0.159999996
63293, 0.370000005, -0.150000006
63294, 0.370000005, -0.140000001
63295, 0.370000005, -0.129999995
63296, 0.370000005, -0.119999997
63297, 0.370000005, -0.109999999
63298, 0.370000005, -0.100000001
63299, 0.370000005, -0.0900000036
63300, 0.370000005, -0.0799999982
63301, 0.370000005, -0.0700000003
63302, 0.370000005, -0.0599999987
63303, 0.370000005, -0.0500000007
63304, 0.370000005, -0.0399999991
63305, 0.370000005, -0.0299999993
63306, 0.370000005, -0.0199999996
63307, 0.370000005, -0.00999999978
63308, 0.360000014, -0.189999998
63309, 0.360000014, -0.180000007
63310, 0.360000014, -0.170000002
63311, 0.360000014, -0.159999996
63312, 0.360000014, -0.150000006
63313, 0.360000014, -0.140000001
63314, 0.360000014, -0.129999995
63315, 0.360000014, -0.119999997
63316, 0.360000014, -0.109999999
63317, 0.360000014, -0.100000001
63318, 0.360000014, -0.0900000036
63319, 0.360000014, -0.0799999982
63320, 0.360000014, -0.0700000003
63321, 0.360000014, -0.0599999987
63322, 0.360000014, -0.0500000007
63323, 0.360000014, -0.0399999991
63324, 0.360000014, -0.0299999993
63325, 0.360000014, -0.0199999996
63326, 0.360000014, -0.00999999978
63327, 0.349999994, -0.189999998
63328, 0.349999994, -0.180000007
63329, 0.349999994, -0.170000002
63330, 0.349999994, -0.159999996
63331, 0.349999994, -0.150000006
63332, 0.349999994, -0.140000001
63333, 0.349999994, -0.129999995
63334, 0.349999994, -0.119999997
63335, 0.349999994, -0.109999999
63336, 0.349999994, -0.100000001
63337, 0.349999994, -0.0900000036
63338, 0.349999994, -0.0799999982
63339, 0.349999994, -0.0700000003
63340, 0.349999994, -0.0599999987
63341, 0.349999994, -0.0500000007
63342, 0.349999994, -0.0399999991
63343, 0.349999994, -0.0299999993
63344, 0.349999994, -0.0199999996
63345, 0.349999994, -0.00999999978
63346, 0.340000004, -0.189999998
63347, 0.340000004, -0.180000007
63348, 0.340000004, -0.170000002
63349, 0.340000004, -0.159999996
63350, 0.340000004, -0.150000006
63351, 0.340000004, -0.140000001
63352, 0.340000004, -0.129999995
63353, 0.340000004, -0.119999997
63354, 0.340000004, -0.109999999
63355, 0.340000004, -0.100000001
63356, 0.340000004, -0.0900000036
63357, 0.340000004, -0.0799999982
63358, 0.340000004, -0.0700000003
63359, 0.340000004, -0.0599999987
63360, 0.340000004, -0.0500000007
63361, 0.340000004, -0.0399999991
63362, 0.340000004, -0.0299999993
63363, 0.340000004, -0.0199999996
63364, 0.340000004, -0.00999999978
63365, 0.330000013, -0.189999998
63366, 0.330000013, -0.180000007
63367, 0.330000013, -0.170000002
63368, 0.330000013, -0.159999996
63369, 0.330000013, -0.150000006
63370, 0.330000013, -0.140000001
63371, 0.330000013, -0.129999995
63372, 0.330000013, -0.119999997
63373, 0.330000013, -0.109999999
63374, 0.330000013, -0.100000001
63375, 0.330000013, -0.0900000036
63376, 0.330000013, -0.0799999982
63377, 0.330000013, -0.0700000003
63378, 0.330000013, -0.0599999987
63379, 0.330000013, -0.0500000007
63380, 0.330000013, -0.0399999991
63381, 0.330000013, -0.0299999993
63382, 0.330000013, -0.0199999996
63383, 0.330000013, -0.00999999978
63384, 0.319999993, -0.189999998
63385, 0.319999993, -0.180000007
63386, 0.319999993, -0.170000002
63387, 0.319999993, -0.159999996
63388, 0.319999993, -0.150000006
63389, 0.319999993, -0.140000001
63390, 0.319999993, -0.129999995
63391, 0.319999993, -0.119999997
63392, 0.319999993, -0.109999999
63393, 0.319999993, -0.100000001
63394, 0.319999993, -0.0900000036
63395, 0.319999993, -0.0799999982
63396, 0.319999993, -0.0700000003
63397, 0.319999993, -0.0599999987
63398, 0.319999993, -0.0500000007
63399, 0.319999993, -0.0399999991
63400, 0.319999993, -0.0299999993
63401, 0.319999993, -0.0199999996
63402, 0.319999993, -0.00999999978
63403, 0.310000002, -0.189999998
63404, 0.310000002, -0.180000007
63405, 0.310000002, -0.170000002
63406, 0.310000002, -0.159999996
63407, 0.310000002, -0.150000006
63408, 0.310000002, -0.140000001
63409, 0.310000002, -0.129999995
63410, 0.310000002, -0.119999997
63411, 0.310000002, -0.109999999
63412, 0.310000002, -0.100000001
63413, 0.310000002, -0.0900000036
63414, 0.310000002, -0.0799999982
63415, 0.310000002, -0.0700000003
63416, 0.310000002, -0.0599999987
63417, 0.310000002, -0.0500000007
63418, 0.310000002, -0.0399999991
63419, 0.310000002, -0.0299999993
63420, 0.310000002, -0.0199999996
63421, 0.310000002, -0.00999999978
63422, 0.300000012, -0.189999998
63423, 0.300000012, -0.180000007
63424, 0.300000012, -0.170000002
63425, 0.300000012, -0.159999996
63426, 0.300000012, -0.150000006
63427, 0.300000012, -0.140000001
63428, 0.300000012, -0.129999995
63429, 0.300000012, -0.119999997
63430, 0.300000012, -0.109999999
63431, 0.300000012, -0.100000001
63432, 0.300000012, -0.0900000036
63433, 0.300000012, -0.0799999982
63434, 0.300000012, -0.0700000003
63435, 0.300000012, -0.0599999987
63436, 0.300000012, -0.0500000007
63437, 0.300000012, -0.0399999991
63438, 0.300000012, -0.0299999993
63439, 0.300000012, -0.0199999996
63440, 0.300000012, -0.00999999978
63441, 0.289999992, -0.189999998
63442, 0.289999992, -0.180000007
63443, 0.289999992, -0.170000002
63444, 0.289999992, -0.159999996
63445, 0.289999992, -0.150000006
63446, 0.289999992, -0.140000001
63447, 0.289999992, -0.129999995
63448, 0.289999992, -0.119999997
63449, 0.289999992, -0.109999999
63450, 0.289999992, -0.100000001
63451, 0.289999992, -0.0900000036
63452, 0.289999992, -0.0799999982
63453, 0.289999992, -0.0700000003
63454, 0.289999992, -0.0599999987
63455, 0.289999992, -0.0500000007
63456, 0.289999992, -0.0399999991
63457, 0.289999992, -0.0299999993
63458, 0.289999992, -0.0199999996
63459, 0.289999992, -0.00999999978
63460, 0.280000001, -0.189999998
63461, 0.280000001, -0.180000007
63462, 0.280000001, -0.170000002
63463, 0.280000001, -0.159999996
63464, 0.280000001, -0.150000006
63465, 0.280000001, -0.140000001
63466, 0.280000001, -0.129999995
63467, 0.280000001, -0.119999997
63468, 0.280000001, -0.109999999
63469, 0.280000001, -0.100000001
63470, 0.280000001, -0.0900000036
63471, 0.280000001, -0.0799999982
63472, 0.280000001, -0.0700000003
63473, 0.280000001, -0.0599999987
63474, 0.280000001, -0.0500000007
63475, 0.280000001, -0.0399999991
63476, 0.280000001, -0.0299999993
63477, 0.280000001, -0.0199999996
63478, 0.280000001, -0.00999999978
63479, 0.270000011, -0.189999998
63480, 0.270000011, -0.180000007
63481, 0.270000011, -0.170000002
63482, 0.270000011, -0.159999996
63483, 0.270000011, -0.150000006
63484, 0.270000011, -0.140000001
63485, 0.270000011, -0.129999995
63486, 0.270000011, -0.119999997
63487, 0.270000011, -0.109999999
63488, 0.270000011, -0.100000001
63489, 0.270000011, -0.0900000036
63490, 0.270000011, -0.0799999982
63491, 0.270000011, -0.0700000003
63492, 0.270000011, -0.0599999987
63493, 0.270000011, -0.0500000007
63494, 0.270000011, -0.0399999991
63495, 0.270000011, -0.0299999993
63496, 0.270000011, -0.0199999996
63497, 0.270000011, -0.00999999978
63498, 0.25999999, -0.189999998
63499, 0.25999999, -0.180000007
63500, 0.25999999, -0.170000002
63501, 0.25999999, -0.159999996
63502, 0.25999999, -0.150000006
63503, 0.25999999, -0.140000001
63504, 0.25999999, -0.129999995
63505, 0.25999999, -0.119999997
63506, 0.25999999, -0.109999999
63507, 0.25999999, -0.100000001
63508, 0.25999999, -0.0900000036
63509, 0.25999999, -0.0799999982
63510, 0.25999999, -0.0700000003
63511, 0.25999999, -0.0599999987
63512, 0.25999999, -0.0500000007
63513, 0.25999999, -0.0399999991
63514, 0.25999999, -0.0299999993
63515, 0.25999999, -0.0199999996
63516, 0.25999999, -0.00999999978
63517, 0.25, -0.189999998
63518, 0.25, -0.180000007
63519, 0.25, -0.170000002
63520, 0.25, -0.159999996
63521, 0.25, -0.150000006
63522, 0.25, -0.140000001
63523, 0.25, -0.129999995
63524, 0.25, -0.119999997
63525, 0.25, -0.109999999
63526, 0.25, -0.100000001
63527, 0.25, -0.0900000036
63528, 0.25, -0.0799999982
63529, 0.25, -0.0700000003
63530, 0.25, -0.0599999987
63531, 0.25, -0.0500000007
63532, 0.25, -0.0399999991
63533, 0.25, -0.0299999993
63534, 0.25, -0.0199999996
63535, 0.25, -0.00999999978
63536, 0.239999995, -0.189999998
63537, 0.239999995, -0.180000007
63538, 0.239999995, -0.170000002
63539, 0.239999995, -0.159999996
63540, 0.239999995, -0.150000006
63541, 0.239999995, -0.140000001
63542, 0.239999995, -0.129999995
63543, 0.239999995, -0.119999997
63544, 0.239999995, -0.109999999
63545, 0.239999995, -0.100000001
63546, 0.239999995, -0.0900000036
63547, 0.239999995, -0.0799999982
63548, 0.239999995, -0.0700000003
63549, 0.239999995, -0.0599999987
63550, 0.239999995, -0.0500000007
63551, 0.239999995, -0.0399999991
63552, 0.239999995, -0.0299999993
63553, 0.239999995, -0.0199999996
63554, 0.239999995, -0.00999999978
63555, 0.230000004, -0.189999998
63556, 0.230000004, -0.180000007
63557, 0.230000004, -0.170000002
63558, 0.230000004, -0.159999996
63559, 0.230000004, -0.150000006
63560, 0.230000004, -0.140000001
63561, 0.230000004, -0.129999995
63562, 0.230000004, -0.119999997
63563, 0.230000004, -0.109999999
63564, 0.230000004, -0.100000001
63565, 0.230000004, -0.0900000036
63566, 0.230000004, -0.0799999982
63567, 0.230000004, -0.0700000003
63568, 0.230000004, -0.0599999987
63569, 0.230000004, -0.0500000007
63570, 0.230000004, -0.0399999991
63571, 0.230000004, -0.0299999993
63572, 0.230000004, -0.0199999996
63573, 0.230000004, -0.00999999978
63574, 0.219999999, -0.189999998
63575, 0.219999999, -0.180000007
63576, 0.219999999, -0.170000002
63577, 0.219999999, -0.159999996
63578, 0.219999999, -0.150000006
63579, 0.219999999, -0.140000001
63580, 0.219999999, -0.129999995
63581, 0.219999999, -0.119999997
63582, 0.219999999, -0.109999999
63583, 0.219999999, -0.100000001
63584, 0.219999999, -0.0900000036
63585, 0.219999999, -0.0799999982
63586, 0.219999999, -0.0700000003
63587, 0.219999999, -0.0599999987
63588, 0.219999999, -0.0500000007
63589, 0.219999999, -0.0399999991
63590, 0.219999999, -0.0299999993
63591, 0.219999999, -0.0199999996
63592, 0.219999999, -0.00999999978
63593, 0.209999993, -0.189999998
63594, 0.209999993, -0.180000007
63595, 0.209999993, -0.170000002
63596, 0.209999993, -0.159999996
63597, 0.209999993, -0.150000006
63598, 0.209999993, -0.140000001
63599, 0.209999993, -0.129999995
63600, 0.209999993, -0.119999997
63601, 0.209999993, -0.109999999
63602, 0.209999993, -0.100000001
63603, 0.209999993, -0.0900000036
63604, 0.209999993, -0.0799999982
63605, 0.209999993, -0.0700000003
63606, 0.209999993, -0.0599999987
63607, 0.209999993, -0.0500000007
63608, 0.209999993, -0.0399999991
63609, 0.209999993, -0.0299999993
63610, 0.209999993, -0.0199999996
63611, 0.209999993, -0.00999999978
63612, 0.200000003, -0.189999998
63613, 0.200000003, -0.180000007
63614, 0.200000003, -0.170000002
63615, 0.200000003, -0.159999996
63616, 0.200000003, -0.150000006
63617, 0.200000003, -0.140000001
63618, 0.200000003, -0.129999995
63619, 0.200000003, -0.119999997
63620, 0.200000003, -0.109999999
63621, 0.200000003, -0.100000001
63622, 0.200000003, -0.0900000036
63623, 0.200000003, -0.0799999982
63624, 0.200000003, -0.0700000003
63625, 0.200000003, -0.0599999987
63626, 0.200000003, -0.0500000007
63627, 0.200000003, -0.0399999991
63628, 0.200000003, -0.0299999993
63629, 0.200000003, -0.0199999996
63630, 0.200000003, -0.00999999978
63631, 0.189999998, -0.189999998
63632, 0.189999998, -0.180000007
63633, 0.189999998, -0.170000002
63634, 0.189999998, -0.159999996
63635, 0.189999998, -0.150000006
63636, 0.189999998, -0.140000001
63637, 0.189999998, -0.129999995
63638, 0.189999998, -0.119999997
63639, 0.189999998, -0.109999999
63640, 0.189999998, -0.100000001
63641, 0.189999998, -0.0900000036
63642, 0.189999998, -0.0799999982
63643, 0.189999998, -0.0700000003
63644, 0.189999998, -0.0599999987
63645, 0.189999998, -0.0500000007
63646, 0.189999998, -0.0399999991
63647, 0.189999998, -0.0299999993
63648, 0.189999998, -0.0199999996
63649, 0.189999998, -0.00999999978
63650, 0.180000007, -0.189999998
63651, 0.180000007, -0.180000007
63652, 0.180000007, -0.170000002
63653, 0.180000007, -0.159999996
63654, 0.180000007, -0.150000006
63655, 0.180000007, -0.140000001
63656, 0.180000007, -0.129999995
63657, 0.180000007, -0.119999997
63658, 0.180000007, -0.109999999
63659, 0.180000007, -0.100000001
63660, 0.180000007, -0.0900000036
63661, 0.180000007, -0.0799999982
63662, 0.180000007, -0.0700000003
63663, 0.180000007, -0.0599999987
63664, 0.180000007, -0.0500000007
63665, 0.180000007, -0.0399999991
63666, 0.180000007, -0.0299999993
63667, 0.180000007, -0.0199999996
63668, 0.180000007, -0.00999999978
63669, 0.170000002, -0.189999998
63670, 0.170000002, -0.180000007
63671, 0.170000002, -0.170000002
63672, 0.170000002, -0.159999996
63673, 0.170000002, -0.150000006
63674, 0.170000002, -0.140000001
63675, 0.170000002, -0.129999995
63676, 0.170000002, -0.119999997
63677, 0.170000002, -0.109999999
63678, 0.170000002, -0.100000001
63679, 0.170000002, -0.0900000036
63680, 0.170000002, -0.0799999982
63681, 0.170000002, -0.0700000003
63682, 0.170000002, -0.0599999987
63683, 0.170000002, -0.0500000007
63684, 0.170000002, -0.0399999991
63685, 0.170000002, -0.0299999993
63686, 0.170000002, -0.0199999996
63687, 0.170000002, -0.00999999978
63688, 0.159999996, -0.189999998
63689, 0.159999996, -0.180000007
63690, 0.159999996, -0.170000002
63691, 0.159999996, -0.159999996
63692, 0.159999996, -0.150000006
63693, 0.159999996, -0.140000001
63694, 0.159999996, -0.129999995
63695, 0.159999996, -0.119999997
63696, 0.159999996, -0.109999999
63697, 0.159999996, -0.100000001
63698, 0.159999996, -0.0900000036
63699, 0.159999996, -0.0799999982
63700, 0.159999996, -0.0700000003
63701, 0.159999996, -0.0599999987
63702, 0.159999996, -0.0500000007
63703, 0.159999996, -0.0399999991
63704, 0.159999996, -0.0299999993
63705, 0.159999996, -0.0199999996
63706, 0.159999996, -0.00999999978
63707, 0.150000006, -0.189999998
63708, 0.150000006, -0.180000007
63709, 0.150000006, -0.170000002
63710, 0.150000006, -0.159999996
63711, 0.150000006, -0.150000006
63712, 0.150000006, -0.140000001
63713, 0.150000006, -0.129999995
63714, 0.150000006, -0.119999997
63715, 0.150000006, -0.109999999
63716, 0.150000006, -0.100000001
63717, 0.150000006, -0.0900000036
63718, 0.150000006, -0.0799999982
63719, 0.150000006, -0.0700000003
63720, 0.150000006, -0.0599999987
63721, 0.150000006, -0.0500000007
63722, 0.150000006, -0.0399999991
63723, 0.150000006, -0.0299999993
63724, 0.150000006, -0.0199999996
63725, 0.150000006, -0.00999999978
63726, 0.140000001, -0.189999998
63727, 0.140000001, -0.180000007
63728, 0.140000001, -0.170000002
63729, 0.140000001, -0.159999996
63730, 0.140000001, -0.150000006
63731, 0.140000001, -0.140000001
63732, 0.140000001, -0.129999995
63733, 0.140000001, -0.119999997
63734, 0.140000001, -0.109999999
63735, 0.140000001, -0.100000001
63736, 0.140000001, -0.0900000036
63737, 0.140000001, -0.0799999982
63738, 0.140000001, -0.0700000003
63739, 0.140000001, -0.0599999987
63740, 0.140000001, -0.0500000007
63741, 0.140000001, -0.0399999991
63742, 0.140000001, -0.0299999993
63743, 0.140000001, -0.0199999996
63744, 0.140000001, -0.00999999978
63745, 0.129999995, -0.189999998
63746, 0.129999995, -0.180000007
63747, 0.129999995, -0.170000002
63748, 0.129999995, -0.159999996
63749, 0.129999995, -0.150000006
63750, 0.129999995, -0.140000001
63751, 0.129999995, -0.129999995
63752, 0.129999995, -0.119999997
63753, 0.129999995, -0.109999999
63754, 0.129999995, -0.100000001
63755, 0.129999995, -0.0900000036
63756, 0.129999995, -0.0799999982
63757, 0.129999995, -0.0700000003
63758, 0.129999995, -0.0599999987
63759, 0.129999995, -0.0500000007
63760, 0.129999995, -0.0399999991
63761, 0.129999995, -0.0299999993
63762, 0.129999995, -0.0199999996
63763, 0.129999995, -0.00999999978
63764, 0.119999997, -0.189999998
63765, 0.119999997, -0.180000007
63766, 0.119999997, -0.170000002
63767, 0.119999997, -0.159999996
63768, 0.119999997, -0.150000006
63769, 0.119999997, -0.140000001
63770, 0.119999997, -0.129999995
63771, 0.119999997, -0.119999997
63772, 0.119999997, -0.109999999
63773, 0.119999997, -0.100000001
63774, 0.119999997, -0.0900000036
63775, 0.119999997, -0.0799999982
63776, 0.119999997, -0.0700000003
63777, 0.119999997, -0.0599999987
63778, 0.119999997, -0.0500000007
63779, 0.119999997, -0.0399999991
63780, 0.119999997, -0.0299999993
63781, 0.119999997, -0.0199999996
63782, 0.119999997, -0.00999999978
63783, 0.109999999, -0.189999998
63784, 0.109999999, -0.180000007
63785, 0.109999999, -0.170000002
63786, 0.109999999, -0.159999996
63787, 0.109999999, -0.150000006
63788, 0.109999999, -0.140000001
63789, 0.109999999, -0.129999995
63790, 0.109999999, -0.119999997
63791, 0.109999999, -0.109999999
63792, 0.109999999, -0.100000001
63793, 0.109999999, -0.0900000036
63794, 0.109999999, -0.0799999982
63795, 0.109999999, -0.0700000003
63796, 0.109999999, -0.0599999987
63797, 0.109999999, -0.0500000007
63798, 0.109999999, -0.0399999991
63799, 0.109999999, -0.0299999993
63800, 0.109999999, -0.0199999996
63801, 0.109999999, -0.00999999978
63802, 0.100000001, -0.189999998
63803, 0.100000001, -0.180000007
63804, 0.100000001, -0.170000002
63805, 0.100000001, -0.159999996
63806, 0.100000001, -0.150000006
63807, 0.100000001, -0.140000001
63808, 0.100000001, -0.129999995
63809, 0.100000001, -0.119999997
63810, 0.100000001, -0.109999999
63811, 0.100000001, -0.100000001
63812, 0.100000001, -0.0900000036
63813, 0.100000001, -0.0799999982
63814, 0.100000001, -0.0700000003
63815, 0.100000001, -0.0599999987
63816, 0.100000001, -0.0500000007
63817, 0.100000001, -0.0399999991
63818, 0.100000001, -0.0299999993
63819, 0.100000001, -0.0199999996
63820, 0.100000001, -0.00999999978
63821, 0.0900000036, -0.189999998
63822, 0.0900000036, -0.180000007
63823, 0.0900000036, -0.170000002
63824, 0.0900000036, -0.159999996
63825, 0.0900000036, -0.150000006
63826, 0.0900000036, -0.140000001
63827, 0.0900000036, -0.129999995
63828, 0.0900000036, -0.119999997
63829, 0.0900000036, -0.109999999
63830, 0.0900000036, -0.100000001
63831, 0.0900000036, -0.0900000036
63832, 0.0900000036, -0.0799999982
63833, 0.0900000036, -0.0700000003
63834, 0.0900000036, -0.0599999987
63835, 0.0900000036, -0.0500000007
63836, 0.0900000036, -0.0399999991
63837, 0.0900000036, -0.0299999993
63838, 0.0900000036, -0.0199999996
63839, 0.0900000036, -0.00999999978
63840, 0.0799999982, -0.189999998
63841, 0.0799999982, -0.180000007
63842, 0.0799999982, -0.170000002
63843, 0.0799999982, -0.159999996
63844, 0.0799999982, -0.150000006
63845, 0.0799999982, -0.140000001
63846, 0.0799999982, -0.129999995
63847, 0.0799999982, -0.119999997
63848, 0.0799999982, -0.109999999
63849, 0.0799999982, -0.100000001
63850, 0.0799999982, -0.0900000036
63851, 0.0799999982, -0.0799999982
63852, 0.0799999982, -0.0700000003
63853, 0.0799999982, -0.0599999987
63854, 0.0799999982, -0.0500000007
63855, 0.0799999982, -0.0399999991
63856, 0.0799999982, -0.0299999993
63857, 0.0799999982, -0.0199999996
63858, 0.0799999982, -0.00999999978
63859, 0.0700000003, -0.189999998
63860, 0.0700000003, -0.180000007
63861, 0.0700000003, -0.170000002
63862, 0.0700000003, -0.159999996
63863, 0.0700000003, -0.150000006
63864, 0.0700000003, -0.140000001
63865, 0.0700000003, -0.129999995
63866, 0.0700000003, -0.119999997
63867, 0.0700000003, -0.109999999
63868, 0.0700000003, -0.100000001
63869, 0.0700000003, -0.0900000036
63870, 0.0700000003, -0.0799999982
63871, 0.0700000003, -0.0700000003
63872, 0.0700000003, -0.0599999987
63873, 0.0700000003, -0.0500000007
63874, 0.0700000003, -0.0399999991
63875, 0.0700000003, -0.0299999993
63876, 0.0700000003, -0.0199999996
63877, 0.0700000003, -0.00999999978
63878, 0.0599999987, -0.189999998
63879, 0.0599999987, -0.180000007
63880, 0.0599999987, -0.170000002
63881, 0.0599999987, -0.159999996
63882, 0.0599999987, -0.150000006
63883, 0.0599999987, -0.140000001
63884, 0.0599999987, -0.129999995
63885, 0.0599999987, -0.119999997
63886, 0.0599999987, -0.109999999
63887, 0.0599999987, -0.100000001
63888, 0.0599999987, -0.0900000036
63889, 0.0599999987, -0.0799999982
63890, 0.0599999987, -0.0700000003
63891, 0.0599999987, -0.0599999987
63892, 0.0599999987, -0.0500000007
63893, 0.0599999987, -0.0399999991
63894, 0.0599999987, -0.0299999993
63895, 0.0599999987, -0.0199999996
63896, 0.0599999987, -0.00999999978
63897, 0.0500000007, -0.189999998
63898, 0.0500000007, -0.180000007
63899, 0.0500000007, -0.170000002
63900, 0.0500000007, -0.159999996
63901, 0.0500000007, -0.150000006
63902, 0.0500000007, -0.140000001
63903, 0.0500000007, -0.129999995
63904, 0.0500000007, -0.119999997
63905, 0.0500000007, -0.109999999
63906, 0.0500000007, -0.100000001
63907, 0.0500000007, -0.0900000036
63908, 0.0500000007, -0.0799999982
63909, 0.0500000007, -0.0700000003
63910, 0.0500000007, -0.0599999987
63911, 0.0500000007, -0.0500000007
63912, 0.0500000007, -0.0399999991
63913, 0.0500000007, -0.0299999993
63914, 0.0500000007, -0.0199999996
63915, 0.0500000007, -0.00999999978
63916, 0.0399999991, -0.189999998
63917, 0.0399999991, -0.180000007
63918, 0.0399999991, -0.170000002
63919, 0.0399999991, -0.159999996
63920, 0.0399999991, -0.150000006
63921, 0.0399999991, -0.140000001
63922, 0.0399999991, -0.129999995
63923, 0.0399999991, -0.119999997
63924, 0.0399999991, -0.109999999
63925, 0.0399999991, -0.100000001
63926, 0.0399999991, -0.0900000036
63927, 0.0399999991, -0.0799999982
63928, 0.0399999991, -0.0700000003
63929, 0.0399999991, -0.0599999987
63930, 0.0399999991, -0.0500000007
63931, 0.0399999991, -0.0399999991
63932, 0.0399999991, -0.0299999993
63933, 0.0399999991, -0.0199999996
63934, 0.0399999991, -0.00999999978
63935, 0.0299999993, -0.189999998
63936, 0.0299999993, -0.180000007
63937, 0.0299999993, -0.170000002
63938, 0.0299999993, -0.159999996
63939, 0.0299999993, -0.150000006
63940, 0.0299999993, -0.140000001
63941, 0.0299999993, -0.129999995
63942, 0.0299999993, -0.119999997
63943, 0.0299999993, -0.109999999
63944, 0.0299999993, -0.100000001
63945, 0.0299999993, -0.0900000036
63946, 0.0299999993, -0.0799999982
63947, 0.0299999993, -0.0700000003
63948, 0.0299999993, -0.0599999987
63949, 0.0299999993, -0.0500000007
63950, 0.0299999993, -0.0399999991
63951, 0.0299999993, -0.0299999993
63952, 0.0299999993, -0.0199999996
63953, 0.0299999993, -0.00999999978
63954, 0.0199999996, -0.189999998
63955, 0.0199999996, -0.180000007
63956, 0.0199999996, -0.170000002
63957, 0.0199999996, -0.159999996
63958, 0.0199999996, -0.150000006
63959, 0.0199999996, -0.140000001
63960, 0.0199999996, -0.129999995
63961, 0.0199999996, -0.119999997
63962, 0.0199999996, -0.109999999
63963, 0.0199999996, -0.100000001
63964, 0.0199999996, -0.0900000036
63965, 0.0199999996, -0.0799999982
63966, 0.0199999996, -0.0700000003
63967, 0.0199999996, -0.0599999987
63968, 0.0199999996, -0.0500000007
63969, 0.0199999996, -0.0399999991
63970, 0.0199999996, -0.0299999993
63971, 0.0199999996, -0.0199999996
63972, 0.0199999996, -0.00999999978
63973, 0.00999999978, -0.189999998
63974, 0.00999999978, -0.180000007
63975, 0.00999999978, -0.170000002
63976, 0.00999999978, -0.159999996
63977, 0.00999999978, -0.150000006
63978, 0.00999999978, -0.140000001
63979, 0.00999999978, -0.129999995
63980, 0.00999999978, -0.119999997
63981, 0.00999999978, -0.109999999
63982, 0.00999999978, -0.100000001
63983, 0.00999999978, -0.0900000036
63984, 0.00999999978, -0.0799999982
63985, 0.00999999978, -0.0700000003
63986, 0.00999999978, -0.0599999987
63987, 0.00999999978, -0.0500000007
63988, 0.00999999978, -0.0399999991
63989, 0.00999999978, -0.0299999993
63990, 0.00999999978, -0.0199999996
63991, 0.00999999978, -0.00999999978
63992, 0, -0.189999998
63993, 0, -0.180000007
63994, 0, -0.170000002
63995, 0, -0.159999996
63996, 0, -0.150000006
63997, 0, -0.140000001
63998, 0, -0.129999995
63999, 0, -0.119999997
64000, 0, -0.109999999
64001, 0, -0.100000001
64002, 0, -0.0900000036
64003, 0, -0.0799999982
64004, 0, -0.0700000003
64005, 0, -0.0599999987
64006, 0, -0.0500000007
64007, 0, -0.0399999991
64008, 0, -0.0299999993
64009, 0, -0.0199999996
64010, 0, -0.00999999978
64011, -0.00999999978, -0.189999998
64012, -0.00999999978, -0.180000007
64013, -0.00999999978, -0.170000002
64014, -0.00999999978, -0.159999996
64015, -0.00999999978, -0.150000006
64016, -0.00999999978, -0.140000001
64017, -0.00999999978, -0.129999995
64018, -0.00999999978, -0.119999997
64019, -0.00999999978, -0.109999999
64020, -0.00999999978, -0.100000001
64021, -0.00999999978, -0.0900000036
64022, -0.00999999978, -0.0799999982
64023, -0.00999999978, -0.0700000003
64024, -0.00999999978, -0.0599999987
64025, -0.00999999978, -0.0500000007
64026, -0.00999999978, -0.0399999991
64027, -0.00999999978, -0.0299999993
64028, -0.00999999978, -0.0199999996
64029, -0.00999999978, -0.00999999978
64030, -0.0199999996, -0.189999998
64031, -0.0199999996, -0.180000007
64032, -0.0199999996, -0.170000002
64033, -0.0199999996, -0.159999996
64034, -0.0199999996, -0.150000006
64035, -0.0199999996, -0.140000001
64036, -0.0199999996, -0.129999995
64037, -0.0199999996, -0.119999997
64038, -0.0199999996, -0.109999999
64039, -0.0199999996, -0.100000001
64040, -0.0199999996, -0.0900000036
64041, -0.0199999996, -0.0799999982
64042, -0.0199999996, -0.0700000003
64043, -0.0199999996, -0.0599999987
64044, -0.0199999996, -0.0500000007
64045, -0.0199999996, -0.0399999991
64046, -0.0199999996, -0.0299999993
64047, -0.0199999996, -0.0199999996
64048, -0.0199999996, -0.00999999978
64049, -0.0299999993, -0.189999998
64050, -0.0299999993, -0.180000007
64051, -0.0299999993, -0.170000002
64052, -0.0299999993, -0.159999996
64053, -0.0299999993, -0.150000006
64054, -0.0299999993, -0.140000001
64055, -0.0299999993, -0.129999995
64056, -0.0299999993, -0.119999997
64057, -0.0299999993, -0.109999999
64058, -0.0299999993, -0.100000001
64059, -0.0299999993, -0.0900000036
64060, -0.0299999993, -0.0799999982
64061, -0.0299999993, -0.0700000003
64062, -0.0299999993, -0.0599999987
64063, -0.0299999993, -0.0500000007
64064, -0.0299999993, -0.0399999991
64065, -0.0299999993, -0.0299999993
64066, -0.0299999993, -0.0199999996
64067, -0.0299999993, -0.00999999978
64068, -0.0399999991, -0.189999998
64069, -0.0399999991, -0.180000007
64070, -0.0399999991, -0.170000002
64071, -0.0399999991, -0.159999996
64072, -0.0399999991, -0.150000006
64073, -0.0399999991, -0.140000001
64074, -0.0399999991, -0.129999995
64075, -0.0399999991, -0.119999997
64076, -0.0399999991, -0.109999999
64077, -0.0399999991, -0.100000001
64078, -0.0399999991, -0.0900000036
64079, -0.0399999991, -0.0799999982
64080, -0.0399999991, -0.0700000003
64081, -0.0399999991, -0.0599999987
64082, -0.0399999991, -0.0500000007
64083, -0.0399999991, -0.0399999991
64084, -0.0399999991, -0.0299999993
64085, -0.0399999991, -0.0199999996
64086, -0.0399999991, -0.00999999978
64087, -0.0500000007, -0.189999998
64088, -0.0500000007, -0.180000007
64089, -0.0500000007, -0.170000002
64090, -0.0500000007, -0.159999996
64091, -0.0500000007, -0.150000006
64092, -0.0500000007, -0.140000001
64093, -0.0500000007, -0.129999995
64094, -0.0500000007, -0.119999997
64095, -0.0500000007, -0.109999999
64096, -0.0500000007, -0.100000001
64097, -0.0500000007, -0.0900000036
64098, -0.0500000007, -0.0799999982
64099, -0.0500000007, -0.0700000003
64100, -0.0500000007, -0.0599999987
64101, -0.0500000007, -0.0500000007
64102, -0.0500000007, -0.0399999991
64103, -0.0500000007, -0.0299999993
64104, -0.0500000007, -0.0199999996
64105, -0.0500000007, -0.00999999978
64106, -0.0599999987, -0.189999998
64107, -0.0599999987, -0.180000007
64108, -0.0599999987, -0.170000002
64109, -0.0599999987, -0.159999996
64110, -0.0599999987, -0.150000006
64111, -0.0599999987, -0.140000001
64112, -0.0599999987, -0.129999995
64113, -0.0599999987, -0.119999997
64114, -0.0599999987, -0.109999999
64115, -0.0599999987, -0.100000001
64116, -0.0599999987, -0.0900000036
64117, -0.0599999987, -0.0799999982
64118, -0.0599999987, -0.0700000003
64119, -0.0599999987, -0.0599999987
64120, -0.0599999987, -0.0500000007
64121, -0.0599999987, -0.0399999991
64122, -0.0599999987, -0.0299999993
64123, -0.0599999987, -0.0199999996
64124, -0.0599999987, -0.00999999978
64125, -0.0700000003, -0.189999998
64126, -0.0700000003, -0.180000007
64127, -0.0700000003, -0.170000002
64128, -0.0700000003, -0.159999996
64129, -0.0700000003, -0.150000006
64130, -0.0700000003, -0.140000001
64131, -0.0700000003, -0.129999995
64132, -0.0700000003, -0.119999997
64133, -0.0700000003, -0.109999999
64134, -0.0700000003, -0.100000001
64135, -0.0700000003, -0.0900000036
64136, -0.0700000003, -0.0799999982
64137, -0.0700000003, -0.0700000003
64138, -0.0700000003, -0.0599999987
64139, -0.0700000003, -0.0500000007
64140, -0.0700000003, -0.0399999991
64141, -0.0700000003, -0.0299999993
64142, -0.0700000003, -0.0199999996
64143, -0.0700000003, -0.00999999978
64144, -0.0799999982, -0.189999998
64145, -0.0799999982, -0.180000007
64146, -0.0799999982, -0.170000002
64147, -0.0799999982, -0.159999996
64148, -0.0799999982, -0.150000006
64149, -0.0799999982, -0.140000001
64150, -0.0799999982, -0.129999995
64151, -0.0799999982, -0.119999997
64152, -0.0799999982, -0.109999999
64153, -0.0799999982, -0.100000001
64154, -0.0799999982, -0.0900000036
64155, -0.0799999982, -0.0799999982
64156, -0.0799999982, -0.0700000003
64157, -0.0799999982, -0.0599999987
64158, -0.0799999982, -0.0500000007
64159, -0.0799999982, -0.0399999991
64160, -0.0799999982, -0.0299999993
64161, -0.0799999982, -0.0199999996
64162, -0.0799999982, -0.00999999978
64163, -0.0900000036, -0.189999998
64164, -0.0900000036, -0.180000007
64165, -0.0900000036, -0.170000002
64166, -0.0900000036, -0.159999996
64167, -0.0900000036, -0.150000006
64168, -0.0900000036, -0.140000001
64169, -0.0900000036, -0.129999995
64170, -0.0900000036, -0.119999997
64171, -0.0900000036, -0.109999999
64172, -0.0900000036, -0.100000001
64173, -0.0900000036, -0.0900000036
64174, -0.0900000036, -0.0799999982
64175, -0.0900000036, -0.0700000003
64176, -0.0900000036, -0.0599999987
64177, -0.0900000036, -0.0500000007
64178, -0.0900000036, -0.0399999991
64179, -0.0900000036, -0.0299999993
64180, -0.0900000036, -0.0199999996
64181, -0.0900000036, -0.00999999978
64182, -0.100000001, -0.189999998
64183, -0.100000001, -0.180000007
64184, -0.100000001, -0.170000002
64185, -0.100000001, -0.159999996
64186, -0.100000001, -0.150000006
64187, -0.100000001, -0.140000001
64188, -0.100000001, -0.129999995
64189, -0.100000001, -0.119999997
64190, -0.100000001, -0.109999999
64191, -0.100000001, -0.100000001
64192, -0.100000001, -0.0900000036
64193, -0.100000001, -0.0799999982
64194, -0.100000001, -0.0700000003
64195, -0.100000001, -0.0599999987
64196, -0.100000001, -0.0500000007
64197, -0.100000001, -0.0399999991
64198, -0.100000001, -0.0299999993
64199, -0.100000001, -0.0199999996
64200, -0.100000001, -0.00999999978
64201, -0.109999999, -0.189999998
64202, -0.109999999, -0.180000007
64203, -0.109999999, -0.170000002
64204, -0.109999999, -0.159999996
64205, -0.109999999, -0.150000006
64206, -0.109999999, -0.140000001
64207, -0.109999999, -0.129999995
64208, -0.109999999, -0.119999997
64209, -0.109999999, -0.109999999
64210, -0.109999999, -0.100000001
64211, -0.109999999, -0.0900000036
64212, -0.109999999, -0.0799999982
64213, -0.109999999, -0.0700000003
64214, -0.109999999, -0.0599999987
64215, -0.109999999, -0.0500000007
64216, -0.109999999, -0.0399999991
64217, -0.109999999, -0.0299999993
64218, -0.109999999, -0.0199999996
64219, -0.109999999, -0.00999999978
64220, -0.119999997, -0.189999998
64221, -0.119999997, -0.180000007
64222, -0.119999997, -0.170000002
64223, -0.119999997, -0.159999996
64224, -0.119999997, -0.150000006
64225, -0.119999997, -0.140000001
64226, -0.119999997, -0.129999995
64227, -0.119999997, -0.119999997
64228, -0.119999997, -0.109999999
64229, -0.119999997, -0.100000001
64230, -0.119999997, -0.0900000036
64231, -0.119999997, -0.0799999982
64232, -0.119999997, -0.0700000003
64233, -0.119999997, -0.0599999987
64234, -0.119999997, -0.0500000007
64235, -0.119999997, -0.0399999991
64236, -0.119999997, -0.0299999993
64237, -0.119999997, -0.0199999996
64238, -0.119999997, -0.00999999978
64239, -0.129999995, -0.189999998
64240, -0.129999995, -0.180000007
64241, -0.129999995, -0.170000002
64242, -0.129999995, -0.159999996
64243, -0.129999995, -0.150000006
64244, -0.129999995, -0.140000001
64245, -0.129999995, -0.129999995
64246, -0.129999995, -0.119999997
64247, -0.129999995, -0.109999999
64248, -0.129999995, -0.100000001
64249, -0.129999995, -0.0900000036
64250, -0.129999995, -0.0799999982
64251, -0.129999995, -0.0700000003
64252, -0.129999995, -0.0599999987
64253, -0.129999995, -0.0500000007
64254, -0.129999995, -0.0399999991
64255, -0.129999995, -0.0299999993
64256, -0.129999995, -0.0199999996
64257, -0.129999995, -0.00999999978
64258, -0.140000001, -0.189999998
64259, -0.140000001, -0.180000007
64260, -0.140000001, -0.170000002
64261, -0.140000001, -0.159999996
64262, -0.140000001, -0.150000006
64263, -0.140000001, -0.140000001
64264, -0.140000001, -0.129999995
64265, -0.140000001, -0.119999997
64266, -0.140000001, -0.109999999
64267, -0.140000001, -0.100000001
64268, -0.140000001, -0.0900000036
64269, -0.140000001, -0.0799999982
64270, -0.140000001, -0.0700000003
64271, -0.140000001, -0.0599999987
64272, -0.140000001, -0.0500000007
64273, -0.140000001, -0.0399999991
64274, -0.140000001, -0.0299999993
64275, -0.140000001, -0.0199999996
64276, -0.140000001, -0.00999999978
64277, -0.150000006, -0.189999998
64278, -0.150000006, -0.180000007
64279, -0.150000006, -0.170000002
64280, -0.150000006, -0.159999996
64281, -0.150000006, -0.150000006
64282, -0.150000006, -0.140000001
64283, -0.150000006, -0.129999995
64284, -0.150000006, -0.119999997
64285, -0.150000006, -0.109999999
64286, -0.150000006, -0.100000001
64287, -0.150000006, -0.0900000036
64288, -0.150000006, -0.0799999982
64289, -0.150000006, -0.0700000003
64290, -0.150000006, -0.0599999987
64291, -0.150000006, -0.0500000007
64292, -0.150000006, -0.0399999991
64293, -0.150000006, -0.0299999993
64294, -0.150000006, -0.0199999996
64295, -0.150000006, -0.00999999978
64296, -0.159999996, -0.189999998
64297, -0.159999996, -0.180000007
64298, -0.159999996, -0.170000002
64299, -0.159999996, -0.159999996
64300, -0.159999996, -0.150000006
64301, -0.159999996, -0.140000001
64302, -0.159999996, -0.129999995
64303, -0.159999996, -0.119999997
64304, -0.159999996, -0.109999999
64305, -0.159999996, -0.100000001
64306, -0.159999996, -0.0900000036
64307, -0.159999996, -0.0799999982
64308, -0.159999996, -0.0700000003
64309, -0.159999996, -0.0599999987
64310, -0.159999996, -0.0500000007
64311, -0.159999996, -0.0399999991
64312, -0.159999996, -0.0299999993
64313, -0.159999996, -0.0199999996
64314, -0.159999996, -0.00999999978
64315, -0.170000002, -0.189999998
64316, -0.170000002, -0.180000007
64317, -0.170000002, -0.170000002
64318, -0.170000002, -0.159999996
64319, -0.170000002, -0.150000006
64320, -0.170000002, -0.140000001
64321, -0.170000002, -0.129999995
64322, -0.170000002, -0.119999997
64323, -0.170000002, -0.109999999
64324, -0.170000002, -0.100000001
64325, -0.170000002, -0.0900000036
64326, -0.170000002, -0.0799999982
64327, -0.170000002, -0.0700000003
64328, -0.170000002, -0.0599999987
64329, -0.170000002, -0.0500000007
64330, -0.170000002, -0.0399999991
64331, -0.170000002, -0.0299999993
64332, -0.170000002, -0.0199999996
64333, -0.170000002, -0.00999999978
64334, -0.180000007, -0.189999998
64335, -0.180000007, -0.180000007
64336, -0.180000007, -0.170000002
64337, -0.180000007, -0.159999996
64338, -0.180000007, -0.150000006
64339, -0.180000007, -0.140000001
64340, -0.180000007, -0.129999995
64341, -0.180000007, -0.119999997
64342, -0.180000007, -0.109999999
64343, -0.180000007, -0.100000001
64344, -0.180000007, -0.0900000036
64345, -0.180000007, -0.0799999982
64346, -0.180000007, -0.0700000003
64347, -0.180000007, -0.0599999987
64348, -0.180000007, -0.0500000007
64349, -0.180000007, -0.0399999991
64350, -0.180000007, -0.0299999993
64351, -0.180000007, -0.0199999996
64352, -0.180000007, -0.00999999978
64353, -0.189999998, -0.189999998
64354, -0.189999998, -0.180000007
64355, -0.189999998, -0.170000002
64356, -0.189999998, -0.159999996
64357, -0.189999998, -0.150000006
64358, -0.189999998, -0.140000001
64359, -0.189999998, -0.129999995
64360, -0.189999998, -0.119999997
64361, -0.189999998, -0.109999999
64362, -0.189999998, -0.100000001
64363, -0.189999998, -0.0900000036
64364, -0.189999998, -0.0799999982
64365, -0.189999998, -0.0700000003
64366, -0.189999998, -0.0599999987
64367, -0.189999998, -0.0500000007
64368, -0.189999998, -0.0399999991
64369, -0.189999998, -0.0299999993
64370, -0.189999998, -0.0199999996
64371, -0.189999998, -0.00999999978
64372, -0.200000003, -0.189999998
64373, -0.200000003, -0.180000007
64374, -0.200000003, -0.170000002
64375, -0.200000003, -0.159999996
64376, -0.200000003, -0.150000006
64377, -0.200000003, -0.140000001
64378, -0.200000003, -0.129999995
64379, -0.200000003, -0.119999997
64380, -0.200000003, -0.109999999
64381, -0.200000003, -0.100000001
64382, -0.200000003, -0.0900000036
64383, -0.200000003, -0.0799999982
64384, -0.200000003, -0.0700000003
64385, -0.200000003, -0.0599999987
64386, -0.200000003, -0.0500000007
64387, -0.200000003, -0.0399999991
64388, -0.200000003, -0.0299999993
64389, -0.200000003, -0.0199999996
64390, -0.200000003, -0.00999999978
64391, -0.209999993, -0.189999998
64392, -0.209999993, -0.180000007
64393, -0.209999993, -0.170000002
64394, -0.209999993, -0.159999996
64395, -0.209999993, -0.150000006
64396, -0.209999993, -0.140000001
64397, -0.209999993, -0.129999995
64398, -0.209999993, -0.119999997
64399, -0.209999993, -0.109999999
64400, -0.209999993, -0.100000001
64401, -0.209999993, -0.0900000036
64402, -0.209999993, -0.0799999982
64403, -0.209999993, -0.0700000003
64404, -0.209999993, -0.0599999987
64405, -0.209999993, -0.0500000007
64406, -0.209999993, -0.0399999991
64407, -0.209999993, -0.0299999993
64408, -0.209999993, -0.0199999996
64409, -0.209999993, -0.00999999978
64410, -0.219999999, -0.189999998
64411, -0.219999999, -0.180000007
64412, -0.219999999, -0.170000002
64413, -0.219999999, -0.159999996
64414, -0.219999999, -0.150000006
64415, -0.219999999, -0.140000001
64416, -0.219999999, -0.129999995
64417, -0.219999999, -0.119999997
64418, -0.219999999, -0.109999999
64419, -0.219999999, -0.100000001
64420, -0.219999999, -0.0900000036
64421, -0.219999999, -0.0799999982
64422, -0.219999999, -0.0700000003
64423, -0.219999999, -0.0599999987
64424, -0.219999999, -0.0500000007
64425, -0.219999999, -0.0399999991
64426, -0.219999999, -0.0299999993
64427, -0.219999999, -0.0199999996
64428, -0.219999999, -0.00999999978
64429, -0.230000004, -0.189999998
64430, -0.230000004, -0.180000007
64431, -0.230000004, -0.170000002
64432, -0.230000004, -0.159999996
64433, -0.230000004, -0.150000006
64434, -0.230000004, -0.140000001
64435, -0.230000004, -0.129999995
64436, -0.230000004, -0.119999997
64437, -0.230000004, -0.109999999
64438, -0.230000004, -0.100000001
64439, -0.230000004, -0.0900000036
64440, -0.230000004, -0.0799999982
64441, -0.230000004, -0.0700000003
64442, -0.230000004, -0.0599999987
64443, -0.230000004, -0.0500000007
64444, -0.230000004, -0.0399999991
64445, -0.230000004, -0.0299999993
64446, -0.230000004, -0.0199999996
64447, -0.230000004, -0.00999999978
64448, -0.239999995, -0.189999998
64449, -0.239999995, -0.180000007
64450, -0.239999995, -0.170000002
64451, -0.239999995, -0.159999996
64452, -0.239999995, -0.150000006
64453, -0.239999995, -0.140000001
64454, -0.239999995, -0.129999995
64455, -0.239999995, -0.119999997
64456, -0.239999995, -0.109999999
64457, -0.239999995, -0.100000001
64458, -0.239999995, -0.0900000036
64459, -0.239999995, -0.0799999982
64460, -0.239999995, -0.0700000003
64461, -0.239999995, -0.0599999987
64462, -0.239999995, -0.0500000007
64463, -0.239999995, -0.0399999991
64464, -0.239999995, -0.0299999993
64465, -0.239999995, -0.0199999996
64466, -0.239999995, -0.00999999978
64467, -0.25, -0.189999998
64468, -0.25, -0.180000007
64469, -0.25, -0.170000002
64470, -0.25, -0.159999996
64471, -0.25, -0.150000006
64472, -0.25, -0.140000001
64473, -0.25, -0.129999995
64474, -0.25, -0.119999997
64475, -0.25, -0.109999999
64476, -0.25, -0.100000001
64477, -0.25, -0.0900000036
64478, -0.25, -0.0799999982
64479, -0.25, -0.0700000003
64480, -0.25, -0.0599999987
64481, -0.25, -0.0500000007
64482, -0.25, -0.0399999991
64483, -0.25, -0.0299999993
64484, -0.25, -0.0199999996
64485, -0.25, -0.00999999978
64486, -0.25999999, -0.189999998
64487, -0.25999999, -0.180000007
64488, -0.25999999, -0.170000002
64489, -0.25999999, -0.159999996
64490, -0.25999999, -0.150000006
64491, -0.25999999, -0.140000001
64492, -0.25999999, -0.129999995
64493, -0.25999999, -0.119999997
64494, -0.25999999, -0.109999999
64495, -0.25999999, -0.100000001
64496, -0.25999999, -0.0900000036
64497, -0.25999999, -0.0799999982
64498, -0.25999999, -0.0700000003
64499, -0.25999999, -0.0599999987
64500, -0.25999999, -0.0500000007
64501, -0.25999999, -0.0399999991
64502, -0.25999999, -0.0299999993
64503, -0.25999999, -0.0199999996
64504, -0.25999999, -0.00999999978
64505, -0.270000011, -0.189999998
64506, -0.270000011, -0.180000007
64507, -0.270000011, -0.170000002
64508, -0.270000011, -0.159999996
64509, -0.270000011, -0.150000006
64510, -0.270000011, -0.140000001
64511, -0.270000011, -0.129999995
64512, -0.270000011, -0.119999997
64513, -0.270000011, -0.109999999
64514, -0.270000011, -0.100000001
64515, -0.270000011, -0.0900000036
64516, -0.270000011, -0.0799999982
64517, -0.270000011, -0.0700000003
64518, -0.270000011, -0.0599999987
64519, -0.270000011, -0.0500000007
64520, -0.270000011, -0.0399999991
64521, -0.270000011, -0.0299999993
64522, -0.270000011, -0.0199999996
64523, -0.270000011, -0.00999999978
64524, -0.280000001, -0.189999998
64525, -0.280000001, -0.180000007
64526, -0.280000001, -0.170000002
64527, -0.280000001, -0.159999996
64528, -0.280000001, -0.150000006
64529, -0.280000001, -0.140000001
64530, -0.280000001, -0.129999995
64531, -0.280000001, -0.119999997
64532, -0.280000001, -0.109999999
64533, -0.280000001, -0.100000001
64534, -0.280000001, -0.0900000036
64535, -0.280000001, -0.0799999982
64536, -0.280000001, -0.0700000003
64537, -0.280000001, -0.0599999987
64538, -0.280000001, -0.0500000007
64539, -0.280000001, -0.0399999991
64540, -0.280000001, -0.0299999993
64541, -0.280000001, -0.0199999996
64542, -0.280000001, -0.00999999978
64543, -0.289999992, -0.189999998
64544, -0.289999992, -0.180000007
64545, -0.289999992, -0.170000002
64546, -0.289999992, -0.159999996
64547, -0.289999992, -0.150000006
64548, -0.289999992, -0.140000001
64549, -0.289999992, -0.129999995
64550, -0.289999992, -0.119999997
64551, -0.289999992, -0.109999999
64552, -0.289999992, -0.100000001
64553, -0.289999992, -0.0900000036
64554, -0.289999992, -0.0799999982
64555, -0.289999992, -0.0700000003
64556, -0.289999992, -0.0599999987
64557, -0.289999992, -0.0500000007
64558, -0.289999992, -0.0399999991
64559, -0.289999992, -0.0299999993
64560, -0.289999992, -0.0199999996
64561, -0.289999992, -0.00999999978
64562, -0.300000012, -0.189999998
64563, -0.300000012, -0.180000007
64564, -0.300000012, -0.170000002
64565, -0.300000012, -0.159999996
64566, -0.300000012, -0.150000006
64567, -0.300000012, -0.140000001
64568, -0.300000012, -0.129999995
64569, -0.300000012, -0.119999997
64570, -0.300000012, -0.109999999
64571, -0.300000012, -0.100000001
64572, -0.300000012, -0.0900000036
64573, -0.300000012, -0.0799999982
64574, -0.300000012, -0.0700000003
64575, -0.300000012, -0.0599999987
64576, -0.300000012, -0.0500000007
64577, -0.300000012, -0.0399999991
64578, -0.300000012, -0.0299999993
64579, -0.300000012, -0.0199999996
64580, -0.300000012, -0.00999999978
64581, -0.310000002, -0.189999998
64582, -0.310000002, -0.180000007
64583, -0.310000002, -0.170000002
64584, -0.310000002, -0.159999996
64585, -0.310000002, -0.150000006
64586, -0.310000002, -0.140000001
64587, -0.310000002, -0.129999995
64588, -0.310000002, -0.119999997
64589, -0.310000002, -0.109999999
64590, -0.310000002, -0.100000001
64591, -0.310000002, -0.0900000036
64592, -0.310000002, -0.0799999982
64593, -0.310000002, -0.0700000003
64594, -0.310000002, -0.0599999987
64595, -0.310000002, -0.0500000007
64596, -0.310000002, -0.0399999991
64597, -0.310000002, -0.0299999993
64598, -0.310000002, -0.0199999996
64599, -0.310000002, -0.00999999978
64600, -0.319999993, -0.189999998
64601, -0.319999993, -0.180000007
64602, -0.319999993, -0.170000002
64603, -0.319999993, -0.159999996
64604, -0.319999993, -0.150000006
64605, -0.319999993, -0.140000001
64606, -0.319999993, -0.129999995
64607, -0.319999993, -0.119999997
64608, -0.319999993, -0.109999999
64609, -0.319999993, -0.100000001
64610, -0.319999993, -0.0900000036
64611, -0.319999993, -0.0799999982
64612, -0.319999993, -0.0700000003
64613, -0.319999993, -0.0599999987
64614, -0.319999993, -0.0500000007
64615, -0.319999993, -0.0399999991
64616, -0.319999993, -0.0299999993
64617, -0.319999993, -0.0199999996
64618, -0.319999993, -0.00999999978
64619, -0.330000013, -0.189999998
64620, -0.330000013, -0.180000007
64621, -0.330000013, -0.170000002
64622, -0.330000013, -0.159999996
64623, -0.330000013, -0.150000006
64624, -0.330000013, -0.140000001
64625, -0.330000013, -0.129999995
64626, -0.330000013, -0.119999997
64627, -0.330000013, -0.109999999
64628, -0.330000013, -0.100000001
64629, -0.330000013, -0.0900000036
64630, -0.330000013, -0.0799999982
64631, -0.330000013, -0.0700000003
64632, -0.330000013, -0.0599999987
64633, -0.330000013, -0.0500000007
64634, -0.330000013, -0.0399999991
64635, -0.330000013, -0.0299999993
64636, -0.330000013, -0.0199999996
64637, -0.330000013, -0.00999999978
64638, -0.340000004, -0.189999998
64639, -0.340000004, -0.180000007
64640, -0.340000004, -0.170000002
64641, -0.340000004, -0.159999996
64642, -0.340000004, -0.150000006
64643, -0.340000004, -0.140000001
64644, -0.340000004, -0.129999995
64645, -0.340000004, -0.119999997
64646, -0.340000004, -0.109999999
64647, -0.340000004, -0.100000001
64648, -0.340000004, -0.0900000036
64649, -0.340000004, -0.0799999982
64650, -0.340000004, -0.0700000003
64651, -0.340000004, -0.0599999987
64652, -0.340000004, -0.0500000007
64653, -0.340000004, -0.0399999991
64654, -0.340000004, -0.0299999993
64655, -0.340000004, -0.0199999996
64656, -0.340000004, -0.00999999978
64657, -0.349999994, -0.189999998
64658, -0.349999994, -0.180000007
64659, -0.349999994, -0.170000002
64660, -0.349999994, -0.159999996
64661, -0.349999994, -0.150000006
64662, -0.349999994, -0.140000001
64663, -0.349999994, -0.129999995
64664, -0.349999994, -0.119999997
64665, -0.349999994, -0.109999999
64666, -0.349999994, -0.100000001
64667, -0.349999994, -0.0900000036
64668, -0.349999994, -0.0799999982
64669, -0.349999994, -0.0700000003
64670, -0.349999994, -0.0599999987
64671, -0.349999994, -0.0500000007
64672, -0.349999994, -0.0399999991
64673, -0.349999994, -0.0299999993
64674, -0.349999994, -0.0199999996
64675, -0.349999994, -0.00999999978
64676, -0.360000014, -0.189999998
64677, -0.360000014, -0.180000007
64678, -0.360000014, -0.170000002
64679, -0.360000014, -0.159999996
64680, -0.360000014, -0.150000006
64681, -0.360000014, -0.140000001
64682, -0.360000014, -0.129999995
64683, -0.360000014, -0.119999997
64684, -0.360000014, -0.109999999
64685, -0.360000014, -0.100000001
64686, -0.360000014, -0.0900000036
64687, -0.360000014, -0.0799999982
64688, -0.360000014, -0.0700000003
64689, -0.360000014, -0.0599999987
64690, -0.360000014, -0.0500000007
64691, -0.360000014, -0.0399999991
64692, -0.360000014, -0.0299999993
64693, -0.360000014, -0.0199999996
64694, -0.360000014, -0.00999999978
64695, -0.370000005, -0.189999998
64696, -0.370000005, -0.180000007
64697, -0.370000005, -0.170000002
64698, -0.370000005, -0.159999996
64699, -0.370000005, -0.150000006
64700, -0.370000005, -0.140000001
64701, -0.370000005, -0.129999995
64702, -0.370000005, -0.119999997
64703, -0.370000005, -0.109999999
64704, -0.370000005, -0.100000001
64705, -0.370000005, -0.0900000036
64706, -0.370000005, -0.0799999982
64707, -0.370000005, -0.0700000003
64708, -0.370000005, -0.0599999987
64709, -0.370000005, -0.0500000007
64710, -0.370000005, -0.0399999991
64711, -0.370000005, -0.0299999993
64712, -0.370000005, -0.0199999996
64713, -0.370000005, -0.00999999978
64714, -0.379999995, -0.189999998
64715, -0.379999995, -0.180000007
64716, -0.379999995, -0.170000002
64717, -0.379999995, -0.159999996
64718, -0.379999995, -0.150000006
64719, -0.379999995, -0.140000001
64720, -0.379999995, -0.129999995
64721, -0.379999995, -0.119999997
64722, -0.379999995, -0.109999999
64723, -0.379999995, -0.100000001
64724, -0.379999995, -0.0900000036
64725, -0.379999995, -0.0799999982
64726, -0.379999995, -0.0700000003
64727, -0.379999995, -0.0599999987
64728, -0.379999995, -0.0500000007
64729, -0.379999995, -0.0399999991
64730, -0.379999995, -0.0299999993
64731, -0.379999995, -0.0199999996
64732, -0.379999995, -0.00999999978
64733, -0.389999986, -0.189999998
64734, -0.389999986, -0.180000007
64735, -0.389999986, -0.170000002
64736, -0.389999986, -0.159999996
64737, -0.389999986, -0.150000006
64738, -0.389999986, -0.140000001
64739, -0.389999986, -0.129999995
64740, -0.389999986, -0.119999997
64741, -0.389999986, -0.109999999
64742, -0.389999986, -0.100000001
64743, -0.389999986, -0.0900000036
64744, -0.389999986, -0.0799999982
64745, -0.389999986, -0.0700000003
64746, -0.389999986, -0.0599999987
64747, -0.389999986, -0.0500000007
64748, -0.389999986, -0.0399999991
64749, -0.389999986, -0.0299999993
64750, -0.389999986, -0.0199999996
64751, -0.389999986, -0.00999999978
64752, -0.400000006, -0.189999998
64753, -0.400000006, -0.180000007
64754, -0.400000006, -0.170000002
64755, -0.400000006, -0.159999996
64756, -0.400000006, -0.150000006
64757, -0.400000006, -0.140000001
64758, -0.400000006, -0.129999995
64759, -0.400000006, -0.119999997
64760, -0.400000006, -0.109999999
64761, -0.400000006, -0.100000001
64762, -0.400000006, -0.0900000036
64763, -0.400000006, -0.0799999982
64764, -0.400000006, -0.0700000003
64765, -0.400000006, -0.0599999987
64766, -0.400000006, -0.0500000007
64767, -0.400000006, -0.0399999991
64768, -0.400000006, -0.0299999993
64769, -0.400000006, -0.0199999996
64770, -0.400000006, -0.00999999978
64771, -0.409999996, -0.189999998
64772, -0.409999996, -0.180000007
64773, -0.409999996, -0.170000002
64774, -0.409999996, -0.159999996
64775, -0.409999996, -0.150000006
64776, -0.409999996, -0.140000001
64777, -0.409999996, -0.129999995
64778, -0.409999996, -0.119999997
64779, -0.409999996, -0.109999999
64780, -0.409999996, -0.100000001
64781, -0.409999996, -0.0900000036
64782, -0.409999996, -0.0799999982
64783, -0.409999996, -0.0700000003
64784, -0.409999996, -0.0599999987
64785, -0.409999996, -0.0500000007
64786, -0.409999996, -0.0399999991
64787, -0.409999996, -0.0299999993
64788, -0.409999996, -0.0199999996
64789, -0.409999996, -0.00999999978
64790, -0.419999987, -0.189999998
64791, -0.419999987, -0.180000007
64792, -0.419999987, -0.170000002
64793, -0.419999987, -0.159999996
64794, -0.419999987, -0.150000006
64795, -0.419999987, -0.140000001
64796, -0.419999987, -0.129999995
64797, -0.419999987, -0.119999997
64798, -0.419999987, -0.109999999
64799, -0.419999987, -0.100000001
64800, -0.419999987, -0.0900000036
64801, -0.419999987, -0.0799999982
64802, -0.419999987, -0.0700000003
64803, -0.419999987, -0.0599999987
64804, -0.419999987, -0.0500000007
64805, -0.419999987, -0.0399999991
64806, -0.419999987, -0.0299999993
64807, -0.419999987, -0.0199999996
64808, -0.419999987, -0.00999999978
64809, -0.430000007, -0.189999998
64810, -0.430000007, -0.180000007
64811, -0.430000007, -0.170000002
64812, -0.430000007, -0.159999996
64813, -0.430000007, -0.150000006
64814, -0.430000007, -0.140000001
64815, -0.430000007, -0.129999995
64816, -0.430000007, -0.119999997
64817, -0.430000007, -0.109999999
64818, -0.430000007, -0.100000001
64819, -0.430000007, -0.0900000036
64820, -0.430000007, -0.0799999982
64821, -0.430000007, -0.0700000003
64822, -0.430000007, -0.0599999987
64823, -0.430000007, -0.0500000007
64824, -0.430000007, -0.0399999991
64825, -0.430000007, -0.0299999993
64826, -0.430000007, -0.0199999996
64827, -0.430000007, -0.00999999978
64828, -0.439999998, -0.189999998
64829, -0.439999998, -0.180000007
64830, -0.439999998, -0.170000002
64831, -0.439999998, -0.159999996
64832, -0.439999998, -0.150000006
64833, -0.439999998, -0.140000001
64834, -0.439999998, -0.129999995
64835, -0.439999998, -0.119999997
64836, -0.439999998, -0.109999999
64837, -0.439999998, -0.100000001
64838, -0.439999998, -0.0900000036
64839, -0.439999998, -0.0799999982
64840, -0.439999998, -0.0700000003
64841, -0.439999998, -0.0599999987
64842, -0.439999998, -0.0500000007
64843, -0.439999998, -0.0399999991
64844, -0.439999998, -0.0299999993
64845, -0.439999998, -0.0199999996
64846, -0.439999998, -0.00999999978
64847, -0.449999988, -0.189999998
64848, -0.449999988, -0.180000007
64849, -0.449999988, -0.170000002
64850, -0.449999988, -0.159999996
64851, -0.449999988, -0.150000006
64852, -0.449999988, -0.140000001
64853, -0.449999988, -0.129999995
64854, -0.449999988, -0.119999997
64855, -0.449999988, -0.109999999
64856, -0.449999988, -0.100000001
64857, -0.449999988, -0.0900000036
64858, -0.449999988, -0.0799999982
64859, -0.449999988, -0.0700000003
64860, -0.449999988, -0.0599999987
64861, -0.449999988, -0.0500000007
64862, -0.449999988, -0.0399999991
64863, -0.449999988, -0.0299999993
64864, -0.449999988, -0.0199999996
64865, -0.449999988, -0.00999999978
64866, -0.460000008, -0.189999998
64867, -0.460000008, -0.180000007
64868, -0.460000008, -0.170000002
64869, -0.460000008, -0.159999996
64870, -0.460000008, -0.150000006
64871, -0.460000008, -0.140000001
64872, -0.460000008, -0.129999995
64873, -0.460000008, -0.119999997
64874, -0.460000008, -0.109999999
64875, -0.460000008, -0.100000001
64876, -0.460000008, -0.0900000036
64877, -0.460000008, -0.0799999982
64878, -0.460000008, -0.0700000003
64879, -0.460000008, -0.0599999987
64880, -0.460000008, -0.0500000007
64881, -0.460000008, -0.0399999991
64882, -0.460000008, -0.0299999993
64883, -0.460000008, -0.0199999996
64884, -0.460000008, -0.00999999978
64885, -0.469999999, -0.189999998
64886, -0.469999999, -0.180000007
64887, -0.469999999, -0.170000002
64888, -0.469999999, -0.159999996
64889, -0.469999999, -0.150000006
64890, -0.469999999, -0.140000001
64891, -0.469999999, -0.129999995
64892, -0.469999999, -0.119999997
64893, -0.469999999, -0.109999999
64894, -0.469999999, -0.100000001
64895, -0.469999999, -0.0900000036
64896, -0.469999999, -0.0799999982
64897, -0.469999999, -0.0700000003
64898, -0.469999999, -0.0599999987
64899, -0.469999999, -0.0500000007
64900, -0.469999999, -0.0399999991
64901, -0.469999999, -0.0299999993
64902, -0.469999999, -0.0199999996
64903, -0.469999999, -0.00999999978
64904, -0.479999989, -0.189999998
64905, -0.479999989, -0.180000007
64906, -0.479999989, -0.170000002
64907, -0.479999989, -0.159999996
64908, -0.479999989, -0.150000006
64909, -0.479999989, -0.140000001
64910, -0.479999989, -0.129999995
64911, -0.479999989, -0.119999997
64912, -0.479999989, -0.109999999
64913, -0.479999989, -0.100000001
64914, -0.479999989, -0.0900000036
64915, -0.479999989, -0.0799999982
64916, -0.479999989, -0.0700000003
64917, -0.479999989, -0.0599999987
64918, -0.479999989, -0.0500000007
64919, -0.479999989, -0.0399999991
64920, -0.479999989, -0.0299999993
64921, -0.479999989, -0.0199999996
64922, -0.479999989, -0.00999999978
64923, -0.49000001, -0.189999998
64924, -0.49000001, -0.180000007
64925, -0.49000001, -0.170000002
64926, -0.49000001, -0.159999996
64927, -0.49000001, -0.150000006
64928, -0.49000001, -0.140000001
64929, -0.49000001, -0.129999995
64930, -0.49000001, -0.119999997
64931, -0.49000001, -0.109999999
64932, -0.49000001, -0.100000001
64933, -0.49000001, -0.0900000036
64934, -0.49000001, -0.0799999982
64935, -0.49000001, -0.0700000003
64936, -0.49000001, -0.0599999987
64937, -0.49000001, -0.0500000007
64938, -0.49000001, -0.0399999991
64939, -0.49000001, -0.0299999993
64940, -0.49000001, -0.0199999996
64941, -0.49000001, -0.00999999978
900001, 0., 7
900002, 0., -7.
*NSET, NSET=QPOINT
900001
*NSET, NSET=DISP
900002
*ELEMENT, TYPE=CPE4, ELSET=BULK
1, 1, 9, 458, 244
2, 9, 10, 459, 458
3, 10, 11, 460, 459
4, 11, 12, 461, 460
5, 12, 13, 462, 461
6, 13, 14, 463, 462
7, 14, 15, 464, 463
8, 15, 16, 465, 464
9, 16, 17, 466, 465
10, 17, 18, 467, 466
11, 18, 19, 468, 467
12, 19, 20, 469, 468
13, 20, 21, 470, 469
14, 21, 22, 471, 470
15, 22, 23, 472, 471
16, 23, 24, 473, 472
17, 24, 25, 474, 473
18, 25, 26, 475, 474
19, 26, 27, 476, 475
20, 27, 2, 28, 476
21, 244, 458, 477, 243
22, 458, 459, 478, 477
23, 459, 460, 479, 478
24, 460, 461, 480, 479
25, 461, 462, 481, 480
26, 462, 463, 482, 481
27, 463, 464, 483, 482
28, 464, 465, 484, 483
29, 465, 466, 485, 484
30, 466, 467, 486, 485
31, 467, 468, 487, 486
32, 468, 469, 488, 487
33, 469, 470, 489, 488
34, 470, 471, 490, 489
35, 471, 472, 491, 490
36, 472, 473, 492, 491
37, 473, 474, 493, 492
38, 474, 475, 494, 493
39, 475, 476, 495, 494
40, 476, 28, 29, 495
41, 243, 477, 496, 242
42, 477, 478, 497, 496
43, 478, 479, 498, 497
44, 479, 480, 499, 498
45, 480, 481, 500, 499
46, 481, 482, 501, 500
47, 482, 483, 502, 501
48, 483, 484, 503, 502
49, 484, 485, 504, 503
50, 485, 486, 505, 504
51, 486, 487, 506, 505
52, 487, 488, 507, 506
53, 488, 489, 508, 507
54, 489, 490, 509, 508
55, 490, 491, 510, 509
56, 491, 492, 511, 510
57, 492, 493, 512, 511
58, 493, 494, 513, 512
59, 494, 495, 514, 513
60, 495, 29, 30, 514
61, 242, 496, 515, 241
62, 496, 497, 516, 515
63, 497, 498, 517, 516
64, 498, 499, 518, 517
65, 499, 500, 519, 518
66, 500, 501, 520, 519
67, 501, 502, 521, 520
68, 502, 503, 522, 521
69, 503, 504, 523, 522
70, 504, 505, 524, 523
71, 505, 506, 525, 524
72, 506, 507, 526, 525
73, 507, 508, 527, 526
74, 508, 509, 528, 527
75, 509, 510, 529, 528
76, 510, 511, 530, 529
77, 511, 512, 531, 530
78, 512, 513, 532, 531
79, 513, 514, 533, 532
80, 514, 30, 31, 533
81, 241, 515, 534, 240
82, 515, 516, 535, 534
83, 516, 517, 536, 535
84, 517, 518, 537, 536
85, 518, 519, 538, 537
86, 519, 520, 539, 538
87, 520, 521, 540, 539
88, 521, 522, 541, 540
89, 522, 523, 542, 541
90, 523, 524, 543, 542
91, 524, 525, 544, 543
92, 525, 526, 545, 544
93, 526, 527, 546, 545
94, 527, 528, 547, 546
95, 528, 529, 548, 547
96, 529, 530, 549, 548
97, 530, 531, 550, 549
98, 531, 532, 551, 550
99, 532, 533, 552, 551
100, 533, 31, 32, 552
101, 240, 534, 553, 239
102, 534, 535, 554, 553
103, 535, 536, 555, 554
104, 536, 537, 556, 555
105, 537, 538, 557, 556
106, 538, 539, 558, 557
107, 539, 540, 559, 558
108, 540, 541, 560, 559
109, 541, 542, 561, 560
110, 542, 543, 562, 561
111, 543, 544, 563, 562
112, 544, 545, 564, 563
113, 545, 546, 565, 564
114, 546, 547, 566, 565
115, 547, 548, 567, 566
116, 548, 549, 568, 567
117, 549, 550, 569, 568
118, 550, 551, 570, 569
119, 551, 552, 571, 570
120, 552, 32, 33, 571
121, 239, 553, 572, 238
122, 553, 554, 573, 572
123, 554, 555, 574, 573
124, 555, 556, 575, 574
125, 556, 557, 576, 575
126, 557, 558, 577, 576
127, 558, 559, 578, 577
128, 559, 560, 579, 578
129, 560, 561, 580, 579
130, 561, 562, 581, 580
131, 562, 563, 582, 581
132, 563, 564, 583, 582
133, 564, 565, 584, 583
134, 565, 566, 585, 584
135, 566, 567, 586, 585
136, 567, 568, 587, 586
137, 568, 569, 588, 587
138, 569, 570, 589, 588
139, 570, 571, 590, 589
140, 571, 33, 34, 590
141, 238, 572, 591, 237
142, 572, 573, 592, 591
143, 573, 574, 593, 592
144, 574, 575, 594, 593
145, 575, 576, 595, 594
146, 576, 577, 596, 595
147, 577, 578, 597, 596
148, 578, 579, 598, 597
149, 579, 580, 599, 598
150, 580, 581, 600, 599
151, 581, 582, 601, 600
152, 582, 583, 602, 601
153, 583, 584, 603, 602
154, 584, 585, 604, 603
155, 585, 586, 605, 604
156, 586, 587, 606, 605
157, 587, 588, 607, 606
158, 588, 589, 608, 607
159, 589, 590, 609, 608
160, 590, 34, 35, 609
161, 237, 591, 610, 236
162, 591, 592, 611, 610
163, 592, 593, 612, 611
164, 593, 594, 613, 612
165, 594, 595, 614, 613
166, 595, 596, 615, 614
167, 596, 597, 616, 615
168, 597, 598, 617, 616
169, 598, 599, 618, 617
170, 599, 600, 619, 618
171, 600, 601, 620, 619
172, 601, 602, 621, 620
173, 602, 603, 622, 621
174, 603, 604, 623, 622
175, 604, 605, 624, 623
176, 605, 606, 625, 624
177, 606, 607, 626, 625
178, 607, 608, 627, 626
179, 608, 609, 628, 627
180, 609, 35, 36, 628
181, 236, 610, 629, 235
182, 610, 611, 630, 629
183, 611, 612, 631, 630
184, 612, 613, 632, 631
185, 613, 614, 633, 632
186, 614, 615, 634, 633
187, 615, 616, 635, 634
188, 616, 617, 636, 635
189, 617, 618, 637, 636
190, 618, 619, 638, 637
191, 619, 620, 639, 638
192, 620, 621, 640, 639
193, 621, 622, 641, 640
194, 622, 623, 642, 641
195, 623, 624, 643, 642
196, 624, 625, 644, 643
197, 625, 626, 645, 644
198, 626, 627, 646, 645
199, 627, 628, 647, 646
200, 628, 36, 37, 647
201, 235, 629, 648, 234
202, 629, 630, 649, 648
203, 630, 631, 650, 649
204, 631, 632, 651, 650
205, 632, 633, 652, 651
206, 633, 634, 653, 652
207, 634, 635, 654, 653
208, 635, 636, 655, 654
209, 636, 637, 656, 655
210, 637, 638, 657, 656
211, 638, 639, 658, 657
212, 639, 640, 659, 658
213, 640, 641, 660, 659
214, 641, 642, 661, 660
215, 642, 643, 662, 661
216, 643, 644, 663, 662
217, 644, 645, 664, 663
218, 645, 646, 665, 664
219, 646, 647, 666, 665
220, 647, 37, 38, 666
221, 234, 648, 667, 233
222, 648, 649, 668, 667
223, 649, 650, 669, 668
224, 650, 651, 670, 669
225, 651, 652, 671, 670
226, 652, 653, 672, 671
227, 653, 654, 673, 672
228, 654, 655, 674, 673
229, 655, 656, 675, 674
230, 656, 657, 676, 675
231, 657, 658, 677, 676
232, 658, 659, 678, 677
233, 659, 660, 679, 678
234, 660, 661, 680, 679
235, 661, 662, 681, 680
236, 662, 663, 682, 681
237, 663, 664, 683, 682
238, 664, 665, 684, 683
239, 665, 666, 685, 684
240, 666, 38, 39, 685
241, 233, 667, 686, 232
242, 667, 668, 687, 686
243, 668, 669, 688, 687
244, 669, 670, 689, 688
245, 670, 671, 690, 689
246, 671, 672, 691, 690
247, 672, 673, 692, 691
248, 673, 674, 693, 692
249, 674, 675, 694, 693
250, 675, 676, 695, 694
251, 676, 677, 696, 695
252, 677, 678, 697, 696
253, 678, 679, 698, 697
254, 679, 680, 699, 698
255, 680, 681, 700, 699
256, 681, 682, 701, 700
257, 682, 683, 702, 701
258, 683, 684, 703, 702
259, 684, 685, 704, 703
260, 685, 39, 40, 704
261, 232, 686, 705, 231
262, 686, 687, 706, 705
263, 687, 688, 707, 706
264, 688, 689, 708, 707
265, 689, 690, 709, 708
266, 690, 691, 710, 709
267, 691, 692, 711, 710
268, 692, 693, 712, 711
269, 693, 694, 713, 712
270, 694, 695, 714, 713
271, 695, 696, 715, 714
272, 696, 697, 716, 715
273, 697, 698, 717, 716
274, 698, 699, 718, 717
275, 699, 700, 719, 718
276, 700, 701, 720, 719
277, 701, 702, 721, 720
278, 702, 703, 722, 721
279, 703, 704, 723, 722
280, 704, 40, 41, 723
281, 231, 705, 724, 230
282, 705, 706, 725, 724
283, 706, 707, 726, 725
284, 707, 708, 727, 726
285, 708, 709, 728, 727
286, 709, 710, 729, 728
287, 710, 711, 730, 729
288, 711, 712, 731, 730
289, 712, 713, 732, 731
290, 713, 714, 733, 732
291, 714, 715, 734, 733
292, 715, 716, 735, 734
293, 716, 717, 736, 735
294, 717, 718, 737, 736
295, 718, 719, 738, 737
296, 719, 720, 739, 738
297, 720, 721, 740, 739
298, 721, 722, 741, 740
299, 722, 723, 742, 741
300, 723, 41, 42, 742
301, 230, 724, 743, 229
302, 724, 725, 744, 743
303, 725, 726, 745, 744
304, 726, 727, 746, 745
305, 727, 728, 747, 746
306, 728, 729, 748, 747
307, 729, 730, 749, 748
308, 730, 731, 750, 749
309, 731, 732, 751, 750
310, 732, 733, 752, 751
311, 733, 734, 753, 752
312, 734, 735, 754, 753
313, 735, 736, 755, 754
314, 736, 737, 756, 755
315, 737, 738, 757, 756
316, 738, 739, 758, 757
317, 739, 740, 759, 758
318, 740, 741, 760, 759
319, 741, 742, 761, 760
320, 742, 42, 43, 761
321, 229, 743, 762, 228
322, 743, 744, 763, 762
323, 744, 745, 764, 763
324, 745, 746, 765, 764
325, 746, 747, 766, 765
326, 747, 748, 767, 766
327, 748, 749, 768, 767
328, 749, 750, 769, 768
329, 750, 751, 770, 769
330, 751, 752, 771, 770
331, 752, 753, 772, 771
332, 753, 754, 773, 772
333, 754, 755, 774, 773
334, 755, 756, 775, 774
335, 756, 757, 776, 775
336, 757, 758, 777, 776
337, 758, 759, 778, 777
338, 759, 760, 779, 778
339, 760, 761, 780, 779
340, 761, 43, 44, 780
341, 228, 762, 781, 227
342, 762, 763, 782, 781
343, 763, 764, 783, 782
344, 764, 765, 784, 783
345, 765, 766, 785, 784
346, 766, 767, 786, 785
347, 767, 768, 787, 786
348, 768, 769, 788, 787
349, 769, 770, 789, 788
350, 770, 771, 790, 789
351, 771, 772, 791, 790
352, 772, 773, 792, 791
353, 773, 774, 793, 792
354, 774, 775, 794, 793
355, 775, 776, 795, 794
356, 776, 777, 796, 795
357, 777, 778, 797, 796
358, 778, 779, 798, 797
359, 779, 780, 799, 798
360, 780, 44, 45, 799
361, 227, 781, 800, 226
362, 781, 782, 801, 800
363, 782, 783, 802, 801
364, 783, 784, 803, 802
365, 784, 785, 804, 803
366, 785, 786, 805, 804
367, 786, 787, 806, 805
368, 787, 788, 807, 806
369, 788, 789, 808, 807
370, 789, 790, 809, 808
371, 790, 791, 810, 809
372, 791, 792, 811, 810
373, 792, 793, 812, 811
374, 793, 794, 813, 812
375, 794, 795, 814, 813
376, 795, 796, 815, 814
377, 796, 797, 816, 815
378, 797, 798, 817, 816
379, 798, 799, 818, 817
380, 799, 45, 46, 818
381, 226, 800, 819, 225
382, 800, 801, 820, 819
383, 801, 802, 821, 820
384, 802, 803, 822, 821
385, 803, 804, 823, 822
386, 804, 805, 824, 823
387, 805, 806, 825, 824
388, 806, 807, 826, 825
389, 807, 808, 827, 826
390, 808, 809, 828, 827
391, 809, 810, 829, 828
392, 810, 811, 830, 829
393, 811, 812, 831, 830
394, 812, 813, 832, 831
395, 813, 814, 833, 832
396, 814, 815, 834, 833
397, 815, 816, 835, 834
398, 816, 817, 836, 835
399, 817, 818, 837, 836
400, 818, 46, 47, 837
401, 225, 819, 838, 224
402, 819, 820, 839, 838
403, 820, 821, 840, 839
404, 821, 822, 841, 840
405, 822, 823, 842, 841
406, 823, 824, 843, 842
407, 824, 825, 844, 843
408, 825, 826, 845, 844
409, 826, 827, 846, 845
410, 827, 828, 847, 846
411, 828, 829, 848, 847
412, 829, 830, 849, 848
413, 830, 831, 850, 849
414, 831, 832, 851, 850
415, 832, 833, 852, 851
416, 833, 834, 853, 852
417, 834, 835, 854, 853
418, 835, 836, 855, 854
419, 836, 837, 856, 855
420, 837, 47, 48, 856
421, 224, 838, 857, 223
422, 838, 839, 858, 857
423, 839, 840, 859, 858
424, 840, 841, 860, 859
425, 841, 842, 861, 860
426, 842, 843, 862, 861
427, 843, 844, 863, 862
428, 844, 845, 864, 863
429, 845, 846, 865, 864
430, 846, 847, 866, 865
431, 847, 848, 867, 866
432, 848, 849, 868, 867
433, 849, 850, 869, 868
434, 850, 851, 870, 869
435, 851, 852, 871, 870
436, 852, 853, 872, 871
437, 853, 854, 873, 872
438, 854, 855, 874, 873
439, 855, 856, 875, 874
440, 856, 48, 49, 875
441, 223, 857, 876, 222
442, 857, 858, 877, 876
443, 858, 859, 878, 877
444, 859, 860, 879, 878
445, 860, 861, 880, 879
446, 861, 862, 881, 880
447, 862, 863, 882, 881
448, 863, 864, 883, 882
449, 864, 865, 884, 883
450, 865, 866, 885, 884
451, 866, 867, 886, 885
452, 867, 868, 887, 886
453, 868, 869, 888, 887
454, 869, 870, 889, 888
455, 870, 871, 890, 889
456, 871, 872, 891, 890
457, 872, 873, 892, 891
458, 873, 874, 893, 892
459, 874, 875, 894, 893
460, 875, 49, 50, 894
461, 222, 876, 895, 221
462, 876, 877, 896, 895
463, 877, 878, 897, 896
464, 878, 879, 898, 897
465, 879, 880, 899, 898
466, 880, 881, 900, 899
467, 881, 882, 901, 900
468, 882, 883, 902, 901
469, 883, 884, 903, 902
470, 884, 885, 904, 903
471, 885, 886, 905, 904
472, 886, 887, 906, 905
473, 887, 888, 907, 906
474, 888, 889, 908, 907
475, 889, 890, 909, 908
476, 890, 891, 910, 909
477, 891, 892, 911, 910
478, 892, 893, 912, 911
479, 893, 894, 913, 912
480, 894, 50, 51, 913
481, 221, 895, 914, 220
482, 895, 896, 915, 914
483, 896, 897, 916, 915
484, 897, 898, 917, 916
485, 898, 899, 918, 917
486, 899, 900, 919, 918
487, 900, 901, 920, 919
488, 901, 902, 921, 920
489, 902, 903, 922, 921
490, 903, 904, 923, 922
491, 904, 905, 924, 923
492, 905, 906, 925, 924
493, 906, 907, 926, 925
494, 907, 908, 927, 926
495, 908, 909, 928, 927
496, 909, 910, 929, 928
497, 910, 911, 930, 929
498, 911, 912, 931, 930
499, 912, 913, 932, 931
500, 913, 51, 52, 932
501, 220, 914, 933, 219
502, 914, 915, 934, 933
503, 915, 916, 935, 934
504, 916, 917, 936, 935
505, 917, 918, 937, 936
506, 918, 919, 938, 937
507, 919, 920, 939, 938
508, 920, 921, 940, 939
509, 921, 922, 941, 940
510, 922, 923, 942, 941
511, 923, 924, 943, 942
512, 924, 925, 944, 943
513, 925, 926, 945, 944
514, 926, 927, 946, 945
515, 927, 928, 947, 946
516, 928, 929, 948, 947
517, 929, 930, 949, 948
518, 930, 931, 950, 949
519, 931, 932, 951, 950
520, 932, 52, 53, 951
521, 219, 933, 952, 218
522, 933, 934, 953, 952
523, 934, 935, 954, 953
524, 935, 936, 955, 954
525, 936, 937, 956, 955
526, 937, 938, 957, 956
527, 938, 939, 958, 957
528, 939, 940, 959, 958
529, 940, 941, 960, 959
530, 941, 942, 961, 960
531, 942, 943, 962, 961
532, 943, 944, 963, 962
533, 944, 945, 964, 963
534, 945, 946, 965, 964
535, 946, 947, 966, 965
536, 947, 948, 967, 966
537, 948, 949, 968, 967
538, 949, 950, 969, 968
539, 950, 951, 970, 969
540, 951, 53, 54, 970
541, 218, 952, 971, 217
542, 952, 953, 972, 971
543, 953, 954, 973, 972
544, 954, 955, 974, 973
545, 955, 956, 975, 974
546, 956, 957, 976, 975
547, 957, 958, 977, 976
548, 958, 959, 978, 977
549, 959, 960, 979, 978
550, 960, 961, 980, 979
551, 961, 962, 981, 980
552, 962, 963, 982, 981
553, 963, 964, 983, 982
554, 964, 965, 984, 983
555, 965, 966, 985, 984
556, 966, 967, 986, 985
557, 967, 968, 987, 986
558, 968, 969, 988, 987
559, 969, 970, 989, 988
560, 970, 54, 55, 989
561, 217, 971, 990, 216
562, 971, 972, 991, 990
563, 972, 973, 992, 991
564, 973, 974, 993, 992
565, 974, 975, 994, 993
566, 975, 976, 995, 994
567, 976, 977, 996, 995
568, 977, 978, 997, 996
569, 978, 979, 998, 997
570, 979, 980, 999, 998
571, 980, 981, 1000, 999
572, 981, 982, 1001, 1000
573, 982, 983, 1002, 1001
574, 983, 984, 1003, 1002
575, 984, 985, 1004, 1003
576, 985, 986, 1005, 1004
577, 986, 987, 1006, 1005
578, 987, 988, 1007, 1006
579, 988, 989, 1008, 1007
580, 989, 55, 56, 1008
581, 216, 990, 1009, 215
582, 990, 991, 1010, 1009
583, 991, 992, 1011, 1010
584, 992, 993, 1012, 1011
585, 993, 994, 1013, 1012
586, 994, 995, 1014, 1013
587, 995, 996, 1015, 1014
588, 996, 997, 1016, 1015
589, 997, 998, 1017, 1016
590, 998, 999, 1018, 1017
591, 999, 1000, 1019, 1018
592, 1000, 1001, 1020, 1019
593, 1001, 1002, 1021, 1020
594, 1002, 1003, 1022, 1021
595, 1003, 1004, 1023, 1022
596, 1004, 1005, 1024, 1023
597, 1005, 1006, 1025, 1024
598, 1006, 1007, 1026, 1025
599, 1007, 1008, 1027, 1026
600, 1008, 56, 57, 1027
601, 215, 1009, 1028, 214
602, 1009, 1010, 1029, 1028
603, 1010, 1011, 1030, 1029
604, 1011, 1012, 1031, 1030
605, 1012, 1013, 1032, 1031
606, 1013, 1014, 1033, 1032
607, 1014, 1015, 1034, 1033
608, 1015, 1016, 1035, 1034
609, 1016, 1017, 1036, 1035
610, 1017, 1018, 1037, 1036
611, 1018, 1019, 1038, 1037
612, 1019, 1020, 1039, 1038
613, 1020, 1021, 1040, 1039
614, 1021, 1022, 1041, 1040
615, 1022, 1023, 1042, 1041
616, 1023, 1024, 1043, 1042
617, 1024, 1025, 1044, 1043
618, 1025, 1026, 1045, 1044
619, 1026, 1027, 1046, 1045
620, 1027, 57, 58, 1046
621, 214, 1028, 1047, 213
622, 1028, 1029, 1048, 1047
623, 1029, 1030, 1049, 1048
624, 1030, 1031, 1050, 1049
625, 1031, 1032, 1051, 1050
626, 1032, 1033, 1052, 1051
627, 1033, 1034, 1053, 1052
628, 1034, 1035, 1054, 1053
629, 1035, 1036, 1055, 1054
630, 1036, 1037, 1056, 1055
631, 1037, 1038, 1057, 1056
632, 1038, 1039, 1058, 1057
633, 1039, 1040, 1059, 1058
634, 1040, 1041, 1060, 1059
635, 1041, 1042, 1061, 1060
636, 1042, 1043, 1062, 1061
637, 1043, 1044, 1063, 1062
638, 1044, 1045, 1064, 1063
639, 1045, 1046, 1065, 1064
640, 1046, 58, 59, 1065
641, 213, 1047, 1066, 212
642, 1047, 1048, 1067, 1066
643, 1048, 1049, 1068, 1067
644, 1049, 1050, 1069, 1068
645, 1050, 1051, 1070, 1069
646, 1051, 1052, 1071, 1070
647, 1052, 1053, 1072, 1071
648, 1053, 1054, 1073, 1072
649, 1054, 1055, 1074, 1073
650, 1055, 1056, 1075, 1074
651, 1056, 1057, 1076, 1075
652, 1057, 1058, 1077, 1076
653, 1058, 1059, 1078, 1077
654, 1059, 1060, 1079, 1078
655, 1060, 1061, 1080, 1079
656, 1061, 1062, 1081, 1080
657, 1062, 1063, 1082, 1081
658, 1063, 1064, 1083, 1082
659, 1064, 1065, 1084, 1083
660, 1065, 59, 60, 1084
661, 212, 1066, 1085, 211
662, 1066, 1067, 1086, 1085
663, 1067, 1068, 1087, 1086
664, 1068, 1069, 1088, 1087
665, 1069, 1070, 1089, 1088
666, 1070, 1071, 1090, 1089
667, 1071, 1072, 1091, 1090
668, 1072, 1073, 1092, 1091
669, 1073, 1074, 1093, 1092
670, 1074, 1075, 1094, 1093
671, 1075, 1076, 1095, 1094
672, 1076, 1077, 1096, 1095
673, 1077, 1078, 1097, 1096
674, 1078, 1079, 1098, 1097
675, 1079, 1080, 1099, 1098
676, 1080, 1081, 1100, 1099
677, 1081, 1082, 1101, 1100
678, 1082, 1083, 1102, 1101
679, 1083, 1084, 1103, 1102
680, 1084, 60, 61, 1103
681, 211, 1085, 1104, 210
682, 1085, 1086, 1105, 1104
683, 1086, 1087, 1106, 1105
684, 1087, 1088, 1107, 1106
685, 1088, 1089, 1108, 1107
686, 1089, 1090, 1109, 1108
687, 1090, 1091, 1110, 1109
688, 1091, 1092, 1111, 1110
689, 1092, 1093, 1112, 1111
690, 1093, 1094, 1113, 1112
691, 1094, 1095, 1114, 1113
692, 1095, 1096, 1115, 1114
693, 1096, 1097, 1116, 1115
694, 1097, 1098, 1117, 1116
695, 1098, 1099, 1118, 1117
696, 1099, 1100, 1119, 1118
697, 1100, 1101, 1120, 1119
698, 1101, 1102, 1121, 1120
699, 1102, 1103, 1122, 1121
700, 1103, 61, 62, 1122
701, 210, 1104, 1123, 209
702, 1104, 1105, 1124, 1123
703, 1105, 1106, 1125, 1124
704, 1106, 1107, 1126, 1125
705, 1107, 1108, 1127, 1126
706, 1108, 1109, 1128, 1127
707, 1109, 1110, 1129, 1128
708, 1110, 1111, 1130, 1129
709, 1111, 1112, 1131, 1130
710, 1112, 1113, 1132, 1131
711, 1113, 1114, 1133, 1132
712, 1114, 1115, 1134, 1133
713, 1115, 1116, 1135, 1134
714, 1116, 1117, 1136, 1135
715, 1117, 1118, 1137, 1136
716, 1118, 1119, 1138, 1137
717, 1119, 1120, 1139, 1138
718, 1120, 1121, 1140, 1139
719, 1121, 1122, 1141, 1140
720, 1122, 62, 63, 1141
721, 209, 1123, 1142, 208
722, 1123, 1124, 1143, 1142
723, 1124, 1125, 1144, 1143
724, 1125, 1126, 1145, 1144
725, 1126, 1127, 1146, 1145
726, 1127, 1128, 1147, 1146
727, 1128, 1129, 1148, 1147
728, 1129, 1130, 1149, 1148
729, 1130, 1131, 1150, 1149
730, 1131, 1132, 1151, 1150
731, 1132, 1133, 1152, 1151
732, 1133, 1134, 1153, 1152
733, 1134, 1135, 1154, 1153
734, 1135, 1136, 1155, 1154
735, 1136, 1137, 1156, 1155
736, 1137, 1138, 1157, 1156
737, 1138, 1139, 1158, 1157
738, 1139, 1140, 1159, 1158
739, 1140, 1141, 1160, 1159
740, 1141, 63, 64, 1160
741, 208, 1142, 1161, 207
742, 1142, 1143, 1162, 1161
743, 1143, 1144, 1163, 1162
744, 1144, 1145, 1164, 1163
745, 1145, 1146, 1165, 1164
746, 1146, 1147, 1166, 1165
747, 1147, 1148, 1167, 1166
748, 1148, 1149, 1168, 1167
749, 1149, 1150, 1169, 1168
750, 1150, 1151, 1170, 1169
751, 1151, 1152, 1171, 1170
752, 1152, 1153, 1172, 1171
753, 1153, 1154, 1173, 1172
754, 1154, 1155, 1174, 1173
755, 1155, 1156, 1175, 1174
756, 1156, 1157, 1176, 1175
757, 1157, 1158, 1177, 1176
758, 1158, 1159, 1178, 1177
759, 1159, 1160, 1179, 1178
760, 1160, 64, 65, 1179
761, 207, 1161, 1180, 206
762, 1161, 1162, 1181, 1180
763, 1162, 1163, 1182, 1181
764, 1163, 1164, 1183, 1182
765, 1164, 1165, 1184, 1183
766, 1165, 1166, 1185, 1184
767, 1166, 1167, 1186, 1185
768, 1167, 1168, 1187, 1186
769, 1168, 1169, 1188, 1187
770, 1169, 1170, 1189, 1188
771, 1170, 1171, 1190, 1189
772, 1171, 1172, 1191, 1190
773, 1172, 1173, 1192, 1191
774, 1173, 1174, 1193, 1192
775, 1174, 1175, 1194, 1193
776, 1175, 1176, 1195, 1194
777, 1176, 1177, 1196, 1195
778, 1177, 1178, 1197, 1196
779, 1178, 1179, 1198, 1197
780, 1179, 65, 66, 1198
781, 206, 1180, 1199, 205
782, 1180, 1181, 1200, 1199
783, 1181, 1182, 1201, 1200
784, 1182, 1183, 1202, 1201
785, 1183, 1184, 1203, 1202
786, 1184, 1185, 1204, 1203
787, 1185, 1186, 1205, 1204
788, 1186, 1187, 1206, 1205
789, 1187, 1188, 1207, 1206
790, 1188, 1189, 1208, 1207
791, 1189, 1190, 1209, 1208
792, 1190, 1191, 1210, 1209
793, 1191, 1192, 1211, 1210
794, 1192, 1193, 1212, 1211
795, 1193, 1194, 1213, 1212
796, 1194, 1195, 1214, 1213
797, 1195, 1196, 1215, 1214
798, 1196, 1197, 1216, 1215
799, 1197, 1198, 1217, 1216
800, 1198, 66, 67, 1217
801, 205, 1199, 1218, 204
802, 1199, 1200, 1219, 1218
803, 1200, 1201, 1220, 1219
804, 1201, 1202, 1221, 1220
805, 1202, 1203, 1222, 1221
806, 1203, 1204, 1223, 1222
807, 1204, 1205, 1224, 1223
808, 1205, 1206, 1225, 1224
809, 1206, 1207, 1226, 1225
810, 1207, 1208, 1227, 1226
811, 1208, 1209, 1228, 1227
812, 1209, 1210, 1229, 1228
813, 1210, 1211, 1230, 1229
814, 1211, 1212, 1231, 1230
815, 1212, 1213, 1232, 1231
816, 1213, 1214, 1233, 1232
817, 1214, 1215, 1234, 1233
818, 1215, 1216, 1235, 1234
819, 1216, 1217, 1236, 1235
820, 1217, 67, 68, 1236
821, 204, 1218, 1237, 203
822, 1218, 1219, 1238, 1237
823, 1219, 1220, 1239, 1238
824, 1220, 1221, 1240, 1239
825, 1221, 1222, 1241, 1240
826, 1222, 1223, 1242, 1241
827, 1223, 1224, 1243, 1242
828, 1224, 1225, 1244, 1243
829, 1225, 1226, 1245, 1244
830, 1226, 1227, 1246, 1245
831, 1227, 1228, 1247, 1246
832, 1228, 1229, 1248, 1247
833, 1229, 1230, 1249, 1248
834, 1230, 1231, 1250, 1249
835, 1231, 1232, 1251, 1250
836, 1232, 1233, 1252, 1251
837, 1233, 1234, 1253, 1252
838, 1234, 1235, 1254, 1253
839, 1235, 1236, 1255, 1254
840, 1236, 68, 69, 1255
841, 203, 1237, 1256, 202
842, 1237, 1238, 1257, 1256
843, 1238, 1239, 1258, 1257
844, 1239, 1240, 1259, 1258
845, 1240, 1241, 1260, 1259
846, 1241, 1242, 1261, 1260
847, 1242, 1243, 1262, 1261
848, 1243, 1244, 1263, 1262
849, 1244, 1245, 1264, 1263
850, 1245, 1246, 1265, 1264
851, 1246, 1247, 1266, 1265
852, 1247, 1248, 1267, 1266
853, 1248, 1249, 1268, 1267
854, 1249, 1250, 1269, 1268
855, 1250, 1251, 1270, 1269
856, 1251, 1252, 1271, 1270
857, 1252, 1253, 1272, 1271
858, 1253, 1254, 1273, 1272
859, 1254, 1255, 1274, 1273
860, 1255, 69, 70, 1274
861, 202, 1256, 1275, 201
862, 1256, 1257, 1276, 1275
863, 1257, 1258, 1277, 1276
864, 1258, 1259, 1278, 1277
865, 1259, 1260, 1279, 1278
866, 1260, 1261, 1280, 1279
867, 1261, 1262, 1281, 1280
868, 1262, 1263, 1282, 1281
869, 1263, 1264, 1283, 1282
870, 1264, 1265, 1284, 1283
871, 1265, 1266, 1285, 1284
872, 1266, 1267, 1286, 1285
873, 1267, 1268, 1287, 1286
874, 1268, 1269, 1288, 1287
875, 1269, 1270, 1289, 1288
876, 1270, 1271, 1290, 1289
877, 1271, 1272, 1291, 1290
878, 1272, 1273, 1292, 1291
879, 1273, 1274, 1293, 1292
880, 1274, 70, 71, 1293
881, 201, 1275, 1294, 200
882, 1275, 1276, 1295, 1294
883, 1276, 1277, 1296, 1295
884, 1277, 1278, 1297, 1296
885, 1278, 1279, 1298, 1297
886, 1279, 1280, 1299, 1298
887, 1280, 1281, 1300, 1299
888, 1281, 1282, 1301, 1300
889, 1282, 1283, 1302, 1301
890, 1283, 1284, 1303, 1302
891, 1284, 1285, 1304, 1303
892, 1285, 1286, 1305, 1304
893, 1286, 1287, 1306, 1305
894, 1287, 1288, 1307, 1306
895, 1288, 1289, 1308, 1307
896, 1289, 1290, 1309, 1308
897, 1290, 1291, 1310, 1309
898, 1291, 1292, 1311, 1310
899, 1292, 1293, 1312, 1311
900, 1293, 71, 72, 1312
901, 200, 1294, 1313, 199
902, 1294, 1295, 1314, 1313
903, 1295, 1296, 1315, 1314
904, 1296, 1297, 1316, 1315
905, 1297, 1298, 1317, 1316
906, 1298, 1299, 1318, 1317
907, 1299, 1300, 1319, 1318
908, 1300, 1301, 1320, 1319
909, 1301, 1302, 1321, 1320
910, 1302, 1303, 1322, 1321
911, 1303, 1304, 1323, 1322
912, 1304, 1305, 1324, 1323
913, 1305, 1306, 1325, 1324
914, 1306, 1307, 1326, 1325
915, 1307, 1308, 1327, 1326
916, 1308, 1309, 1328, 1327
917, 1309, 1310, 1329, 1328
918, 1310, 1311, 1330, 1329
919, 1311, 1312, 1331, 1330
920, 1312, 72, 73, 1331
921, 199, 1313, 1332, 198
922, 1313, 1314, 1333, 1332
923, 1314, 1315, 1334, 1333
924, 1315, 1316, 1335, 1334
925, 1316, 1317, 1336, 1335
926, 1317, 1318, 1337, 1336
927, 1318, 1319, 1338, 1337
928, 1319, 1320, 1339, 1338
929, 1320, 1321, 1340, 1339
930, 1321, 1322, 1341, 1340
931, 1322, 1323, 1342, 1341
932, 1323, 1324, 1343, 1342
933, 1324, 1325, 1344, 1343
934, 1325, 1326, 1345, 1344
935, 1326, 1327, 1346, 1345
936, 1327, 1328, 1347, 1346
937, 1328, 1329, 1348, 1347
938, 1329, 1330, 1349, 1348
939, 1330, 1331, 1350, 1349
940, 1331, 73, 74, 1350
941, 198, 1332, 1351, 197
942, 1332, 1333, 1352, 1351
943, 1333, 1334, 1353, 1352
944, 1334, 1335, 1354, 1353
945, 1335, 1336, 1355, 1354
946, 1336, 1337, 1356, 1355
947, 1337, 1338, 1357, 1356
948, 1338, 1339, 1358, 1357
949, 1339, 1340, 1359, 1358
950, 1340, 1341, 1360, 1359
951, 1341, 1342, 1361, 1360
952, 1342, 1343, 1362, 1361
953, 1343, 1344, 1363, 1362
954, 1344, 1345, 1364, 1363
955, 1345, 1346, 1365, 1364
956, 1346, 1347, 1366, 1365
957, 1347, 1348, 1367, 1366
958, 1348, 1349, 1368, 1367
959, 1349, 1350, 1369, 1368
960, 1350, 74, 75, 1369
961, 197, 1351, 1370, 196
962, 1351, 1352, 1371, 1370
963, 1352, 1353, 1372, 1371
964, 1353, 1354, 1373, 1372
965, 1354, 1355, 1374, 1373
966, 1355, 1356, 1375, 1374
967, 1356, 1357, 1376, 1375
968, 1357, 1358, 1377, 1376
969, 1358, 1359, 1378, 1377
970, 1359, 1360, 1379, 1378
971, 1360, 1361, 1380, 1379
972, 1361, 1362, 1381, 1380
973, 1362, 1363, 1382, 1381
974, 1363, 1364, 1383, 1382
975, 1364, 1365, 1384, 1383
976, 1365, 1366, 1385, 1384
977, 1366, 1367, 1386, 1385
978, 1367, 1368, 1387, 1386
979, 1368, 1369, 1388, 1387
980, 1369, 75, 76, 1388
981, 196, 1370, 1389, 195
982, 1370, 1371, 1390, 1389
983, 1371, 1372, 1391, 1390
984, 1372, 1373, 1392, 1391
985, 1373, 1374, 1393, 1392
986, 1374, 1375, 1394, 1393
987, 1375, 1376, 1395, 1394
988, 1376, 1377, 1396, 1395
989, 1377, 1378, 1397, 1396
990, 1378, 1379, 1398, 1397
991, 1379, 1380, 1399, 1398
992, 1380, 1381, 1400, 1399
993, 1381, 1382, 1401, 1400
994, 1382, 1383, 1402, 1401
995, 1383, 1384, 1403, 1402
996, 1384, 1385, 1404, 1403
997, 1385, 1386, 1405, 1404
998, 1386, 1387, 1406, 1405
999, 1387, 1388, 1407, 1406
1000, 1388, 76, 77, 1407
1001, 195, 1389, 1408, 194
1002, 1389, 1390, 1409, 1408
1003, 1390, 1391, 1410, 1409
1004, 1391, 1392, 1411, 1410
1005, 1392, 1393, 1412, 1411
1006, 1393, 1394, 1413, 1412
1007, 1394, 1395, 1414, 1413
1008, 1395, 1396, 1415, 1414
1009, 1396, 1397, 1416, 1415
1010, 1397, 1398, 1417, 1416
1011, 1398, 1399, 1418, 1417
1012, 1399, 1400, 1419, 1418
1013, 1400, 1401, 1420, 1419
1014, 1401, 1402, 1421, 1420
1015, 1402, 1403, 1422, 1421
1016, 1403, 1404, 1423, 1422
1017, 1404, 1405, 1424, 1423
1018, 1405, 1406, 1425, 1424
1019, 1406, 1407, 1426, 1425
1020, 1407, 77, 78, 1426
1021, 194, 1408, 1427, 193
1022, 1408, 1409, 1428, 1427
1023, 1409, 1410, 1429, 1428
1024, 1410, 1411, 1430, 1429
1025, 1411, 1412, 1431, 1430
1026, 1412, 1413, 1432, 1431
1027, 1413, 1414, 1433, 1432
1028, 1414, 1415, 1434, 1433
1029, 1415, 1416, 1435, 1434
1030, 1416, 1417, 1436, 1435
1031, 1417, 1418, 1437, 1436
1032, 1418, 1419, 1438, 1437
1033, 1419, 1420, 1439, 1438
1034, 1420, 1421, 1440, 1439
1035, 1421, 1422, 1441, 1440
1036, 1422, 1423, 1442, 1441
1037, 1423, 1424, 1443, 1442
1038, 1424, 1425, 1444, 1443
1039, 1425, 1426, 1445, 1444
1040, 1426, 78, 79, 1445
1041, 193, 1427, 1446, 192
1042, 1427, 1428, 1447, 1446
1043, 1428, 1429, 1448, 1447
1044, 1429, 1430, 1449, 1448
1045, 1430, 1431, 1450, 1449
1046, 1431, 1432, 1451, 1450
1047, 1432, 1433, 1452, 1451
1048, 1433, 1434, 1453, 1452
1049, 1434, 1435, 1454, 1453
1050, 1435, 1436, 1455, 1454
1051, 1436, 1437, 1456, 1455
1052, 1437, 1438, 1457, 1456
1053, 1438, 1439, 1458, 1457
1054, 1439, 1440, 1459, 1458
1055, 1440, 1441, 1460, 1459
1056, 1441, 1442, 1461, 1460
1057, 1442, 1443, 1462, 1461
1058, 1443, 1444, 1463, 1462
1059, 1444, 1445, 1464, 1463
1060, 1445, 79, 80, 1464
1061, 192, 1446, 1465, 191
1062, 1446, 1447, 1466, 1465
1063, 1447, 1448, 1467, 1466
1064, 1448, 1449, 1468, 1467
1065, 1449, 1450, 1469, 1468
1066, 1450, 1451, 1470, 1469
1067, 1451, 1452, 1471, 1470
1068, 1452, 1453, 1472, 1471
1069, 1453, 1454, 1473, 1472
1070, 1454, 1455, 1474, 1473
1071, 1455, 1456, 1475, 1474
1072, 1456, 1457, 1476, 1475
1073, 1457, 1458, 1477, 1476
1074, 1458, 1459, 1478, 1477
1075, 1459, 1460, 1479, 1478
1076, 1460, 1461, 1480, 1479
1077, 1461, 1462, 1481, 1480
1078, 1462, 1463, 1482, 1481
1079, 1463, 1464, 1483, 1482
1080, 1464, 80, 81, 1483
1081, 191, 1465, 1484, 190
1082, 1465, 1466, 1485, 1484
1083, 1466, 1467, 1486, 1485
1084, 1467, 1468, 1487, 1486
1085, 1468, 1469, 1488, 1487
1086, 1469, 1470, 1489, 1488
1087, 1470, 1471, 1490, 1489
1088, 1471, 1472, 1491, 1490
1089, 1472, 1473, 1492, 1491
1090, 1473, 1474, 1493, 1492
1091, 1474, 1475, 1494, 1493
1092, 1475, 1476, 1495, 1494
1093, 1476, 1477, 1496, 1495
1094, 1477, 1478, 1497, 1496
1095, 1478, 1479, 1498, 1497
1096, 1479, 1480, 1499, 1498
1097, 1480, 1481, 1500, 1499
1098, 1481, 1482, 1501, 1500
1099, 1482, 1483, 1502, 1501
1100, 1483, 81, 82, 1502
1101, 190, 1484, 1503, 189
1102, 1484, 1485, 1504, 1503
1103, 1485, 1486, 1505, 1504
1104, 1486, 1487, 1506, 1505
1105, 1487, 1488, 1507, 1506
1106, 1488, 1489, 1508, 1507
1107, 1489, 1490, 1509, 1508
1108, 1490, 1491, 1510, 1509
1109, 1491, 1492, 1511, 1510
1110, 1492, 1493, 1512, 1511
1111, 1493, 1494, 1513, 1512
1112, 1494, 1495, 1514, 1513
1113, 1495, 1496, 1515, 1514
1114, 1496, 1497, 1516, 1515
1115, 1497, 1498, 1517, 1516
1116, 1498, 1499, 1518, 1517
1117, 1499, 1500, 1519, 1518
1118, 1500, 1501, 1520, 1519
1119, 1501, 1502, 1521, 1520
1120, 1502, 82, 83, 1521
1121, 189, 1503, 1522, 188
1122, 1503, 1504, 1523, 1522
1123, 1504, 1505, 1524, 1523
1124, 1505, 1506, 1525, 1524
1125, 1506, 1507, 1526, 1525
1126, 1507, 1508, 1527, 1526
1127, 1508, 1509, 1528, 1527
1128, 1509, 1510, 1529, 1528
1129, 1510, 1511, 1530, 1529
1130, 1511, 1512, 1531, 1530
1131, 1512, 1513, 1532, 1531
1132, 1513, 1514, 1533, 1532
1133, 1514, 1515, 1534, 1533
1134, 1515, 1516, 1535, 1534
1135, 1516, 1517, 1536, 1535
1136, 1517, 1518, 1537, 1536
1137, 1518, 1519, 1538, 1537
1138, 1519, 1520, 1539, 1538
1139, 1520, 1521, 1540, 1539
1140, 1521, 83, 84, 1540
1141, 188, 1522, 1541, 187
1142, 1522, 1523, 1542, 1541
1143, 1523, 1524, 1543, 1542
1144, 1524, 1525, 1544, 1543
1145, 1525, 1526, 1545, 1544
1146, 1526, 1527, 1546, 1545
1147, 1527, 1528, 1547, 1546
1148, 1528, 1529, 1548, 1547
1149, 1529, 1530, 1549, 1548
1150, 1530, 1531, 1550, 1549
1151, 1531, 1532, 1551, 1550
1152, 1532, 1533, 1552, 1551
1153, 1533, 1534, 1553, 1552
1154, 1534, 1535, 1554, 1553
1155, 1535, 1536, 1555, 1554
1156, 1536, 1537, 1556, 1555
1157, 1537, 1538, 1557, 1556
1158, 1538, 1539, 1558, 1557
1159, 1539, 1540, 1559, 1558
1160, 1540, 84, 85, 1559
1161, 187, 1541, 1560, 186
1162, 1541, 1542, 1561, 1560
1163, 1542, 1543, 1562, 1561
1164, 1543, 1544, 1563, 1562
1165, 1544, 1545, 1564, 1563
1166, 1545, 1546, 1565, 1564
1167, 1546, 1547, 1566, 1565
1168, 1547, 1548, 1567, 1566
1169, 1548, 1549, 1568, 1567
1170, 1549, 1550, 1569, 1568
1171, 1550, 1551, 1570, 1569
1172, 1551, 1552, 1571, 1570
1173, 1552, 1553, 1572, 1571
1174, 1553, 1554, 1573, 1572
1175, 1554, 1555, 1574, 1573
1176, 1555, 1556, 1575, 1574
1177, 1556, 1557, 1576, 1575
1178, 1557, 1558, 1577, 1576
1179, 1558, 1559, 1578, 1577
1180, 1559, 85, 86, 1578
1181, 186, 1560, 1579, 185
1182, 1560, 1561, 1580, 1579
1183, 1561, 1562, 1581, 1580
1184, 1562, 1563, 1582, 1581
1185, 1563, 1564, 1583, 1582
1186, 1564, 1565, 1584, 1583
1187, 1565, 1566, 1585, 1584
1188, 1566, 1567, 1586, 1585
1189, 1567, 1568, 1587, 1586
1190, 1568, 1569, 1588, 1587
1191, 1569, 1570, 1589, 1588
1192, 1570, 1571, 1590, 1589
1193, 1571, 1572, 1591, 1590
1194, 1572, 1573, 1592, 1591
1195, 1573, 1574, 1593, 1592
1196, 1574, 1575, 1594, 1593
1197, 1575, 1576, 1595, 1594
1198, 1576, 1577, 1596, 1595
1199, 1577, 1578, 1597, 1596
1200, 1578, 86, 87, 1597
1201, 185, 1579, 1598, 184
1202, 1579, 1580, 1599, 1598
1203, 1580, 1581, 1600, 1599
1204, 1581, 1582, 1601, 1600
1205, 1582, 1583, 1602, 1601
1206, 1583, 1584, 1603, 1602
1207, 1584, 1585, 1604, 1603
1208, 1585, 1586, 1605, 1604
1209, 1586, 1587, 1606, 1605
1210, 1587, 1588, 1607, 1606
1211, 1588, 1589, 1608, 1607
1212, 1589, 1590, 1609, 1608
1213, 1590, 1591, 1610, 1609
1214, 1591, 1592, 1611, 1610
1215, 1592, 1593, 1612, 1611
1216, 1593, 1594, 1613, 1612
1217, 1594, 1595, 1614, 1613
1218, 1595, 1596, 1615, 1614
1219, 1596, 1597, 1616, 1615
1220, 1597, 87, 88, 1616
1221, 184, 1598, 1617, 183
1222, 1598, 1599, 1618, 1617
1223, 1599, 1600, 1619, 1618
1224, 1600, 1601, 1620, 1619
1225, 1601, 1602, 1621, 1620
1226, 1602, 1603, 1622, 1621
1227, 1603, 1604, 1623, 1622
1228, 1604, 1605, 1624, 1623
1229, 1605, 1606, 1625, 1624
1230, 1606, 1607, 1626, 1625
1231, 1607, 1608, 1627, 1626
1232, 1608, 1609, 1628, 1627
1233, 1609, 1610, 1629, 1628
1234, 1610, 1611, 1630, 1629
1235, 1611, 1612, 1631, 1630
1236, 1612, 1613, 1632, 1631
1237, 1613, 1614, 1633, 1632
1238, 1614, 1615, 1634, 1633
1239, 1615, 1616, 1635, 1634
1240, 1616, 88, 89, 1635
1241, 183, 1617, 1636, 182
1242, 1617, 1618, 1637, 1636
1243, 1618, 1619, 1638, 1637
1244, 1619, 1620, 1639, 1638
1245, 1620, 1621, 1640, 1639
1246, 1621, 1622, 1641, 1640
1247, 1622, 1623, 1642, 1641
1248, 1623, 1624, 1643, 1642
1249, 1624, 1625, 1644, 1643
1250, 1625, 1626, 1645, 1644
1251, 1626, 1627, 1646, 1645
1252, 1627, 1628, 1647, 1646
1253, 1628, 1629, 1648, 1647
1254, 1629, 1630, 1649, 1648
1255, 1630, 1631, 1650, 1649
1256, 1631, 1632, 1651, 1650
1257, 1632, 1633, 1652, 1651
1258, 1633, 1634, 1653, 1652
1259, 1634, 1635, 1654, 1653
1260, 1635, 89, 90, 1654
1261, 182, 1636, 1655, 181
1262, 1636, 1637, 1656, 1655
1263, 1637, 1638, 1657, 1656
1264, 1638, 1639, 1658, 1657
1265, 1639, 1640, 1659, 1658
1266, 1640, 1641, 1660, 1659
1267, 1641, 1642, 1661, 1660
1268, 1642, 1643, 1662, 1661
1269, 1643, 1644, 1663, 1662
1270, 1644, 1645, 1664, 1663
1271, 1645, 1646, 1665, 1664
1272, 1646, 1647, 1666, 1665
1273, 1647, 1648, 1667, 1666
1274, 1648, 1649, 1668, 1667
1275, 1649, 1650, 1669, 1668
1276, 1650, 1651, 1670, 1669
1277, 1651, 1652, 1671, 1670
1278, 1652, 1653, 1672, 1671
1279, 1653, 1654, 1673, 1672
1280, 1654, 90, 91, 1673
1281, 181, 1655, 1674, 180
1282, 1655, 1656, 1675, 1674
1283, 1656, 1657, 1676, 1675
1284, 1657, 1658, 1677, 1676
1285, 1658, 1659, 1678, 1677
1286, 1659, 1660, 1679, 1678
1287, 1660, 1661, 1680, 1679
1288, 1661, 1662, 1681, 1680
1289, 1662, 1663, 1682, 1681
1290, 1663, 1664, 1683, 1682
1291, 1664, 1665, 1684, 1683
1292, 1665, 1666, 1685, 1684
1293, 1666, 1667, 1686, 1685
1294, 1667, 1668, 1687, 1686
1295, 1668, 1669, 1688, 1687
1296, 1669, 1670, 1689, 1688
1297, 1670, 1671, 1690, 1689
1298, 1671, 1672, 1691, 1690
1299, 1672, 1673, 1692, 1691
1300, 1673, 91, 92, 1692
1301, 180, 1674, 1693, 179
1302, 1674, 1675, 1694, 1693
1303, 1675, 1676, 1695, 1694
1304, 1676, 1677, 1696, 1695
1305, 1677, 1678, 1697, 1696
1306, 1678, 1679, 1698, 1697
1307, 1679, 1680, 1699, 1698
1308, 1680, 1681, 1700, 1699
1309, 1681, 1682, 1701, 1700
1310, 1682, 1683, 1702, 1701
1311, 1683, 1684, 1703, 1702
1312, 1684, 1685, 1704, 1703
1313, 1685, 1686, 1705, 1704
1314, 1686, 1687, 1706, 1705
1315, 1687, 1688, 1707, 1706
1316, 1688, 1689, 1708, 1707
1317, 1689, 1690, 1709, 1708
1318, 1690, 1691, 1710, 1709
1319, 1691, 1692, 1711, 1710
1320, 1692, 92, 93, 1711
1321, 179, 1693, 1712, 178
1322, 1693, 1694, 1713, 1712
1323, 1694, 1695, 1714, 1713
1324, 1695, 1696, 1715, 1714
1325, 1696, 1697, 1716, 1715
1326, 1697, 1698, 1717, 1716
1327, 1698, 1699, 1718, 1717
1328, 1699, 1700, 1719, 1718
1329, 1700, 1701, 1720, 1719
1330, 1701, 1702, 1721, 1720
1331, 1702, 1703, 1722, 1721
1332, 1703, 1704, 1723, 1722
1333, 1704, 1705, 1724, 1723
1334, 1705, 1706, 1725, 1724
1335, 1706, 1707, 1726, 1725
1336, 1707, 1708, 1727, 1726
1337, 1708, 1709, 1728, 1727
1338, 1709, 1710, 1729, 1728
1339, 1710, 1711, 1730, 1729
1340, 1711, 93, 94, 1730
1341, 178, 1712, 1731, 177
1342, 1712, 1713, 1732, 1731
1343, 1713, 1714, 1733, 1732
1344, 1714, 1715, 1734, 1733
1345, 1715, 1716, 1735, 1734
1346, 1716, 1717, 1736, 1735
1347, 1717, 1718, 1737, 1736
1348, 1718, 1719, 1738, 1737
1349, 1719, 1720, 1739, 1738
1350, 1720, 1721, 1740, 1739
1351, 1721, 1722, 1741, 1740
1352, 1722, 1723, 1742, 1741
1353, 1723, 1724, 1743, 1742
1354, 1724, 1725, 1744, 1743
1355, 1725, 1726, 1745, 1744
1356, 1726, 1727, 1746, 1745
1357, 1727, 1728, 1747, 1746
1358, 1728, 1729, 1748, 1747
1359, 1729, 1730, 1749, 1748
1360, 1730, 94, 95, 1749
1361, 177, 1731, 1750, 176
1362, 1731, 1732, 1751, 1750
1363, 1732, 1733, 1752, 1751
1364, 1733, 1734, 1753, 1752
1365, 1734, 1735, 1754, 1753
1366, 1735, 1736, 1755, 1754
1367, 1736, 1737, 1756, 1755
1368, 1737, 1738, 1757, 1756
1369, 1738, 1739, 1758, 1757
1370, 1739, 1740, 1759, 1758
1371, 1740, 1741, 1760, 1759
1372, 1741, 1742, 1761, 1760
1373, 1742, 1743, 1762, 1761
1374, 1743, 1744, 1763, 1762
1375, 1744, 1745, 1764, 1763
1376, 1745, 1746, 1765, 1764
1377, 1746, 1747, 1766, 1765
1378, 1747, 1748, 1767, 1766
1379, 1748, 1749, 1768, 1767
1380, 1749, 95, 96, 1768
1381, 176, 1750, 1769, 175
1382, 1750, 1751, 1770, 1769
1383, 1751, 1752, 1771, 1770
1384, 1752, 1753, 1772, 1771
1385, 1753, 1754, 1773, 1772
1386, 1754, 1755, 1774, 1773
1387, 1755, 1756, 1775, 1774
1388, 1756, 1757, 1776, 1775
1389, 1757, 1758, 1777, 1776
1390, 1758, 1759, 1778, 1777
1391, 1759, 1760, 1779, 1778
1392, 1760, 1761, 1780, 1779
1393, 1761, 1762, 1781, 1780
1394, 1762, 1763, 1782, 1781
1395, 1763, 1764, 1783, 1782
1396, 1764, 1765, 1784, 1783
1397, 1765, 1766, 1785, 1784
1398, 1766, 1767, 1786, 1785
1399, 1767, 1768, 1787, 1786
1400, 1768, 96, 97, 1787
1401, 175, 1769, 1788, 174
1402, 1769, 1770, 1789, 1788
1403, 1770, 1771, 1790, 1789
1404, 1771, 1772, 1791, 1790
1405, 1772, 1773, 1792, 1791
1406, 1773, 1774, 1793, 1792
1407, 1774, 1775, 1794, 1793
1408, 1775, 1776, 1795, 1794
1409, 1776, 1777, 1796, 1795
1410, 1777, 1778, 1797, 1796
1411, 1778, 1779, 1798, 1797
1412, 1779, 1780, 1799, 1798
1413, 1780, 1781, 1800, 1799
1414, 1781, 1782, 1801, 1800
1415, 1782, 1783, 1802, 1801
1416, 1783, 1784, 1803, 1802
1417, 1784, 1785, 1804, 1803
1418, 1785, 1786, 1805, 1804
1419, 1786, 1787, 1806, 1805
1420, 1787, 97, 98, 1806
1421, 174, 1788, 1807, 173
1422, 1788, 1789, 1808, 1807
1423, 1789, 1790, 1809, 1808
1424, 1790, 1791, 1810, 1809
1425, 1791, 1792, 1811, 1810
1426, 1792, 1793, 1812, 1811
1427, 1793, 1794, 1813, 1812
1428, 1794, 1795, 1814, 1813
1429, 1795, 1796, 1815, 1814
1430, 1796, 1797, 1816, 1815
1431, 1797, 1798, 1817, 1816
1432, 1798, 1799, 1818, 1817
1433, 1799, 1800, 1819, 1818
1434, 1800, 1801, 1820, 1819
1435, 1801, 1802, 1821, 1820
1436, 1802, 1803, 1822, 1821
1437, 1803, 1804, 1823, 1822
1438, 1804, 1805, 1824, 1823
1439, 1805, 1806, 1825, 1824
1440, 1806, 98, 99, 1825
1441, 173, 1807, 1826, 172
1442, 1807, 1808, 1827, 1826
1443, 1808, 1809, 1828, 1827
1444, 1809, 1810, 1829, 1828
1445, 1810, 1811, 1830, 1829
1446, 1811, 1812, 1831, 1830
1447, 1812, 1813, 1832, 1831
1448, 1813, 1814, 1833, 1832
1449, 1814, 1815, 1834, 1833
1450, 1815, 1816, 1835, 1834
1451, 1816, 1817, 1836, 1835
1452, 1817, 1818, 1837, 1836
1453, 1818, 1819, 1838, 1837
1454, 1819, 1820, 1839, 1838
1455, 1820, 1821, 1840, 1839
1456, 1821, 1822, 1841, 1840
1457, 1822, 1823, 1842, 1841
1458, 1823, 1824, 1843, 1842
1459, 1824, 1825, 1844, 1843
1460, 1825, 99, 100, 1844
1461, 172, 1826, 1845, 171
1462, 1826, 1827, 1846, 1845
1463, 1827, 1828, 1847, 1846
1464, 1828, 1829, 1848, 1847
1465, 1829, 1830, 1849, 1848
1466, 1830, 1831, 1850, 1849
1467, 1831, 1832, 1851, 1850
1468, 1832, 1833, 1852, 1851
1469, 1833, 1834, 1853, 1852
1470, 1834, 1835, 1854, 1853
1471, 1835, 1836, 1855, 1854
1472, 1836, 1837, 1856, 1855
1473, 1837, 1838, 1857, 1856
1474, 1838, 1839, 1858, 1857
1475, 1839, 1840, 1859, 1858
1476, 1840, 1841, 1860, 1859
1477, 1841, 1842, 1861, 1860
1478, 1842, 1843, 1862, 1861
1479, 1843, 1844, 1863, 1862
1480, 1844, 100, 101, 1863
1481, 171, 1845, 1864, 170
1482, 1845, 1846, 1865, 1864
1483, 1846, 1847, 1866, 1865
1484, 1847, 1848, 1867, 1866
1485, 1848, 1849, 1868, 1867
1486, 1849, 1850, 1869, 1868
1487, 1850, 1851, 1870, 1869
1488, 1851, 1852, 1871, 1870
1489, 1852, 1853, 1872, 1871
1490, 1853, 1854, 1873, 1872
1491, 1854, 1855, 1874, 1873
1492, 1855, 1856, 1875, 1874
1493, 1856, 1857, 1876, 1875
1494, 1857, 1858, 1877, 1876
1495, 1858, 1859, 1878, 1877
1496, 1859, 1860, 1879, 1878
1497, 1860, 1861, 1880, 1879
1498, 1861, 1862, 1881, 1880
1499, 1862, 1863, 1882, 1881
1500, 1863, 101, 102, 1882
1501, 170, 1864, 1883, 169
1502, 1864, 1865, 1884, 1883
1503, 1865, 1866, 1885, 1884
1504, 1866, 1867, 1886, 1885
1505, 1867, 1868, 1887, 1886
1506, 1868, 1869, 1888, 1887
1507, 1869, 1870, 1889, 1888
1508, 1870, 1871, 1890, 1889
1509, 1871, 1872, 1891, 1890
1510, 1872, 1873, 1892, 1891
1511, 1873, 1874, 1893, 1892
1512, 1874, 1875, 1894, 1893
1513, 1875, 1876, 1895, 1894
1514, 1876, 1877, 1896, 1895
1515, 1877, 1878, 1897, 1896
1516, 1878, 1879, 1898, 1897
1517, 1879, 1880, 1899, 1898
1518, 1880, 1881, 1900, 1899
1519, 1881, 1882, 1901, 1900
1520, 1882, 102, 103, 1901
1521, 169, 1883, 1902, 168
1522, 1883, 1884, 1903, 1902
1523, 1884, 1885, 1904, 1903
1524, 1885, 1886, 1905, 1904
1525, 1886, 1887, 1906, 1905
1526, 1887, 1888, 1907, 1906
1527, 1888, 1889, 1908, 1907
1528, 1889, 1890, 1909, 1908
1529, 1890, 1891, 1910, 1909
1530, 1891, 1892, 1911, 1910
1531, 1892, 1893, 1912, 1911
1532, 1893, 1894, 1913, 1912
1533, 1894, 1895, 1914, 1913
1534, 1895, 1896, 1915, 1914
1535, 1896, 1897, 1916, 1915
1536, 1897, 1898, 1917, 1916
1537, 1898, 1899, 1918, 1917
1538, 1899, 1900, 1919, 1918
1539, 1900, 1901, 1920, 1919
1540, 1901, 103, 104, 1920
1541, 168, 1902, 1921, 167
1542, 1902, 1903, 1922, 1921
1543, 1903, 1904, 1923, 1922
1544, 1904, 1905, 1924, 1923
1545, 1905, 1906, 1925, 1924
1546, 1906, 1907, 1926, 1925
1547, 1907, 1908, 1927, 1926
1548, 1908, 1909, 1928, 1927
1549, 1909, 1910, 1929, 1928
1550, 1910, 1911, 1930, 1929
1551, 1911, 1912, 1931, 1930
1552, 1912, 1913, 1932, 1931
1553, 1913, 1914, 1933, 1932
1554, 1914, 1915, 1934, 1933
1555, 1915, 1916, 1935, 1934
1556, 1916, 1917, 1936, 1935
1557, 1917, 1918, 1937, 1936
1558, 1918, 1919, 1938, 1937
1559, 1919, 1920, 1939, 1938
1560, 1920, 104, 105, 1939
1561, 167, 1921, 1940, 166
1562, 1921, 1922, 1941, 1940
1563, 1922, 1923, 1942, 1941
1564, 1923, 1924, 1943, 1942
1565, 1924, 1925, 1944, 1943
1566, 1925, 1926, 1945, 1944
1567, 1926, 1927, 1946, 1945
1568, 1927, 1928, 1947, 1946
1569, 1928, 1929, 1948, 1947
1570, 1929, 1930, 1949, 1948
1571, 1930, 1931, 1950, 1949
1572, 1931, 1932, 1951, 1950
1573, 1932, 1933, 1952, 1951
1574, 1933, 1934, 1953, 1952
1575, 1934, 1935, 1954, 1953
1576, 1935, 1936, 1955, 1954
1577, 1936, 1937, 1956, 1955
1578, 1937, 1938, 1957, 1956
1579, 1938, 1939, 1958, 1957
1580, 1939, 105, 106, 1958
1581, 166, 1940, 1959, 165
1582, 1940, 1941, 1960, 1959
1583, 1941, 1942, 1961, 1960
1584, 1942, 1943, 1962, 1961
1585, 1943, 1944, 1963, 1962
1586, 1944, 1945, 1964, 1963
1587, 1945, 1946, 1965, 1964
1588, 1946, 1947, 1966, 1965
1589, 1947, 1948, 1967, 1966
1590, 1948, 1949, 1968, 1967
1591, 1949, 1950, 1969, 1968
1592, 1950, 1951, 1970, 1969
1593, 1951, 1952, 1971, 1970
1594, 1952, 1953, 1972, 1971
1595, 1953, 1954, 1973, 1972
1596, 1954, 1955, 1974, 1973
1597, 1955, 1956, 1975, 1974
1598, 1956, 1957, 1976, 1975
1599, 1957, 1958, 1977, 1976
1600, 1958, 106, 107, 1977
1601, 165, 1959, 1978, 164
1602, 1959, 1960, 1979, 1978
1603, 1960, 1961, 1980, 1979
1604, 1961, 1962, 1981, 1980
1605, 1962, 1963, 1982, 1981
1606, 1963, 1964, 1983, 1982
1607, 1964, 1965, 1984, 1983
1608, 1965, 1966, 1985, 1984
1609, 1966, 1967, 1986, 1985
1610, 1967, 1968, 1987, 1986
1611, 1968, 1969, 1988, 1987
1612, 1969, 1970, 1989, 1988
1613, 1970, 1971, 1990, 1989
1614, 1971, 1972, 1991, 1990
1615, 1972, 1973, 1992, 1991
1616, 1973, 1974, 1993, 1992
1617, 1974, 1975, 1994, 1993
1618, 1975, 1976, 1995, 1994
1619, 1976, 1977, 1996, 1995
1620, 1977, 107, 108, 1996
1621, 164, 1978, 1997, 163
1622, 1978, 1979, 1998, 1997
1623, 1979, 1980, 1999, 1998
1624, 1980, 1981, 2000, 1999
1625, 1981, 1982, 2001, 2000
1626, 1982, 1983, 2002, 2001
1627, 1983, 1984, 2003, 2002
1628, 1984, 1985, 2004, 2003
1629, 1985, 1986, 2005, 2004
1630, 1986, 1987, 2006, 2005
1631, 1987, 1988, 2007, 2006
1632, 1988, 1989, 2008, 2007
1633, 1989, 1990, 2009, 2008
1634, 1990, 1991, 2010, 2009
1635, 1991, 1992, 2011, 2010
1636, 1992, 1993, 2012, 2011
1637, 1993, 1994, 2013, 2012
1638, 1994, 1995, 2014, 2013
1639, 1995, 1996, 2015, 2014
1640, 1996, 108, 109, 2015
1641, 163, 1997, 2016, 162
1642, 1997, 1998, 2017, 2016
1643, 1998, 1999, 2018, 2017
1644, 1999, 2000, 2019, 2018
1645, 2000, 2001, 2020, 2019
1646, 2001, 2002, 2021, 2020
1647, 2002, 2003, 2022, 2021
1648, 2003, 2004, 2023, 2022
1649, 2004, 2005, 2024, 2023
1650, 2005, 2006, 2025, 2024
1651, 2006, 2007, 2026, 2025
1652, 2007, 2008, 2027, 2026
1653, 2008, 2009, 2028, 2027
1654, 2009, 2010, 2029, 2028
1655, 2010, 2011, 2030, 2029
1656, 2011, 2012, 2031, 2030
1657, 2012, 2013, 2032, 2031
1658, 2013, 2014, 2033, 2032
1659, 2014, 2015, 2034, 2033
1660, 2015, 109, 110, 2034
1661, 162, 2016, 2035, 161
1662, 2016, 2017, 2036, 2035
1663, 2017, 2018, 2037, 2036
1664, 2018, 2019, 2038, 2037
1665, 2019, 2020, 2039, 2038
1666, 2020, 2021, 2040, 2039
1667, 2021, 2022, 2041, 2040
1668, 2022, 2023, 2042, 2041
1669, 2023, 2024, 2043, 2042
1670, 2024, 2025, 2044, 2043
1671, 2025, 2026, 2045, 2044
1672, 2026, 2027, 2046, 2045
1673, 2027, 2028, 2047, 2046
1674, 2028, 2029, 2048, 2047
1675, 2029, 2030, 2049, 2048
1676, 2030, 2031, 2050, 2049
1677, 2031, 2032, 2051, 2050
1678, 2032, 2033, 2052, 2051
1679, 2033, 2034, 2053, 2052
1680, 2034, 110, 111, 2053
1681, 161, 2035, 2054, 160
1682, 2035, 2036, 2055, 2054
1683, 2036, 2037, 2056, 2055
1684, 2037, 2038, 2057, 2056
1685, 2038, 2039, 2058, 2057
1686, 2039, 2040, 2059, 2058
1687, 2040, 2041, 2060, 2059
1688, 2041, 2042, 2061, 2060
1689, 2042, 2043, 2062, 2061
1690, 2043, 2044, 2063, 2062
1691, 2044, 2045, 2064, 2063
1692, 2045, 2046, 2065, 2064
1693, 2046, 2047, 2066, 2065
1694, 2047, 2048, 2067, 2066
1695, 2048, 2049, 2068, 2067
1696, 2049, 2050, 2069, 2068
1697, 2050, 2051, 2070, 2069
1698, 2051, 2052, 2071, 2070
1699, 2052, 2053, 2072, 2071
1700, 2053, 111, 112, 2072
1701, 160, 2054, 2073, 159
1702, 2054, 2055, 2074, 2073
1703, 2055, 2056, 2075, 2074
1704, 2056, 2057, 2076, 2075
1705, 2057, 2058, 2077, 2076
1706, 2058, 2059, 2078, 2077
1707, 2059, 2060, 2079, 2078
1708, 2060, 2061, 2080, 2079
1709, 2061, 2062, 2081, 2080
1710, 2062, 2063, 2082, 2081
1711, 2063, 2064, 2083, 2082
1712, 2064, 2065, 2084, 2083
1713, 2065, 2066, 2085, 2084
1714, 2066, 2067, 2086, 2085
1715, 2067, 2068, 2087, 2086
1716, 2068, 2069, 2088, 2087
1717, 2069, 2070, 2089, 2088
1718, 2070, 2071, 2090, 2089
1719, 2071, 2072, 2091, 2090
1720, 2072, 112, 113, 2091
1721, 159, 2073, 2092, 158
1722, 2073, 2074, 2093, 2092
1723, 2074, 2075, 2094, 2093
1724, 2075, 2076, 2095, 2094
1725, 2076, 2077, 2096, 2095
1726, 2077, 2078, 2097, 2096
1727, 2078, 2079, 2098, 2097
1728, 2079, 2080, 2099, 2098
1729, 2080, 2081, 2100, 2099
1730, 2081, 2082, 2101, 2100
1731, 2082, 2083, 2102, 2101
1732, 2083, 2084, 2103, 2102
1733, 2084, 2085, 2104, 2103
1734, 2085, 2086, 2105, 2104
1735, 2086, 2087, 2106, 2105
1736, 2087, 2088, 2107, 2106
1737, 2088, 2089, 2108, 2107
1738, 2089, 2090, 2109, 2108
1739, 2090, 2091, 2110, 2109
1740, 2091, 113, 114, 2110
1741, 158, 2092, 2111, 157
1742, 2092, 2093, 2112, 2111
1743, 2093, 2094, 2113, 2112
1744, 2094, 2095, 2114, 2113
1745, 2095, 2096, 2115, 2114
1746, 2096, 2097, 2116, 2115
1747, 2097, 2098, 2117, 2116
1748, 2098, 2099, 2118, 2117
1749, 2099, 2100, 2119, 2118
1750, 2100, 2101, 2120, 2119
1751, 2101, 2102, 2121, 2120
1752, 2102, 2103, 2122, 2121
1753, 2103, 2104, 2123, 2122
1754, 2104, 2105, 2124, 2123
1755, 2105, 2106, 2125, 2124
1756, 2106, 2107, 2126, 2125
1757, 2107, 2108, 2127, 2126
1758, 2108, 2109, 2128, 2127
1759, 2109, 2110, 2129, 2128
1760, 2110, 114, 115, 2129
1761, 157, 2111, 2130, 156
1762, 2111, 2112, 2131, 2130
1763, 2112, 2113, 2132, 2131
1764, 2113, 2114, 2133, 2132
1765, 2114, 2115, 2134, 2133
1766, 2115, 2116, 2135, 2134
1767, 2116, 2117, 2136, 2135
1768, 2117, 2118, 2137, 2136
1769, 2118, 2119, 2138, 2137
1770, 2119, 2120, 2139, 2138
1771, 2120, 2121, 2140, 2139
1772, 2121, 2122, 2141, 2140
1773, 2122, 2123, 2142, 2141
1774, 2123, 2124, 2143, 2142
1775, 2124, 2125, 2144, 2143
1776, 2125, 2126, 2145, 2144
1777, 2126, 2127, 2146, 2145
1778, 2127, 2128, 2147, 2146
1779, 2128, 2129, 2148, 2147
1780, 2129, 115, 116, 2148
1781, 156, 2130, 2149, 155
1782, 2130, 2131, 2150, 2149
1783, 2131, 2132, 2151, 2150
1784, 2132, 2133, 2152, 2151
1785, 2133, 2134, 2153, 2152
1786, 2134, 2135, 2154, 2153
1787, 2135, 2136, 2155, 2154
1788, 2136, 2137, 2156, 2155
1789, 2137, 2138, 2157, 2156
1790, 2138, 2139, 2158, 2157
1791, 2139, 2140, 2159, 2158
1792, 2140, 2141, 2160, 2159
1793, 2141, 2142, 2161, 2160
1794, 2142, 2143, 2162, 2161
1795, 2143, 2144, 2163, 2162
1796, 2144, 2145, 2164, 2163
1797, 2145, 2146, 2165, 2164
1798, 2146, 2147, 2166, 2165
1799, 2147, 2148, 2167, 2166
1800, 2148, 116, 117, 2167
1801, 155, 2149, 2168, 154
1802, 2149, 2150, 2169, 2168
1803, 2150, 2151, 2170, 2169
1804, 2151, 2152, 2171, 2170
1805, 2152, 2153, 2172, 2171
1806, 2153, 2154, 2173, 2172
1807, 2154, 2155, 2174, 2173
1808, 2155, 2156, 2175, 2174
1809, 2156, 2157, 2176, 2175
1810, 2157, 2158, 2177, 2176
1811, 2158, 2159, 2178, 2177
1812, 2159, 2160, 2179, 2178
1813, 2160, 2161, 2180, 2179
1814, 2161, 2162, 2181, 2180
1815, 2162, 2163, 2182, 2181
1816, 2163, 2164, 2183, 2182
1817, 2164, 2165, 2184, 2183
1818, 2165, 2166, 2185, 2184
1819, 2166, 2167, 2186, 2185
1820, 2167, 117, 118, 2186
1821, 154, 2168, 2187, 153
1822, 2168, 2169, 2188, 2187
1823, 2169, 2170, 2189, 2188
1824, 2170, 2171, 2190, 2189
1825, 2171, 2172, 2191, 2190
1826, 2172, 2173, 2192, 2191
1827, 2173, 2174, 2193, 2192
1828, 2174, 2175, 2194, 2193
1829, 2175, 2176, 2195, 2194
1830, 2176, 2177, 2196, 2195
1831, 2177, 2178, 2197, 2196
1832, 2178, 2179, 2198, 2197
1833, 2179, 2180, 2199, 2198
1834, 2180, 2181, 2200, 2199
1835, 2181, 2182, 2201, 2200
1836, 2182, 2183, 2202, 2201
1837, 2183, 2184, 2203, 2202
1838, 2184, 2185, 2204, 2203
1839, 2185, 2186, 2205, 2204
1840, 2186, 118, 119, 2205
1841, 153, 2187, 2206, 152
1842, 2187, 2188, 2207, 2206
1843, 2188, 2189, 2208, 2207
1844, 2189, 2190, 2209, 2208
1845, 2190, 2191, 2210, 2209
1846, 2191, 2192, 2211, 2210
1847, 2192, 2193, 2212, 2211
1848, 2193, 2194, 2213, 2212
1849, 2194, 2195, 2214, 2213
1850, 2195, 2196, 2215, 2214
1851, 2196, 2197, 2216, 2215
1852, 2197, 2198, 2217, 2216
1853, 2198, 2199, 2218, 2217
1854, 2199, 2200, 2219, 2218
1855, 2200, 2201, 2220, 2219
1856, 2201, 2202, 2221, 2220
1857, 2202, 2203, 2222, 2221
1858, 2203, 2204, 2223, 2222
1859, 2204, 2205, 2224, 2223
1860, 2205, 119, 120, 2224
1861, 152, 2206, 2225, 151
1862, 2206, 2207, 2226, 2225
1863, 2207, 2208, 2227, 2226
1864, 2208, 2209, 2228, 2227
1865, 2209, 2210, 2229, 2228
1866, 2210, 2211, 2230, 2229
1867, 2211, 2212, 2231, 2230
1868, 2212, 2213, 2232, 2231
1869, 2213, 2214, 2233, 2232
1870, 2214, 2215, 2234, 2233
1871, 2215, 2216, 2235, 2234
1872, 2216, 2217, 2236, 2235
1873, 2217, 2218, 2237, 2236
1874, 2218, 2219, 2238, 2237
1875, 2219, 2220, 2239, 2238
1876, 2220, 2221, 2240, 2239
1877, 2221, 2222, 2241, 2240
1878, 2222, 2223, 2242, 2241
1879, 2223, 2224, 2243, 2242
1880, 2224, 120, 121, 2243
1881, 151, 2225, 2244, 150
1882, 2225, 2226, 2245, 2244
1883, 2226, 2227, 2246, 2245
1884, 2227, 2228, 2247, 2246
1885, 2228, 2229, 2248, 2247
1886, 2229, 2230, 2249, 2248
1887, 2230, 2231, 2250, 2249
1888, 2231, 2232, 2251, 2250
1889, 2232, 2233, 2252, 2251
1890, 2233, 2234, 2253, 2252
1891, 2234, 2235, 2254, 2253
1892, 2235, 2236, 2255, 2254
1893, 2236, 2237, 2256, 2255
1894, 2237, 2238, 2257, 2256
1895, 2238, 2239, 2258, 2257
1896, 2239, 2240, 2259, 2258
1897, 2240, 2241, 2260, 2259
1898, 2241, 2242, 2261, 2260
1899, 2242, 2243, 2262, 2261
1900, 2243, 121, 122, 2262
1901, 150, 2244, 2263, 149
1902, 2244, 2245, 2264, 2263
1903, 2245, 2246, 2265, 2264
1904, 2246, 2247, 2266, 2265
1905, 2247, 2248, 2267, 2266
1906, 2248, 2249, 2268, 2267
1907, 2249, 2250, 2269, 2268
1908, 2250, 2251, 2270, 2269
1909, 2251, 2252, 2271, 2270
1910, 2252, 2253, 2272, 2271
1911, 2253, 2254, 2273, 2272
1912, 2254, 2255, 2274, 2273
1913, 2255, 2256, 2275, 2274
1914, 2256, 2257, 2276, 2275
1915, 2257, 2258, 2277, 2276
1916, 2258, 2259, 2278, 2277
1917, 2259, 2260, 2279, 2278
1918, 2260, 2261, 2280, 2279
1919, 2261, 2262, 2281, 2280
1920, 2262, 122, 123, 2281
1921, 149, 2263, 2282, 148
1922, 2263, 2264, 2283, 2282
1923, 2264, 2265, 2284, 2283
1924, 2265, 2266, 2285, 2284
1925, 2266, 2267, 2286, 2285
1926, 2267, 2268, 2287, 2286
1927, 2268, 2269, 2288, 2287
1928, 2269, 2270, 2289, 2288
1929, 2270, 2271, 2290, 2289
1930, 2271, 2272, 2291, 2290
1931, 2272, 2273, 2292, 2291
1932, 2273, 2274, 2293, 2292
1933, 2274, 2275, 2294, 2293
1934, 2275, 2276, 2295, 2294
1935, 2276, 2277, 2296, 2295
1936, 2277, 2278, 2297, 2296
1937, 2278, 2279, 2298, 2297
1938, 2279, 2280, 2299, 2298
1939, 2280, 2281, 2300, 2299
1940, 2281, 123, 124, 2300
1941, 148, 2282, 2301, 147
1942, 2282, 2283, 2302, 2301
1943, 2283, 2284, 2303, 2302
1944, 2284, 2285, 2304, 2303
1945, 2285, 2286, 2305, 2304
1946, 2286, 2287, 2306, 2305
1947, 2287, 2288, 2307, 2306
1948, 2288, 2289, 2308, 2307
1949, 2289, 2290, 2309, 2308
1950, 2290, 2291, 2310, 2309
1951, 2291, 2292, 2311, 2310
1952, 2292, 2293, 2312, 2311
1953, 2293, 2294, 2313, 2312
1954, 2294, 2295, 2314, 2313
1955, 2295, 2296, 2315, 2314
1956, 2296, 2297, 2316, 2315
1957, 2297, 2298, 2317, 2316
1958, 2298, 2299, 2318, 2317
1959, 2299, 2300, 2319, 2318
1960, 2300, 124, 125, 2319
1961, 147, 2301, 2320, 146
1962, 2301, 2302, 2321, 2320
1963, 2302, 2303, 2322, 2321
1964, 2303, 2304, 2323, 2322
1965, 2304, 2305, 2324, 2323
1966, 2305, 2306, 2325, 2324
1967, 2306, 2307, 2326, 2325
1968, 2307, 2308, 2327, 2326
1969, 2308, 2309, 2328, 2327
1970, 2309, 2310, 2329, 2328
1971, 2310, 2311, 2330, 2329
1972, 2311, 2312, 2331, 2330
1973, 2312, 2313, 2332, 2331
1974, 2313, 2314, 2333, 2332
1975, 2314, 2315, 2334, 2333
1976, 2315, 2316, 2335, 2334
1977, 2316, 2317, 2336, 2335
1978, 2317, 2318, 2337, 2336
1979, 2318, 2319, 2338, 2337
1980, 2319, 125, 126, 2338
1981, 146, 2320, 145, 4
1982, 2320, 2321, 144, 145
1983, 2321, 2322, 143, 144
1984, 2322, 2323, 142, 143
1985, 2323, 2324, 141, 142
1986, 2324, 2325, 140, 141
1987, 2325, 2326, 139, 140
1988, 2326, 2327, 138, 139
1989, 2327, 2328, 137, 138
1990, 2328, 2329, 136, 137
1991, 2329, 2330, 135, 136
1992, 2330, 2331, 134, 135
1993, 2331, 2332, 133, 134
1994, 2332, 2333, 132, 133
1995, 2333, 2334, 131, 132
1996, 2334, 2335, 130, 131
1997, 2335, 2336, 129, 130
1998, 2336, 2337, 128, 129
1999, 2337, 2338, 127, 128
2000, 2338, 126, 3, 127
2001, 4, 145, 2339, 301
2002, 145, 144, 2340, 2339
2003, 144, 143, 2341, 2340
2004, 143, 142, 2342, 2341
2005, 142, 141, 2343, 2342
2006, 141, 140, 2344, 2343
2007, 140, 139, 2345, 2344
2008, 139, 138, 2346, 2345
2009, 138, 137, 2347, 2346
2010, 137, 136, 2348, 2347
2011, 136, 135, 2349, 2348
2012, 135, 134, 2350, 2349
2013, 134, 133, 2351, 2350
2014, 133, 132, 2352, 2351
2015, 132, 131, 2353, 2352
2016, 131, 130, 2354, 2353
2017, 130, 129, 2355, 2354
2018, 129, 128, 2356, 2355
2019, 128, 127, 2357, 2356
2020, 127, 3, 245, 2357
2021, 301, 2339, 2358, 300
2022, 2339, 2340, 2359, 2358
2023, 2340, 2341, 2360, 2359
2024, 2341, 2342, 2361, 2360
2025, 2342, 2343, 2362, 2361
2026, 2343, 2344, 2363, 2362
2027, 2344, 2345, 2364, 2363
2028, 2345, 2346, 2365, 2364
2029, 2346, 2347, 2366, 2365
2030, 2347, 2348, 2367, 2366
2031, 2348, 2349, 2368, 2367
2032, 2349, 2350, 2369, 2368
2033, 2350, 2351, 2370, 2369
2034, 2351, 2352, 2371, 2370
2035, 2352, 2353, 2372, 2371
2036, 2353, 2354, 2373, 2372
2037, 2354, 2355, 2374, 2373
2038, 2355, 2356, 2375, 2374
2039, 2356, 2357, 2376, 2375
2040, 2357, 245, 246, 2376
2041, 300, 2358, 2377, 299
2042, 2358, 2359, 2378, 2377
2043, 2359, 2360, 2379, 2378
2044, 2360, 2361, 2380, 2379
2045, 2361, 2362, 2381, 2380
2046, 2362, 2363, 2382, 2381
2047, 2363, 2364, 2383, 2382
2048, 2364, 2365, 2384, 2383
2049, 2365, 2366, 2385, 2384
2050, 2366, 2367, 2386, 2385
2051, 2367, 2368, 2387, 2386
2052, 2368, 2369, 2388, 2387
2053, 2369, 2370, 2389, 2388
2054, 2370, 2371, 2390, 2389
2055, 2371, 2372, 2391, 2390
2056, 2372, 2373, 2392, 2391
2057, 2373, 2374, 2393, 2392
2058, 2374, 2375, 2394, 2393
2059, 2375, 2376, 2395, 2394
2060, 2376, 246, 247, 2395
2061, 299, 2377, 2396, 298
2062, 2377, 2378, 2397, 2396
2063, 2378, 2379, 2398, 2397
2064, 2379, 2380, 2399, 2398
2065, 2380, 2381, 2400, 2399
2066, 2381, 2382, 2401, 2400
2067, 2382, 2383, 2402, 2401
2068, 2383, 2384, 2403, 2402
2069, 2384, 2385, 2404, 2403
2070, 2385, 2386, 2405, 2404
2071, 2386, 2387, 2406, 2405
2072, 2387, 2388, 2407, 2406
2073, 2388, 2389, 2408, 2407
2074, 2389, 2390, 2409, 2408
2075, 2390, 2391, 2410, 2409
2076, 2391, 2392, 2411, 2410
2077, 2392, 2393, 2412, 2411
2078, 2393, 2394, 2413, 2412
2079, 2394, 2395, 2414, 2413
2080, 2395, 247, 248, 2414
2081, 298, 2396, 2415, 297
2082, 2396, 2397, 2416, 2415
2083, 2397, 2398, 2417, 2416
2084, 2398, 2399, 2418, 2417
2085, 2399, 2400, 2419, 2418
2086, 2400, 2401, 2420, 2419
2087, 2401, 2402, 2421, 2420
2088, 2402, 2403, 2422, 2421
2089, 2403, 2404, 2423, 2422
2090, 2404, 2405, 2424, 2423
2091, 2405, 2406, 2425, 2424
2092, 2406, 2407, 2426, 2425
2093, 2407, 2408, 2427, 2426
2094, 2408, 2409, 2428, 2427
2095, 2409, 2410, 2429, 2428
2096, 2410, 2411, 2430, 2429
2097, 2411, 2412, 2431, 2430
2098, 2412, 2413, 2432, 2431
2099, 2413, 2414, 2433, 2432
2100, 2414, 248, 249, 2433
2101, 297, 2415, 2434, 296
2102, 2415, 2416, 2435, 2434
2103, 2416, 2417, 2436, 2435
2104, 2417, 2418, 2437, 2436
2105, 2418, 2419, 2438, 2437
2106, 2419, 2420, 2439, 2438
2107, 2420, 2421, 2440, 2439
2108, 2421, 2422, 2441, 2440
2109, 2422, 2423, 2442, 2441
2110, 2423, 2424, 2443, 2442
2111, 2424, 2425, 2444, 2443
2112, 2425, 2426, 2445, 2444
2113, 2426, 2427, 2446, 2445
2114, 2427, 2428, 2447, 2446
2115, 2428, 2429, 2448, 2447
2116, 2429, 2430, 2449, 2448
2117, 2430, 2431, 2450, 2449
2118, 2431, 2432, 2451, 2450
2119, 2432, 2433, 2452, 2451
2120, 2433, 249, 250, 2452
2121, 296, 2434, 2453, 295
2122, 2434, 2435, 2454, 2453
2123, 2435, 2436, 2455, 2454
2124, 2436, 2437, 2456, 2455
2125, 2437, 2438, 2457, 2456
2126, 2438, 2439, 2458, 2457
2127, 2439, 2440, 2459, 2458
2128, 2440, 2441, 2460, 2459
2129, 2441, 2442, 2461, 2460
2130, 2442, 2443, 2462, 2461
2131, 2443, 2444, 2463, 2462
2132, 2444, 2445, 2464, 2463
2133, 2445, 2446, 2465, 2464
2134, 2446, 2447, 2466, 2465
2135, 2447, 2448, 2467, 2466
2136, 2448, 2449, 2468, 2467
2137, 2449, 2450, 2469, 2468
2138, 2450, 2451, 2470, 2469
2139, 2451, 2452, 2471, 2470
2140, 2452, 250, 251, 2471
2141, 295, 2453, 2472, 294
2142, 2453, 2454, 2473, 2472
2143, 2454, 2455, 2474, 2473
2144, 2455, 2456, 2475, 2474
2145, 2456, 2457, 2476, 2475
2146, 2457, 2458, 2477, 2476
2147, 2458, 2459, 2478, 2477
2148, 2459, 2460, 2479, 2478
2149, 2460, 2461, 2480, 2479
2150, 2461, 2462, 2481, 2480
2151, 2462, 2463, 2482, 2481
2152, 2463, 2464, 2483, 2482
2153, 2464, 2465, 2484, 2483
2154, 2465, 2466, 2485, 2484
2155, 2466, 2467, 2486, 2485
2156, 2467, 2468, 2487, 2486
2157, 2468, 2469, 2488, 2487
2158, 2469, 2470, 2489, 2488
2159, 2470, 2471, 2490, 2489
2160, 2471, 251, 252, 2490
2161, 294, 2472, 2491, 293
2162, 2472, 2473, 2492, 2491
2163, 2473, 2474, 2493, 2492
2164, 2474, 2475, 2494, 2493
2165, 2475, 2476, 2495, 2494
2166, 2476, 2477, 2496, 2495
2167, 2477, 2478, 2497, 2496
2168, 2478, 2479, 2498, 2497
2169, 2479, 2480, 2499, 2498
2170, 2480, 2481, 2500, 2499
2171, 2481, 2482, 2501, 2500
2172, 2482, 2483, 2502, 2501
2173, 2483, 2484, 2503, 2502
2174, 2484, 2485, 2504, 2503
2175, 2485, 2486, 2505, 2504
2176, 2486, 2487, 2506, 2505
2177, 2487, 2488, 2507, 2506
2178, 2488, 2489, 2508, 2507
2179, 2489, 2490, 2509, 2508
2180, 2490, 252, 253, 2509
2181, 293, 2491, 2510, 292
2182, 2491, 2492, 2511, 2510
2183, 2492, 2493, 2512, 2511
2184, 2493, 2494, 2513, 2512
2185, 2494, 2495, 2514, 2513
2186, 2495, 2496, 2515, 2514
2187, 2496, 2497, 2516, 2515
2188, 2497, 2498, 2517, 2516
2189, 2498, 2499, 2518, 2517
2190, 2499, 2500, 2519, 2518
2191, 2500, 2501, 2520, 2519
2192, 2501, 2502, 2521, 2520
2193, 2502, 2503, 2522, 2521
2194, 2503, 2504, 2523, 2522
2195, 2504, 2505, 2524, 2523
2196, 2505, 2506, 2525, 2524
2197, 2506, 2507, 2526, 2525
2198, 2507, 2508, 2527, 2526
2199, 2508, 2509, 2528, 2527
2200, 2509, 253, 254, 2528
2201, 292, 2510, 2529, 291
2202, 2510, 2511, 2530, 2529
2203, 2511, 2512, 2531, 2530
2204, 2512, 2513, 2532, 2531
2205, 2513, 2514, 2533, 2532
2206, 2514, 2515, 2534, 2533
2207, 2515, 2516, 2535, 2534
2208, 2516, 2517, 2536, 2535
2209, 2517, 2518, 2537, 2536
2210, 2518, 2519, 2538, 2537
2211, 2519, 2520, 2539, 2538
2212, 2520, 2521, 2540, 2539
2213, 2521, 2522, 2541, 2540
2214, 2522, 2523, 2542, 2541
2215, 2523, 2524, 2543, 2542
2216, 2524, 2525, 2544, 2543
2217, 2525, 2526, 2545, 2544
2218, 2526, 2527, 2546, 2545
2219, 2527, 2528, 2547, 2546
2220, 2528, 254, 255, 2547
2221, 291, 2529, 2548, 290
2222, 2529, 2530, 2549, 2548
2223, 2530, 2531, 2550, 2549
2224, 2531, 2532, 2551, 2550
2225, 2532, 2533, 2552, 2551
2226, 2533, 2534, 2553, 2552
2227, 2534, 2535, 2554, 2553
2228, 2535, 2536, 2555, 2554
2229, 2536, 2537, 2556, 2555
2230, 2537, 2538, 2557, 2556
2231, 2538, 2539, 2558, 2557
2232, 2539, 2540, 2559, 2558
2233, 2540, 2541, 2560, 2559
2234, 2541, 2542, 2561, 2560
2235, 2542, 2543, 2562, 2561
2236, 2543, 2544, 2563, 2562
2237, 2544, 2545, 2564, 2563
2238, 2545, 2546, 2565, 2564
2239, 2546, 2547, 2566, 2565
2240, 2547, 255, 256, 2566
2241, 290, 2548, 2567, 289
2242, 2548, 2549, 2568, 2567
2243, 2549, 2550, 2569, 2568
2244, 2550, 2551, 2570, 2569
2245, 2551, 2552, 2571, 2570
2246, 2552, 2553, 2572, 2571
2247, 2553, 2554, 2573, 2572
2248, 2554, 2555, 2574, 2573
2249, 2555, 2556, 2575, 2574
2250, 2556, 2557, 2576, 2575
2251, 2557, 2558, 2577, 2576
2252, 2558, 2559, 2578, 2577
2253, 2559, 2560, 2579, 2578
2254, 2560, 2561, 2580, 2579
2255, 2561, 2562, 2581, 2580
2256, 2562, 2563, 2582, 2581
2257, 2563, 2564, 2583, 2582
2258, 2564, 2565, 2584, 2583
2259, 2565, 2566, 2585, 2584
2260, 2566, 256, 257, 2585
2261, 289, 2567, 2586, 288
2262, 2567, 2568, 2587, 2586
2263, 2568, 2569, 2588, 2587
2264, 2569, 2570, 2589, 2588
2265, 2570, 2571, 2590, 2589
2266, 2571, 2572, 2591, 2590
2267, 2572, 2573, 2592, 2591
2268, 2573, 2574, 2593, 2592
2269, 2574, 2575, 2594, 2593
2270, 2575, 2576, 2595, 2594
2271, 2576, 2577, 2596, 2595
2272, 2577, 2578, 2597, 2596
2273, 2578, 2579, 2598, 2597
2274, 2579, 2580, 2599, 2598
2275, 2580, 2581, 2600, 2599
2276, 2581, 2582, 2601, 2600
2277, 2582, 2583, 2602, 2601
2278, 2583, 2584, 2603, 2602
2279, 2584, 2585, 2604, 2603
2280, 2585, 257, 258, 2604
2281, 288, 2586, 2605, 287
2282, 2586, 2587, 2606, 2605
2283, 2587, 2588, 2607, 2606
2284, 2588, 2589, 2608, 2607
2285, 2589, 2590, 2609, 2608
2286, 2590, 2591, 2610, 2609
2287, 2591, 2592, 2611, 2610
2288, 2592, 2593, 2612, 2611
2289, 2593, 2594, 2613, 2612
2290, 2594, 2595, 2614, 2613
2291, 2595, 2596, 2615, 2614
2292, 2596, 2597, 2616, 2615
2293, 2597, 2598, 2617, 2616
2294, 2598, 2599, 2618, 2617
2295, 2599, 2600, 2619, 2618
2296, 2600, 2601, 2620, 2619
2297, 2601, 2602, 2621, 2620
2298, 2602, 2603, 2622, 2621
2299, 2603, 2604, 2623, 2622
2300, 2604, 258, 259, 2623
2301, 287, 2605, 2624, 286
2302, 2605, 2606, 2625, 2624
2303, 2606, 2607, 2626, 2625
2304, 2607, 2608, 2627, 2626
2305, 2608, 2609, 2628, 2627
2306, 2609, 2610, 2629, 2628
2307, 2610, 2611, 2630, 2629
2308, 2611, 2612, 2631, 2630
2309, 2612, 2613, 2632, 2631
2310, 2613, 2614, 2633, 2632
2311, 2614, 2615, 2634, 2633
2312, 2615, 2616, 2635, 2634
2313, 2616, 2617, 2636, 2635
2314, 2617, 2618, 2637, 2636
2315, 2618, 2619, 2638, 2637
2316, 2619, 2620, 2639, 2638
2317, 2620, 2621, 2640, 2639
2318, 2621, 2622, 2641, 2640
2319, 2622, 2623, 2642, 2641
2320, 2623, 259, 260, 2642
2321, 286, 2624, 2643, 285
2322, 2624, 2625, 2644, 2643
2323, 2625, 2626, 2645, 2644
2324, 2626, 2627, 2646, 2645
2325, 2627, 2628, 2647, 2646
2326, 2628, 2629, 2648, 2647
2327, 2629, 2630, 2649, 2648
2328, 2630, 2631, 2650, 2649
2329, 2631, 2632, 2651, 2650
2330, 2632, 2633, 2652, 2651
2331, 2633, 2634, 2653, 2652
2332, 2634, 2635, 2654, 2653
2333, 2635, 2636, 2655, 2654
2334, 2636, 2637, 2656, 2655
2335, 2637, 2638, 2657, 2656
2336, 2638, 2639, 2658, 2657
2337, 2639, 2640, 2659, 2658
2338, 2640, 2641, 2660, 2659
2339, 2641, 2642, 2661, 2660
2340, 2642, 260, 261, 2661
2341, 285, 2643, 2662, 284
2342, 2643, 2644, 2663, 2662
2343, 2644, 2645, 2664, 2663
2344, 2645, 2646, 2665, 2664
2345, 2646, 2647, 2666, 2665
2346, 2647, 2648, 2667, 2666
2347, 2648, 2649, 2668, 2667
2348, 2649, 2650, 2669, 2668
2349, 2650, 2651, 2670, 2669
2350, 2651, 2652, 2671, 2670
2351, 2652, 2653, 2672, 2671
2352, 2653, 2654, 2673, 2672
2353, 2654, 2655, 2674, 2673
2354, 2655, 2656, 2675, 2674
2355, 2656, 2657, 2676, 2675
2356, 2657, 2658, 2677, 2676
2357, 2658, 2659, 2678, 2677
2358, 2659, 2660, 2679, 2678
2359, 2660, 2661, 2680, 2679
2360, 2661, 261, 262, 2680
2361, 284, 2662, 2681, 283
2362, 2662, 2663, 2682, 2681
2363, 2663, 2664, 2683, 2682
2364, 2664, 2665, 2684, 2683
2365, 2665, 2666, 2685, 2684
2366, 2666, 2667, 2686, 2685
2367, 2667, 2668, 2687, 2686
2368, 2668, 2669, 2688, 2687
2369, 2669, 2670, 2689, 2688
2370, 2670, 2671, 2690, 2689
2371, 2671, 2672, 2691, 2690
2372, 2672, 2673, 2692, 2691
2373, 2673, 2674, 2693, 2692
2374, 2674, 2675, 2694, 2693
2375, 2675, 2676, 2695, 2694
2376, 2676, 2677, 2696, 2695
2377, 2677, 2678, 2697, 2696
2378, 2678, 2679, 2698, 2697
2379, 2679, 2680, 2699, 2698
2380, 2680, 262, 263, 2699
2381, 283, 2681, 282, 6
2382, 2681, 2682, 281, 282
2383, 2682, 2683, 280, 281
2384, 2683, 2684, 279, 280
2385, 2684, 2685, 278, 279
2386, 2685, 2686, 277, 278
2387, 2686, 2687, 276, 277
2388, 2687, 2688, 275, 276
2389, 2688, 2689, 274, 275
2390, 2689, 2690, 273, 274
2391, 2690, 2691, 272, 273
2392, 2691, 2692, 271, 272
2393, 2692, 2693, 270, 271
2394, 2693, 2694, 269, 270
2395, 2694, 2695, 268, 269
2396, 2695, 2696, 267, 268
2397, 2696, 2697, 266, 267
2398, 2697, 2698, 265, 266
2399, 2698, 2699, 264, 265
2400, 2699, 263, 5, 264
2401, 7, 302, 2700, 358
2402, 302, 303, 2701, 2700
2403, 303, 304, 2702, 2701
2404, 304, 305, 2703, 2702
2405, 305, 306, 2704, 2703
2406, 306, 307, 2705, 2704
2407, 307, 308, 2706, 2705
2408, 308, 309, 2707, 2706
2409, 309, 310, 2708, 2707
2410, 310, 311, 2709, 2708
2411, 311, 312, 2710, 2709
2412, 312, 313, 2711, 2710
2413, 313, 314, 2712, 2711
2414, 314, 315, 2713, 2712
2415, 315, 316, 2714, 2713
2416, 316, 317, 2715, 2714
2417, 317, 318, 2716, 2715
2418, 318, 319, 2717, 2716
2419, 319, 320, 2718, 2717
2420, 320, 2, 27, 2718
2421, 358, 2700, 2719, 357
2422, 2700, 2701, 2720, 2719
2423, 2701, 2702, 2721, 2720
2424, 2702, 2703, 2722, 2721
2425, 2703, 2704, 2723, 2722
2426, 2704, 2705, 2724, 2723
2427, 2705, 2706, 2725, 2724
2428, 2706, 2707, 2726, 2725
2429, 2707, 2708, 2727, 2726
2430, 2708, 2709, 2728, 2727
2431, 2709, 2710, 2729, 2728
2432, 2710, 2711, 2730, 2729
2433, 2711, 2712, 2731, 2730
2434, 2712, 2713, 2732, 2731
2435, 2713, 2714, 2733, 2732
2436, 2714, 2715, 2734, 2733
2437, 2715, 2716, 2735, 2734
2438, 2716, 2717, 2736, 2735
2439, 2717, 2718, 2737, 2736
2440, 2718, 27, 26, 2737
2441, 357, 2719, 2738, 356
2442, 2719, 2720, 2739, 2738
2443, 2720, 2721, 2740, 2739
2444, 2721, 2722, 2741, 2740
2445, 2722, 2723, 2742, 2741
2446, 2723, 2724, 2743, 2742
2447, 2724, 2725, 2744, 2743
2448, 2725, 2726, 2745, 2744
2449, 2726, 2727, 2746, 2745
2450, 2727, 2728, 2747, 2746
2451, 2728, 2729, 2748, 2747
2452, 2729, 2730, 2749, 2748
2453, 2730, 2731, 2750, 2749
2454, 2731, 2732, 2751, 2750
2455, 2732, 2733, 2752, 2751
2456, 2733, 2734, 2753, 2752
2457, 2734, 2735, 2754, 2753
2458, 2735, 2736, 2755, 2754
2459, 2736, 2737, 2756, 2755
2460, 2737, 26, 25, 2756
2461, 356, 2738, 2757, 355
2462, 2738, 2739, 2758, 2757
2463, 2739, 2740, 2759, 2758
2464, 2740, 2741, 2760, 2759
2465, 2741, 2742, 2761, 2760
2466, 2742, 2743, 2762, 2761
2467, 2743, 2744, 2763, 2762
2468, 2744, 2745, 2764, 2763
2469, 2745, 2746, 2765, 2764
2470, 2746, 2747, 2766, 2765
2471, 2747, 2748, 2767, 2766
2472, 2748, 2749, 2768, 2767
2473, 2749, 2750, 2769, 2768
2474, 2750, 2751, 2770, 2769
2475, 2751, 2752, 2771, 2770
2476, 2752, 2753, 2772, 2771
2477, 2753, 2754, 2773, 2772
2478, 2754, 2755, 2774, 2773
2479, 2755, 2756, 2775, 2774
2480, 2756, 25, 24, 2775
2481, 355, 2757, 2776, 354
2482, 2757, 2758, 2777, 2776
2483, 2758, 2759, 2778, 2777
2484, 2759, 2760, 2779, 2778
2485, 2760, 2761, 2780, 2779
2486, 2761, 2762, 2781, 2780
2487, 2762, 2763, 2782, 2781
2488, 2763, 2764, 2783, 2782
2489, 2764, 2765, 2784, 2783
2490, 2765, 2766, 2785, 2784
2491, 2766, 2767, 2786, 2785
2492, 2767, 2768, 2787, 2786
2493, 2768, 2769, 2788, 2787
2494, 2769, 2770, 2789, 2788
2495, 2770, 2771, 2790, 2789
2496, 2771, 2772, 2791, 2790
2497, 2772, 2773, 2792, 2791
2498, 2773, 2774, 2793, 2792
2499, 2774, 2775, 2794, 2793
2500, 2775, 24, 23, 2794
2501, 354, 2776, 2795, 353
2502, 2776, 2777, 2796, 2795
2503, 2777, 2778, 2797, 2796
2504, 2778, 2779, 2798, 2797
2505, 2779, 2780, 2799, 2798
2506, 2780, 2781, 2800, 2799
2507, 2781, 2782, 2801, 2800
2508, 2782, 2783, 2802, 2801
2509, 2783, 2784, 2803, 2802
2510, 2784, 2785, 2804, 2803
2511, 2785, 2786, 2805, 2804
2512, 2786, 2787, 2806, 2805
2513, 2787, 2788, 2807, 2806
2514, 2788, 2789, 2808, 2807
2515, 2789, 2790, 2809, 2808
2516, 2790, 2791, 2810, 2809
2517, 2791, 2792, 2811, 2810
2518, 2792, 2793, 2812, 2811
2519, 2793, 2794, 2813, 2812
2520, 2794, 23, 22, 2813
2521, 353, 2795, 2814, 352
2522, 2795, 2796, 2815, 2814
2523, 2796, 2797, 2816, 2815
2524, 2797, 2798, 2817, 2816
2525, 2798, 2799, 2818, 2817
2526, 2799, 2800, 2819, 2818
2527, 2800, 2801, 2820, 2819
2528, 2801, 2802, 2821, 2820
2529, 2802, 2803, 2822, 2821
2530, 2803, 2804, 2823, 2822
2531, 2804, 2805, 2824, 2823
2532, 2805, 2806, 2825, 2824
2533, 2806, 2807, 2826, 2825
2534, 2807, 2808, 2827, 2826
2535, 2808, 2809, 2828, 2827
2536, 2809, 2810, 2829, 2828
2537, 2810, 2811, 2830, 2829
2538, 2811, 2812, 2831, 2830
2539, 2812, 2813, 2832, 2831
2540, 2813, 22, 21, 2832
2541, 352, 2814, 2833, 351
2542, 2814, 2815, 2834, 2833
2543, 2815, 2816, 2835, 2834
2544, 2816, 2817, 2836, 2835
2545, 2817, 2818, 2837, 2836
2546, 2818, 2819, 2838, 2837
2547, 2819, 2820, 2839, 2838
2548, 2820, 2821, 2840, 2839
2549, 2821, 2822, 2841, 2840
2550, 2822, 2823, 2842, 2841
2551, 2823, 2824, 2843, 2842
2552, 2824, 2825, 2844, 2843
2553, 2825, 2826, 2845, 2844
2554, 2826, 2827, 2846, 2845
2555, 2827, 2828, 2847, 2846
2556, 2828, 2829, 2848, 2847
2557, 2829, 2830, 2849, 2848
2558, 2830, 2831, 2850, 2849
2559, 2831, 2832, 2851, 2850
2560, 2832, 21, 20, 2851
2561, 351, 2833, 2852, 350
2562, 2833, 2834, 2853, 2852
2563, 2834, 2835, 2854, 2853
2564, 2835, 2836, 2855, 2854
2565, 2836, 2837, 2856, 2855
2566, 2837, 2838, 2857, 2856
2567, 2838, 2839, 2858, 2857
2568, 2839, 2840, 2859, 2858
2569, 2840, 2841, 2860, 2859
2570, 2841, 2842, 2861, 2860
2571, 2842, 2843, 2862, 2861
2572, 2843, 2844, 2863, 2862
2573, 2844, 2845, 2864, 2863
2574, 2845, 2846, 2865, 2864
2575, 2846, 2847, 2866, 2865
2576, 2847, 2848, 2867, 2866
2577, 2848, 2849, 2868, 2867
2578, 2849, 2850, 2869, 2868
2579, 2850, 2851, 2870, 2869
2580, 2851, 20, 19, 2870
2581, 350, 2852, 2871, 349
2582, 2852, 2853, 2872, 2871
2583, 2853, 2854, 2873, 2872
2584, 2854, 2855, 2874, 2873
2585, 2855, 2856, 2875, 2874
2586, 2856, 2857, 2876, 2875
2587, 2857, 2858, 2877, 2876
2588, 2858, 2859, 2878, 2877
2589, 2859, 2860, 2879, 2878
2590, 2860, 2861, 2880, 2879
2591, 2861, 2862, 2881, 2880
2592, 2862, 2863, 2882, 2881
2593, 2863, 2864, 2883, 2882
2594, 2864, 2865, 2884, 2883
2595, 2865, 2866, 2885, 2884
2596, 2866, 2867, 2886, 2885
2597, 2867, 2868, 2887, 2886
2598, 2868, 2869, 2888, 2887
2599, 2869, 2870, 2889, 2888
2600, 2870, 19, 18, 2889
2601, 349, 2871, 2890, 348
2602, 2871, 2872, 2891, 2890
2603, 2872, 2873, 2892, 2891
2604, 2873, 2874, 2893, 2892
2605, 2874, 2875, 2894, 2893
2606, 2875, 2876, 2895, 2894
2607, 2876, 2877, 2896, 2895
2608, 2877, 2878, 2897, 2896
2609, 2878, 2879, 2898, 2897
2610, 2879, 2880, 2899, 2898
2611, 2880, 2881, 2900, 2899
2612, 2881, 2882, 2901, 2900
2613, 2882, 2883, 2902, 2901
2614, 2883, 2884, 2903, 2902
2615, 2884, 2885, 2904, 2903
2616, 2885, 2886, 2905, 2904
2617, 2886, 2887, 2906, 2905
2618, 2887, 2888, 2907, 2906
2619, 2888, 2889, 2908, 2907
2620, 2889, 18, 17, 2908
2621, 348, 2890, 2909, 347
2622, 2890, 2891, 2910, 2909
2623, 2891, 2892, 2911, 2910
2624, 2892, 2893, 2912, 2911
2625, 2893, 2894, 2913, 2912
2626, 2894, 2895, 2914, 2913
2627, 2895, 2896, 2915, 2914
2628, 2896, 2897, 2916, 2915
2629, 2897, 2898, 2917, 2916
2630, 2898, 2899, 2918, 2917
2631, 2899, 2900, 2919, 2918
2632, 2900, 2901, 2920, 2919
2633, 2901, 2902, 2921, 2920
2634, 2902, 2903, 2922, 2921
2635, 2903, 2904, 2923, 2922
2636, 2904, 2905, 2924, 2923
2637, 2905, 2906, 2925, 2924
2638, 2906, 2907, 2926, 2925
2639, 2907, 2908, 2927, 2926
2640, 2908, 17, 16, 2927
2641, 347, 2909, 2928, 346
2642, 2909, 2910, 2929, 2928
2643, 2910, 2911, 2930, 2929
2644, 2911, 2912, 2931, 2930
2645, 2912, 2913, 2932, 2931
2646, 2913, 2914, 2933, 2932
2647, 2914, 2915, 2934, 2933
2648, 2915, 2916, 2935, 2934
2649, 2916, 2917, 2936, 2935
2650, 2917, 2918, 2937, 2936
2651, 2918, 2919, 2938, 2937
2652, 2919, 2920, 2939, 2938
2653, 2920, 2921, 2940, 2939
2654, 2921, 2922, 2941, 2940
2655, 2922, 2923, 2942, 2941
2656, 2923, 2924, 2943, 2942
2657, 2924, 2925, 2944, 2943
2658, 2925, 2926, 2945, 2944
2659, 2926, 2927, 2946, 2945
2660, 2927, 16, 15, 2946
2661, 346, 2928, 2947, 345
2662, 2928, 2929, 2948, 2947
2663, 2929, 2930, 2949, 2948
2664, 2930, 2931, 2950, 2949
2665, 2931, 2932, 2951, 2950
2666, 2932, 2933, 2952, 2951
2667, 2933, 2934, 2953, 2952
2668, 2934, 2935, 2954, 2953
2669, 2935, 2936, 2955, 2954
2670, 2936, 2937, 2956, 2955
2671, 2937, 2938, 2957, 2956
2672, 2938, 2939, 2958, 2957
2673, 2939, 2940, 2959, 2958
2674, 2940, 2941, 2960, 2959
2675, 2941, 2942, 2961, 2960
2676, 2942, 2943, 2962, 2961
2677, 2943, 2944, 2963, 2962
2678, 2944, 2945, 2964, 2963
2679, 2945, 2946, 2965, 2964
2680, 2946, 15, 14, 2965
2681, 345, 2947, 2966, 344
2682, 2947, 2948, 2967, 2966
2683, 2948, 2949, 2968, 2967
2684, 2949, 2950, 2969, 2968
2685, 2950, 2951, 2970, 2969
2686, 2951, 2952, 2971, 2970
2687, 2952, 2953, 2972, 2971
2688, 2953, 2954, 2973, 2972
2689, 2954, 2955, 2974, 2973
2690, 2955, 2956, 2975, 2974
2691, 2956, 2957, 2976, 2975
2692, 2957, 2958, 2977, 2976
2693, 2958, 2959, 2978, 2977
2694, 2959, 2960, 2979, 2978
2695, 2960, 2961, 2980, 2979
2696, 2961, 2962, 2981, 2980
2697, 2962, 2963, 2982, 2981
2698, 2963, 2964, 2983, 2982
2699, 2964, 2965, 2984, 2983
2700, 2965, 14, 13, 2984
2701, 344, 2966, 2985, 343
2702, 2966, 2967, 2986, 2985
2703, 2967, 2968, 2987, 2986
2704, 2968, 2969, 2988, 2987
2705, 2969, 2970, 2989, 2988
2706, 2970, 2971, 2990, 2989
2707, 2971, 2972, 2991, 2990
2708, 2972, 2973, 2992, 2991
2709, 2973, 2974, 2993, 2992
2710, 2974, 2975, 2994, 2993
2711, 2975, 2976, 2995, 2994
2712, 2976, 2977, 2996, 2995
2713, 2977, 2978, 2997, 2996
2714, 2978, 2979, 2998, 2997
2715, 2979, 2980, 2999, 2998
2716, 2980, 2981, 3000, 2999
2717, 2981, 2982, 3001, 3000
2718, 2982, 2983, 3002, 3001
2719, 2983, 2984, 3003, 3002
2720, 2984, 13, 12, 3003
2721, 343, 2985, 3004, 342
2722, 2985, 2986, 3005, 3004
2723, 2986, 2987, 3006, 3005
2724, 2987, 2988, 3007, 3006
2725, 2988, 2989, 3008, 3007
2726, 2989, 2990, 3009, 3008
2727, 2990, 2991, 3010, 3009
2728, 2991, 2992, 3011, 3010
2729, 2992, 2993, 3012, 3011
2730, 2993, 2994, 3013, 3012
2731, 2994, 2995, 3014, 3013
2732, 2995, 2996, 3015, 3014
2733, 2996, 2997, 3016, 3015
2734, 2997, 2998, 3017, 3016
2735, 2998, 2999, 3018, 3017
2736, 2999, 3000, 3019, 3018
2737, 3000, 3001, 3020, 3019
2738, 3001, 3002, 3021, 3020
2739, 3002, 3003, 3022, 3021
2740, 3003, 12, 11, 3022
2741, 342, 3004, 3023, 341
2742, 3004, 3005, 3024, 3023
2743, 3005, 3006, 3025, 3024
2744, 3006, 3007, 3026, 3025
2745, 3007, 3008, 3027, 3026
2746, 3008, 3009, 3028, 3027
2747, 3009, 3010, 3029, 3028
2748, 3010, 3011, 3030, 3029
2749, 3011, 3012, 3031, 3030
2750, 3012, 3013, 3032, 3031
2751, 3013, 3014, 3033, 3032
2752, 3014, 3015, 3034, 3033
2753, 3015, 3016, 3035, 3034
2754, 3016, 3017, 3036, 3035
2755, 3017, 3018, 3037, 3036
2756, 3018, 3019, 3038, 3037
2757, 3019, 3020, 3039, 3038
2758, 3020, 3021, 3040, 3039
2759, 3021, 3022, 3041, 3040
2760, 3022, 11, 10, 3041
2761, 341, 3023, 3042, 340
2762, 3023, 3024, 3043, 3042
2763, 3024, 3025, 3044, 3043
2764, 3025, 3026, 3045, 3044
2765, 3026, 3027, 3046, 3045
2766, 3027, 3028, 3047, 3046
2767, 3028, 3029, 3048, 3047
2768, 3029, 3030, 3049, 3048
2769, 3030, 3031, 3050, 3049
2770, 3031, 3032, 3051, 3050
2771, 3032, 3033, 3052, 3051
2772, 3033, 3034, 3053, 3052
2773, 3034, 3035, 3054, 3053
2774, 3035, 3036, 3055, 3054
2775, 3036, 3037, 3056, 3055
2776, 3037, 3038, 3057, 3056
2777, 3038, 3039, 3058, 3057
2778, 3039, 3040, 3059, 3058
2779, 3040, 3041, 3060, 3059
2780, 3041, 10, 9, 3060
2781, 340, 3042, 339, 8
2782, 3042, 3043, 338, 339
2783, 3043, 3044, 337, 338
2784, 3044, 3045, 336, 337
2785, 3045, 3046, 335, 336
2786, 3046, 3047, 334, 335
2787, 3047, 3048, 333, 334
2788, 3048, 3049, 332, 333
2789, 3049, 3050, 331, 332
2790, 3050, 3051, 330, 331
2791, 3051, 3052, 329, 330
2792, 3052, 3053, 328, 329
2793, 3053, 3054, 327, 328
2794, 3054, 3055, 326, 327
2795, 3055, 3056, 325, 326
2796, 3056, 3057, 324, 325
2797, 3057, 3058, 323, 324
2798, 3058, 3059, 322, 323
2799, 3059, 3060, 321, 322
2800, 3060, 9, 1, 321
60001, 60001, 60009, 60458, 60244
60002, 60009, 60010, 60459, 60458
60003, 60010, 60011, 60460, 60459
60004, 60011, 60012, 60461, 60460
60005, 60012, 60013, 60462, 60461
60006, 60013, 60014, 60463, 60462
60007, 60014, 60015, 60464, 60463
60008, 60015, 60016, 60465, 60464
60009, 60016, 60017, 60466, 60465
60010, 60017, 60018, 60467, 60466
60011, 60018, 60019, 60468, 60467
60012, 60019, 60020, 60469, 60468
60013, 60020, 60021, 60470, 60469
60014, 60021, 60022, 60471, 60470
60015, 60022, 60023, 60472, 60471
60016, 60023, 60024, 60473, 60472
60017, 60024, 60025, 60474, 60473
60018, 60025, 60026, 60475, 60474
60019, 60026, 60027, 60476, 60475
60020, 60027, 60002, 60028, 60476
60021, 60244, 60458, 60477, 60243
60022, 60458, 60459, 60478, 60477
60023, 60459, 60460, 60479, 60478
60024, 60460, 60461, 60480, 60479
60025, 60461, 60462, 60481, 60480
60026, 60462, 60463, 60482, 60481
60027, 60463, 60464, 60483, 60482
60028, 60464, 60465, 60484, 60483
60029, 60465, 60466, 60485, 60484
60030, 60466, 60467, 60486, 60485
60031, 60467, 60468, 60487, 60486
60032, 60468, 60469, 60488, 60487
60033, 60469, 60470, 60489, 60488
60034, 60470, 60471, 60490, 60489
60035, 60471, 60472, 60491, 60490
60036, 60472, 60473, 60492, 60491
60037, 60473, 60474, 60493, 60492
60038, 60474, 60475, 60494, 60493
60039, 60475, 60476, 60495, 60494
60040, 60476, 60028, 60029, 60495
60041, 60243, 60477, 60496, 60242
60042, 60477, 60478, 60497, 60496
60043, 60478, 60479, 60498, 60497
60044, 60479, 60480, 60499, 60498
60045, 60480, 60481, 60500, 60499
60046, 60481, 60482, 60501, 60500
60047, 60482, 60483, 60502, 60501
60048, 60483, 60484, 60503, 60502
60049, 60484, 60485, 60504, 60503
60050, 60485, 60486, 60505, 60504
60051, 60486, 60487, 60506, 60505
60052, 60487, 60488, 60507, 60506
60053, 60488, 60489, 60508, 60507
60054, 60489, 60490, 60509, 60508
60055, 60490, 60491, 60510, 60509
60056, 60491, 60492, 60511, 60510
60057, 60492, 60493, 60512, 60511
60058, 60493, 60494, 60513, 60512
60059, 60494, 60495, 60514, 60513
60060, 60495, 60029, 60030, 60514
60061, 60242, 60496, 60515, 60241
60062, 60496, 60497, 60516, 60515
60063, 60497, 60498, 60517, 60516
60064, 60498, 60499, 60518, 60517
60065, 60499, 60500, 60519, 60518
60066, 60500, 60501, 60520, 60519
60067, 60501, 60502, 60521, 60520
60068, 60502, 60503, 60522, 60521
60069, 60503, 60504, 60523, 60522
60070, 60504, 60505, 60524, 60523
60071, 60505, 60506, 60525, 60524
60072, 60506, 60507, 60526, 60525
60073, 60507, 60508, 60527, 60526
60074, 60508, 60509, 60528, 60527
60075, 60509, 60510, 60529, 60528
60076, 60510, 60511, 60530, 60529
60077, 60511, 60512, 60531, 60530
60078, 60512, 60513, 60532, 60531
60079, 60513, 60514, 60533, 60532
60080, 60514, 60030, 60031, 60533
60081, 60241, 60515, 60534, 60240
60082, 60515, 60516, 60535, 60534
60083, 60516, 60517, 60536, 60535
60084, 60517, 60518, 60537, 60536
60085, 60518, 60519, 60538, 60537
60086, 60519, 60520, 60539, 60538
60087, 60520, 60521, 60540, 60539
60088, 60521, 60522, 60541, 60540
60089, 60522, 60523, 60542, 60541
60090, 60523, 60524, 60543, 60542
60091, 60524, 60525, 60544, 60543
60092, 60525, 60526, 60545, 60544
60093, 60526, 60527, 60546, 60545
60094, 60527, 60528, 60547, 60546
60095, 60528, 60529, 60548, 60547
60096, 60529, 60530, 60549, 60548
60097, 60530, 60531, 60550, 60549
60098, 60531, 60532, 60551, 60550
60099, 60532, 60533, 60552, 60551
60100, 60533, 60031, 60032, 60552
60101, 60240, 60534, 60553, 60239
60102, 60534, 60535, 60554, 60553
60103, 60535, 60536, 60555, 60554
60104, 60536, 60537, 60556, 60555
60105, 60537, 60538, 60557, 60556
60106, 60538, 60539, 60558, 60557
60107, 60539, 60540, 60559, 60558
60108, 60540, 60541, 60560, 60559
60109, 60541, 60542, 60561, 60560
60110, 60542, 60543, 60562, 60561
60111, 60543, 60544, 60563, 60562
60112, 60544, 60545, 60564, 60563
60113, 60545, 60546, 60565, 60564
60114, 60546, 60547, 60566, 60565
60115, 60547, 60548, 60567, 60566
60116, 60548, 60549, 60568, 60567
60117, 60549, 60550, 60569, 60568
60118, 60550, 60551, 60570, 60569
60119, 60551, 60552, 60571, 60570
60120, 60552, 60032, 60033, 60571
60121, 60239, 60553, 60572, 60238
60122, 60553, 60554, 60573, 60572
60123, 60554, 60555, 60574, 60573
60124, 60555, 60556, 60575, 60574
60125, 60556, 60557, 60576, 60575
60126, 60557, 60558, 60577, 60576
60127, 60558, 60559, 60578, 60577
60128, 60559, 60560, 60579, 60578
60129, 60560, 60561, 60580, 60579
60130, 60561, 60562, 60581, 60580
60131, 60562, 60563, 60582, 60581
60132, 60563, 60564, 60583, 60582
60133, 60564, 60565, 60584, 60583
60134, 60565, 60566, 60585, 60584
60135, 60566, 60567, 60586, 60585
60136, 60567, 60568, 60587, 60586
60137, 60568, 60569, 60588, 60587
60138, 60569, 60570, 60589, 60588
60139, 60570, 60571, 60590, 60589
60140, 60571, 60033, 60034, 60590
60141, 60238, 60572, 60591, 60237
60142, 60572, 60573, 60592, 60591
60143, 60573, 60574, 60593, 60592
60144, 60574, 60575, 60594, 60593
60145, 60575, 60576, 60595, 60594
60146, 60576, 60577, 60596, 60595
60147, 60577, 60578, 60597, 60596
60148, 60578, 60579, 60598, 60597
60149, 60579, 60580, 60599, 60598
60150, 60580, 60581, 60600, 60599
60151, 60581, 60582, 60601, 60600
60152, 60582, 60583, 60602, 60601
60153, 60583, 60584, 60603, 60602
60154, 60584, 60585, 60604, 60603
60155, 60585, 60586, 60605, 60604
60156, 60586, 60587, 60606, 60605
60157, 60587, 60588, 60607, 60606
60158, 60588, 60589, 60608, 60607
60159, 60589, 60590, 60609, 60608
60160, 60590, 60034, 60035, 60609
60161, 60237, 60591, 60610, 60236
60162, 60591, 60592, 60611, 60610
60163, 60592, 60593, 60612, 60611
60164, 60593, 60594, 60613, 60612
60165, 60594, 60595, 60614, 60613
60166, 60595, 60596, 60615, 60614
60167, 60596, 60597, 60616, 60615
60168, 60597, 60598, 60617, 60616
60169, 60598, 60599, 60618, 60617
60170, 60599, 60600, 60619, 60618
60171, 60600, 60601, 60620, 60619
60172, 60601, 60602, 60621, 60620
60173, 60602, 60603, 60622, 60621
60174, 60603, 60604, 60623, 60622
60175, 60604, 60605, 60624, 60623
60176, 60605, 60606, 60625, 60624
60177, 60606, 60607, 60626, 60625
60178, 60607, 60608, 60627, 60626
60179, 60608, 60609, 60628, 60627
60180, 60609, 60035, 60036, 60628
60181, 60236, 60610, 60629, 60235
60182, 60610, 60611, 60630, 60629
60183, 60611, 60612, 60631, 60630
60184, 60612, 60613, 60632, 60631
60185, 60613, 60614, 60633, 60632
60186, 60614, 60615, 60634, 60633
60187, 60615, 60616, 60635, 60634
60188, 60616, 60617, 60636, 60635
60189, 60617, 60618, 60637, 60636
60190, 60618, 60619, 60638, 60637
60191, 60619, 60620, 60639, 60638
60192, 60620, 60621, 60640, 60639
60193, 60621, 60622, 60641, 60640
60194, 60622, 60623, 60642, 60641
60195, 60623, 60624, 60643, 60642
60196, 60624, 60625, 60644, 60643
60197, 60625, 60626, 60645, 60644
60198, 60626, 60627, 60646, 60645
60199, 60627, 60628, 60647, 60646
60200, 60628, 60036, 60037, 60647
60201, 60235, 60629, 60648, 60234
60202, 60629, 60630, 60649, 60648
60203, 60630, 60631, 60650, 60649
60204, 60631, 60632, 60651, 60650
60205, 60632, 60633, 60652, 60651
60206, 60633, 60634, 60653, 60652
60207, 60634, 60635, 60654, 60653
60208, 60635, 60636, 60655, 60654
60209, 60636, 60637, 60656, 60655
60210, 60637, 60638, 60657, 60656
60211, 60638, 60639, 60658, 60657
60212, 60639, 60640, 60659, 60658
60213, 60640, 60641, 60660, 60659
60214, 60641, 60642, 60661, 60660
60215, 60642, 60643, 60662, 60661
60216, 60643, 60644, 60663, 60662
60217, 60644, 60645, 60664, 60663
60218, 60645, 60646, 60665, 60664
60219, 60646, 60647, 60666, 60665
60220, 60647, 60037, 60038, 60666
60221, 60234, 60648, 60667, 60233
60222, 60648, 60649, 60668, 60667
60223, 60649, 60650, 60669, 60668
60224, 60650, 60651, 60670, 60669
60225, 60651, 60652, 60671, 60670
60226, 60652, 60653, 60672, 60671
60227, 60653, 60654, 60673, 60672
60228, 60654, 60655, 60674, 60673
60229, 60655, 60656, 60675, 60674
60230, 60656, 60657, 60676, 60675
60231, 60657, 60658, 60677, 60676
60232, 60658, 60659, 60678, 60677
60233, 60659, 60660, 60679, 60678
60234, 60660, 60661, 60680, 60679
60235, 60661, 60662, 60681, 60680
60236, 60662, 60663, 60682, 60681
60237, 60663, 60664, 60683, 60682
60238, 60664, 60665, 60684, 60683
60239, 60665, 60666, 60685, 60684
60240, 60666, 60038, 60039, 60685
60241, 60233, 60667, 60686, 60232
60242, 60667, 60668, 60687, 60686
60243, 60668, 60669, 60688, 60687
60244, 60669, 60670, 60689, 60688
60245, 60670, 60671, 60690, 60689
60246, 60671, 60672, 60691, 60690
60247, 60672, 60673, 60692, 60691
60248, 60673, 60674, 60693, 60692
60249, 60674, 60675, 60694, 60693
60250, 60675, 60676, 60695, 60694
60251, 60676, 60677, 60696, 60695
60252, 60677, 60678, 60697, 60696
60253, 60678, 60679, 60698, 60697
60254, 60679, 60680, 60699, 60698
60255, 60680, 60681, 60700, 60699
60256, 60681, 60682, 60701, 60700
60257, 60682, 60683, 60702, 60701
60258, 60683, 60684, 60703, 60702
60259, 60684, 60685, 60704, 60703
60260, 60685, 60039, 60040, 60704
60261, 60232, 60686, 60705, 60231
60262, 60686, 60687, 60706, 60705
60263, 60687, 60688, 60707, 60706
60264, 60688, 60689, 60708, 60707
60265, 60689, 60690, 60709, 60708
60266, 60690, 60691, 60710, 60709
60267, 60691, 60692, 60711, 60710
60268, 60692, 60693, 60712, 60711
60269, 60693, 60694, 60713, 60712
60270, 60694, 60695, 60714, 60713
60271, 60695, 60696, 60715, 60714
60272, 60696, 60697, 60716, 60715
60273, 60697, 60698, 60717, 60716
60274, 60698, 60699, 60718, 60717
60275, 60699, 60700, 60719, 60718
60276, 60700, 60701, 60720, 60719
60277, 60701, 60702, 60721, 60720
60278, 60702, 60703, 60722, 60721
60279, 60703, 60704, 60723, 60722
60280, 60704, 60040, 60041, 60723
60281, 60231, 60705, 60724, 60230
60282, 60705, 60706, 60725, 60724
60283, 60706, 60707, 60726, 60725
60284, 60707, 60708, 60727, 60726
60285, 60708, 60709, 60728, 60727
60286, 60709, 60710, 60729, 60728
60287, 60710, 60711, 60730, 60729
60288, 60711, 60712, 60731, 60730
60289, 60712, 60713, 60732, 60731
60290, 60713, 60714, 60733, 60732
60291, 60714, 60715, 60734, 60733
60292, 60715, 60716, 60735, 60734
60293, 60716, 60717, 60736, 60735
60294, 60717, 60718, 60737, 60736
60295, 60718, 60719, 60738, 60737
60296, 60719, 60720, 60739, 60738
60297, 60720, 60721, 60740, 60739
60298, 60721, 60722, 60741, 60740
60299, 60722, 60723, 60742, 60741
60300, 60723, 60041, 60042, 60742
60301, 60230, 60724, 60743, 60229
60302, 60724, 60725, 60744, 60743
60303, 60725, 60726, 60745, 60744
60304, 60726, 60727, 60746, 60745
60305, 60727, 60728, 60747, 60746
60306, 60728, 60729, 60748, 60747
60307, 60729, 60730, 60749, 60748
60308, 60730, 60731, 60750, 60749
60309, 60731, 60732, 60751, 60750
60310, 60732, 60733, 60752, 60751
60311, 60733, 60734, 60753, 60752
60312, 60734, 60735, 60754, 60753
60313, 60735, 60736, 60755, 60754
60314, 60736, 60737, 60756, 60755
60315, 60737, 60738, 60757, 60756
60316, 60738, 60739, 60758, 60757
60317, 60739, 60740, 60759, 60758
60318, 60740, 60741, 60760, 60759
60319, 60741, 60742, 60761, 60760
60320, 60742, 60042, 60043, 60761
60321, 60229, 60743, 60762, 60228
60322, 60743, 60744, 60763, 60762
60323, 60744, 60745, 60764, 60763
60324, 60745, 60746, 60765, 60764
60325, 60746, 60747, 60766, 60765
60326, 60747, 60748, 60767, 60766
60327, 60748, 60749, 60768, 60767
60328, 60749, 60750, 60769, 60768
60329, 60750, 60751, 60770, 60769
60330, 60751, 60752, 60771, 60770
60331, 60752, 60753, 60772, 60771
60332, 60753, 60754, 60773, 60772
60333, 60754, 60755, 60774, 60773
60334, 60755, 60756, 60775, 60774
60335, 60756, 60757, 60776, 60775
60336, 60757, 60758, 60777, 60776
60337, 60758, 60759, 60778, 60777
60338, 60759, 60760, 60779, 60778
60339, 60760, 60761, 60780, 60779
60340, 60761, 60043, 60044, 60780
60341, 60228, 60762, 60781, 60227
60342, 60762, 60763, 60782, 60781
60343, 60763, 60764, 60783, 60782
60344, 60764, 60765, 60784, 60783
60345, 60765, 60766, 60785, 60784
60346, 60766, 60767, 60786, 60785
60347, 60767, 60768, 60787, 60786
60348, 60768, 60769, 60788, 60787
60349, 60769, 60770, 60789, 60788
60350, 60770, 60771, 60790, 60789
60351, 60771, 60772, 60791, 60790
60352, 60772, 60773, 60792, 60791
60353, 60773, 60774, 60793, 60792
60354, 60774, 60775, 60794, 60793
60355, 60775, 60776, 60795, 60794
60356, 60776, 60777, 60796, 60795
60357, 60777, 60778, 60797, 60796
60358, 60778, 60779, 60798, 60797
60359, 60779, 60780, 60799, 60798
60360, 60780, 60044, 60045, 60799
60361, 60227, 60781, 60800, 60226
60362, 60781, 60782, 60801, 60800
60363, 60782, 60783, 60802, 60801
60364, 60783, 60784, 60803, 60802
60365, 60784, 60785, 60804, 60803
60366, 60785, 60786, 60805, 60804
60367, 60786, 60787, 60806, 60805
60368, 60787, 60788, 60807, 60806
60369, 60788, 60789, 60808, 60807
60370, 60789, 60790, 60809, 60808
60371, 60790, 60791, 60810, 60809
60372, 60791, 60792, 60811, 60810
60373, 60792, 60793, 60812, 60811
60374, 60793, 60794, 60813, 60812
60375, 60794, 60795, 60814, 60813
60376, 60795, 60796, 60815, 60814
60377, 60796, 60797, 60816, 60815
60378, 60797, 60798, 60817, 60816
60379, 60798, 60799, 60818, 60817
60380, 60799, 60045, 60046, 60818
60381, 60226, 60800, 60819, 60225
60382, 60800, 60801, 60820, 60819
60383, 60801, 60802, 60821, 60820
60384, 60802, 60803, 60822, 60821
60385, 60803, 60804, 60823, 60822
60386, 60804, 60805, 60824, 60823
60387, 60805, 60806, 60825, 60824
60388, 60806, 60807, 60826, 60825
60389, 60807, 60808, 60827, 60826
60390, 60808, 60809, 60828, 60827
60391, 60809, 60810, 60829, 60828
60392, 60810, 60811, 60830, 60829
60393, 60811, 60812, 60831, 60830
60394, 60812, 60813, 60832, 60831
60395, 60813, 60814, 60833, 60832
60396, 60814, 60815, 60834, 60833
60397, 60815, 60816, 60835, 60834
60398, 60816, 60817, 60836, 60835
60399, 60817, 60818, 60837, 60836
60400, 60818, 60046, 60047, 60837
60401, 60225, 60819, 60838, 60224
60402, 60819, 60820, 60839, 60838
60403, 60820, 60821, 60840, 60839
60404, 60821, 60822, 60841, 60840
60405, 60822, 60823, 60842, 60841
60406, 60823, 60824, 60843, 60842
60407, 60824, 60825, 60844, 60843
60408, 60825, 60826, 60845, 60844
60409, 60826, 60827, 60846, 60845
60410, 60827, 60828, 60847, 60846
60411, 60828, 60829, 60848, 60847
60412, 60829, 60830, 60849, 60848
60413, 60830, 60831, 60850, 60849
60414, 60831, 60832, 60851, 60850
60415, 60832, 60833, 60852, 60851
60416, 60833, 60834, 60853, 60852
60417, 60834, 60835, 60854, 60853
60418, 60835, 60836, 60855, 60854
60419, 60836, 60837, 60856, 60855
60420, 60837, 60047, 60048, 60856
60421, 60224, 60838, 60857, 60223
60422, 60838, 60839, 60858, 60857
60423, 60839, 60840, 60859, 60858
60424, 60840, 60841, 60860, 60859
60425, 60841, 60842, 60861, 60860
60426, 60842, 60843, 60862, 60861
60427, 60843, 60844, 60863, 60862
60428, 60844, 60845, 60864, 60863
60429, 60845, 60846, 60865, 60864
60430, 60846, 60847, 60866, 60865
60431, 60847, 60848, 60867, 60866
60432, 60848, 60849, 60868, 60867
60433, 60849, 60850, 60869, 60868
60434, 60850, 60851, 60870, 60869
60435, 60851, 60852, 60871, 60870
60436, 60852, 60853, 60872, 60871
60437, 60853, 60854, 60873, 60872
60438, 60854, 60855, 60874, 60873
60439, 60855, 60856, 60875, 60874
60440, 60856, 60048, 60049, 60875
60441, 60223, 60857, 60876, 60222
60442, 60857, 60858, 60877, 60876
60443, 60858, 60859, 60878, 60877
60444, 60859, 60860, 60879, 60878
60445, 60860, 60861, 60880, 60879
60446, 60861, 60862, 60881, 60880
60447, 60862, 60863, 60882, 60881
60448, 60863, 60864, 60883, 60882
60449, 60864, 60865, 60884, 60883
60450, 60865, 60866, 60885, 60884
60451, 60866, 60867, 60886, 60885
60452, 60867, 60868, 60887, 60886
60453, 60868, 60869, 60888, 60887
60454, 60869, 60870, 60889, 60888
60455, 60870, 60871, 60890, 60889
60456, 60871, 60872, 60891, 60890
60457, 60872, 60873, 60892, 60891
60458, 60873, 60874, 60893, 60892
60459, 60874, 60875, 60894, 60893
60460, 60875, 60049, 60050, 60894
60461, 60222, 60876, 60895, 60221
60462, 60876, 60877, 60896, 60895
60463, 60877, 60878, 60897, 60896
60464, 60878, 60879, 60898, 60897
60465, 60879, 60880, 60899, 60898
60466, 60880, 60881, 60900, 60899
60467, 60881, 60882, 60901, 60900
60468, 60882, 60883, 60902, 60901
60469, 60883, 60884, 60903, 60902
60470, 60884, 60885, 60904, 60903
60471, 60885, 60886, 60905, 60904
60472, 60886, 60887, 60906, 60905
60473, 60887, 60888, 60907, 60906
60474, 60888, 60889, 60908, 60907
60475, 60889, 60890, 60909, 60908
60476, 60890, 60891, 60910, 60909
60477, 60891, 60892, 60911, 60910
60478, 60892, 60893, 60912, 60911
60479, 60893, 60894, 60913, 60912
60480, 60894, 60050, 60051, 60913
60481, 60221, 60895, 60914, 60220
60482, 60895, 60896, 60915, 60914
60483, 60896, 60897, 60916, 60915
60484, 60897, 60898, 60917, 60916
60485, 60898, 60899, 60918, 60917
60486, 60899, 60900, 60919, 60918
60487, 60900, 60901, 60920, 60919
60488, 60901, 60902, 60921, 60920
60489, 60902, 60903, 60922, 60921
60490, 60903, 60904, 60923, 60922
60491, 60904, 60905, 60924, 60923
60492, 60905, 60906, 60925, 60924
60493, 60906, 60907, 60926, 60925
60494, 60907, 60908, 60927, 60926
60495, 60908, 60909, 60928, 60927
60496, 60909, 60910, 60929, 60928
60497, 60910, 60911, 60930, 60929
60498, 60911, 60912, 60931, 60930
60499, 60912, 60913, 60932, 60931
60500, 60913, 60051, 60052, 60932
60501, 60220, 60914, 60933, 60219
60502, 60914, 60915, 60934, 60933
60503, 60915, 60916, 60935, 60934
60504, 60916, 60917, 60936, 60935
60505, 60917, 60918, 60937, 60936
60506, 60918, 60919, 60938, 60937
60507, 60919, 60920, 60939, 60938
60508, 60920, 60921, 60940, 60939
60509, 60921, 60922, 60941, 60940
60510, 60922, 60923, 60942, 60941
60511, 60923, 60924, 60943, 60942
60512, 60924, 60925, 60944, 60943
60513, 60925, 60926, 60945, 60944
60514, 60926, 60927, 60946, 60945
60515, 60927, 60928, 60947, 60946
60516, 60928, 60929, 60948, 60947
60517, 60929, 60930, 60949, 60948
60518, 60930, 60931, 60950, 60949
60519, 60931, 60932, 60951, 60950
60520, 60932, 60052, 60053, 60951
60521, 60219, 60933, 60952, 60218
60522, 60933, 60934, 60953, 60952
60523, 60934, 60935, 60954, 60953
60524, 60935, 60936, 60955, 60954
60525, 60936, 60937, 60956, 60955
60526, 60937, 60938, 60957, 60956
60527, 60938, 60939, 60958, 60957
60528, 60939, 60940, 60959, 60958
60529, 60940, 60941, 60960, 60959
60530, 60941, 60942, 60961, 60960
60531, 60942, 60943, 60962, 60961
60532, 60943, 60944, 60963, 60962
60533, 60944, 60945, 60964, 60963
60534, 60945, 60946, 60965, 60964
60535, 60946, 60947, 60966, 60965
60536, 60947, 60948, 60967, 60966
60537, 60948, 60949, 60968, 60967
60538, 60949, 60950, 60969, 60968
60539, 60950, 60951, 60970, 60969
60540, 60951, 60053, 60054, 60970
60541, 60218, 60952, 60971, 60217
60542, 60952, 60953, 60972, 60971
60543, 60953, 60954, 60973, 60972
60544, 60954, 60955, 60974, 60973
60545, 60955, 60956, 60975, 60974
60546, 60956, 60957, 60976, 60975
60547, 60957, 60958, 60977, 60976
60548, 60958, 60959, 60978, 60977
60549, 60959, 60960, 60979, 60978
60550, 60960, 60961, 60980, 60979
60551, 60961, 60962, 60981, 60980
60552, 60962, 60963, 60982, 60981
60553, 60963, 60964, 60983, 60982
60554, 60964, 60965, 60984, 60983
60555, 60965, 60966, 60985, 60984
60556, 60966, 60967, 60986, 60985
60557, 60967, 60968, 60987, 60986
60558, 60968, 60969, 60988, 60987
60559, 60969, 60970, 60989, 60988
60560, 60970, 60054, 60055, 60989
60561, 60217, 60971, 60990, 60216
60562, 60971, 60972, 60991, 60990
60563, 60972, 60973, 60992, 60991
60564, 60973, 60974, 60993, 60992
60565, 60974, 60975, 60994, 60993
60566, 60975, 60976, 60995, 60994
60567, 60976, 60977, 60996, 60995
60568, 60977, 60978, 60997, 60996
60569, 60978, 60979, 60998, 60997
60570, 60979, 60980, 60999, 60998
60571, 60980, 60981, 61000, 60999
60572, 60981, 60982, 61001, 61000
60573, 60982, 60983, 61002, 61001
60574, 60983, 60984, 61003, 61002
60575, 60984, 60985, 61004, 61003
60576, 60985, 60986, 61005, 61004
60577, 60986, 60987, 61006, 61005
60578, 60987, 60988, 61007, 61006
60579, 60988, 60989, 61008, 61007
60580, 60989, 60055, 60056, 61008
60581, 60216, 60990, 61009, 60215
60582, 60990, 60991, 61010, 61009
60583, 60991, 60992, 61011, 61010
60584, 60992, 60993, 61012, 61011
60585, 60993, 60994, 61013, 61012
60586, 60994, 60995, 61014, 61013
60587, 60995, 60996, 61015, 61014
60588, 60996, 60997, 61016, 61015
60589, 60997, 60998, 61017, 61016
60590, 60998, 60999, 61018, 61017
60591, 60999, 61000, 61019, 61018
60592, 61000, 61001, 61020, 61019
60593, 61001, 61002, 61021, 61020
60594, 61002, 61003, 61022, 61021
60595, 61003, 61004, 61023, 61022
60596, 61004, 61005, 61024, 61023
60597, 61005, 61006, 61025, 61024
60598, 61006, 61007, 61026, 61025
60599, 61007, 61008, 61027, 61026
60600, 61008, 60056, 60057, 61027
60601, 60215, 61009, 61028, 60214
60602, 61009, 61010, 61029, 61028
60603, 61010, 61011, 61030, 61029
60604, 61011, 61012, 61031, 61030
60605, 61012, 61013, 61032, 61031
60606, 61013, 61014, 61033, 61032
60607, 61014, 61015, 61034, 61033
60608, 61015, 61016, 61035, 61034
60609, 61016, 61017, 61036, 61035
60610, 61017, 61018, 61037, 61036
60611, 61018, 61019, 61038, 61037
60612, 61019, 61020, 61039, 61038
60613, 61020, 61021, 61040, 61039
60614, 61021, 61022, 61041, 61040
60615, 61022, 61023, 61042, 61041
60616, 61023, 61024, 61043, 61042
60617, 61024, 61025, 61044, 61043
60618, 61025, 61026, 61045, 61044
60619, 61026, 61027, 61046, 61045
60620, 61027, 60057, 60058, 61046
60621, 60214, 61028, 61047, 60213
60622, 61028, 61029, 61048, 61047
60623, 61029, 61030, 61049, 61048
60624, 61030, 61031, 61050, 61049
60625, 61031, 61032, 61051, 61050
60626, 61032, 61033, 61052, 61051
60627, 61033, 61034, 61053, 61052
60628, 61034, 61035, 61054, 61053
60629, 61035, 61036, 61055, 61054
60630, 61036, 61037, 61056, 61055
60631, 61037, 61038, 61057, 61056
60632, 61038, 61039, 61058, 61057
60633, 61039, 61040, 61059, 61058
60634, 61040, 61041, 61060, 61059
60635, 61041, 61042, 61061, 61060
60636, 61042, 61043, 61062, 61061
60637, 61043, 61044, 61063, 61062
60638, 61044, 61045, 61064, 61063
60639, 61045, 61046, 61065, 61064
60640, 61046, 60058, 60059, 61065
60641, 60213, 61047, 61066, 60212
60642, 61047, 61048, 61067, 61066
60643, 61048, 61049, 61068, 61067
60644, 61049, 61050, 61069, 61068
60645, 61050, 61051, 61070, 61069
60646, 61051, 61052, 61071, 61070
60647, 61052, 61053, 61072, 61071
60648, 61053, 61054, 61073, 61072
60649, 61054, 61055, 61074, 61073
60650, 61055, 61056, 61075, 61074
60651, 61056, 61057, 61076, 61075
60652, 61057, 61058, 61077, 61076
60653, 61058, 61059, 61078, 61077
60654, 61059, 61060, 61079, 61078
60655, 61060, 61061, 61080, 61079
60656, 61061, 61062, 61081, 61080
60657, 61062, 61063, 61082, 61081
60658, 61063, 61064, 61083, 61082
60659, 61064, 61065, 61084, 61083
60660, 61065, 60059, 60060, 61084
60661, 60212, 61066, 61085, 60211
60662, 61066, 61067, 61086, 61085
60663, 61067, 61068, 61087, 61086
60664, 61068, 61069, 61088, 61087
60665, 61069, 61070, 61089, 61088
60666, 61070, 61071, 61090, 61089
60667, 61071, 61072, 61091, 61090
60668, 61072, 61073, 61092, 61091
60669, 61073, 61074, 61093, 61092
60670, 61074, 61075, 61094, 61093
60671, 61075, 61076, 61095, 61094
60672, 61076, 61077, 61096, 61095
60673, 61077, 61078, 61097, 61096
60674, 61078, 61079, 61098, 61097
60675, 61079, 61080, 61099, 61098
60676, 61080, 61081, 61100, 61099
60677, 61081, 61082, 61101, 61100
60678, 61082, 61083, 61102, 61101
60679, 61083, 61084, 61103, 61102
60680, 61084, 60060, 60061, 61103
60681, 60211, 61085, 61104, 60210
60682, 61085, 61086, 61105, 61104
60683, 61086, 61087, 61106, 61105
60684, 61087, 61088, 61107, 61106
60685, 61088, 61089, 61108, 61107
60686, 61089, 61090, 61109, 61108
60687, 61090, 61091, 61110, 61109
60688, 61091, 61092, 61111, 61110
60689, 61092, 61093, 61112, 61111
60690, 61093, 61094, 61113, 61112
60691, 61094, 61095, 61114, 61113
60692, 61095, 61096, 61115, 61114
60693, 61096, 61097, 61116, 61115
60694, 61097, 61098, 61117, 61116
60695, 61098, 61099, 61118, 61117
60696, 61099, 61100, 61119, 61118
60697, 61100, 61101, 61120, 61119
60698, 61101, 61102, 61121, 61120
60699, 61102, 61103, 61122, 61121
60700, 61103, 60061, 60062, 61122
60701, 60210, 61104, 61123, 60209
60702, 61104, 61105, 61124, 61123
60703, 61105, 61106, 61125, 61124
60704, 61106, 61107, 61126, 61125
60705, 61107, 61108, 61127, 61126
60706, 61108, 61109, 61128, 61127
60707, 61109, 61110, 61129, 61128
60708, 61110, 61111, 61130, 61129
60709, 61111, 61112, 61131, 61130
60710, 61112, 61113, 61132, 61131
60711, 61113, 61114, 61133, 61132
60712, 61114, 61115, 61134, 61133
60713, 61115, 61116, 61135, 61134
60714, 61116, 61117, 61136, 61135
60715, 61117, 61118, 61137, 61136
60716, 61118, 61119, 61138, 61137
60717, 61119, 61120, 61139, 61138
60718, 61120, 61121, 61140, 61139
60719, 61121, 61122, 61141, 61140
60720, 61122, 60062, 60063, 61141
60721, 60209, 61123, 61142, 60208
60722, 61123, 61124, 61143, 61142
60723, 61124, 61125, 61144, 61143
60724, 61125, 61126, 61145, 61144
60725, 61126, 61127, 61146, 61145
60726, 61127, 61128, 61147, 61146
60727, 61128, 61129, 61148, 61147
60728, 61129, 61130, 61149, 61148
60729, 61130, 61131, 61150, 61149
60730, 61131, 61132, 61151, 61150
60731, 61132, 61133, 61152, 61151
60732, 61133, 61134, 61153, 61152
60733, 61134, 61135, 61154, 61153
60734, 61135, 61136, 61155, 61154
60735, 61136, 61137, 61156, 61155
60736, 61137, 61138, 61157, 61156
60737, 61138, 61139, 61158, 61157
60738, 61139, 61140, 61159, 61158
60739, 61140, 61141, 61160, 61159
60740, 61141, 60063, 60064, 61160
60741, 60208, 61142, 61161, 60207
60742, 61142, 61143, 61162, 61161
60743, 61143, 61144, 61163, 61162
60744, 61144, 61145, 61164, 61163
60745, 61145, 61146, 61165, 61164
60746, 61146, 61147, 61166, 61165
60747, 61147, 61148, 61167, 61166
60748, 61148, 61149, 61168, 61167
60749, 61149, 61150, 61169, 61168
60750, 61150, 61151, 61170, 61169
60751, 61151, 61152, 61171, 61170
60752, 61152, 61153, 61172, 61171
60753, 61153, 61154, 61173, 61172
60754, 61154, 61155, 61174, 61173
60755, 61155, 61156, 61175, 61174
60756, 61156, 61157, 61176, 61175
60757, 61157, 61158, 61177, 61176
60758, 61158, 61159, 61178, 61177
60759, 61159, 61160, 61179, 61178
60760, 61160, 60064, 60065, 61179
60761, 60207, 61161, 61180, 60206
60762, 61161, 61162, 61181, 61180
60763, 61162, 61163, 61182, 61181
60764, 61163, 61164, 61183, 61182
60765, 61164, 61165, 61184, 61183
60766, 61165, 61166, 61185, 61184
60767, 61166, 61167, 61186, 61185
60768, 61167, 61168, 61187, 61186
60769, 61168, 61169, 61188, 61187
60770, 61169, 61170, 61189, 61188
60771, 61170, 61171, 61190, 61189
60772, 61171, 61172, 61191, 61190
60773, 61172, 61173, 61192, 61191
60774, 61173, 61174, 61193, 61192
60775, 61174, 61175, 61194, 61193
60776, 61175, 61176, 61195, 61194
60777, 61176, 61177, 61196, 61195
60778, 61177, 61178, 61197, 61196
60779, 61178, 61179, 61198, 61197
60780, 61179, 60065, 60066, 61198
60781, 60206, 61180, 61199, 60205
60782, 61180, 61181, 61200, 61199
60783, 61181, 61182, 61201, 61200
60784, 61182, 61183, 61202, 61201
60785, 61183, 61184, 61203, 61202
60786, 61184, 61185, 61204, 61203
60787, 61185, 61186, 61205, 61204
60788, 61186, 61187, 61206, 61205
60789, 61187, 61188, 61207, 61206
60790, 61188, 61189, 61208, 61207
60791, 61189, 61190, 61209, 61208
60792, 61190, 61191, 61210, 61209
60793, 61191, 61192, 61211, 61210
60794, 61192, 61193, 61212, 61211
60795, 61193, 61194, 61213, 61212
60796, 61194, 61195, 61214, 61213
60797, 61195, 61196, 61215, 61214
60798, 61196, 61197, 61216, 61215
60799, 61197, 61198, 61217, 61216
60800, 61198, 60066, 60067, 61217
60801, 60205, 61199, 61218, 60204
60802, 61199, 61200, 61219, 61218
60803, 61200, 61201, 61220, 61219
60804, 61201, 61202, 61221, 61220
60805, 61202, 61203, 61222, 61221
60806, 61203, 61204, 61223, 61222
60807, 61204, 61205, 61224, 61223
60808, 61205, 61206, 61225, 61224
60809, 61206, 61207, 61226, 61225
60810, 61207, 61208, 61227, 61226
60811, 61208, 61209, 61228, 61227
60812, 61209, 61210, 61229, 61228
60813, 61210, 61211, 61230, 61229
60814, 61211, 61212, 61231, 61230
60815, 61212, 61213, 61232, 61231
60816, 61213, 61214, 61233, 61232
60817, 61214, 61215, 61234, 61233
60818, 61215, 61216, 61235, 61234
60819, 61216, 61217, 61236, 61235
60820, 61217, 60067, 60068, 61236
60821, 60204, 61218, 61237, 60203
60822, 61218, 61219, 61238, 61237
60823, 61219, 61220, 61239, 61238
60824, 61220, 61221, 61240, 61239
60825, 61221, 61222, 61241, 61240
60826, 61222, 61223, 61242, 61241
60827, 61223, 61224, 61243, 61242
60828, 61224, 61225, 61244, 61243
60829, 61225, 61226, 61245, 61244
60830, 61226, 61227, 61246, 61245
60831, 61227, 61228, 61247, 61246
60832, 61228, 61229, 61248, 61247
60833, 61229, 61230, 61249, 61248
60834, 61230, 61231, 61250, 61249
60835, 61231, 61232, 61251, 61250
60836, 61232, 61233, 61252, 61251
60837, 61233, 61234, 61253, 61252
60838, 61234, 61235, 61254, 61253
60839, 61235, 61236, 61255, 61254
60840, 61236, 60068, 60069, 61255
60841, 60203, 61237, 61256, 60202
60842, 61237, 61238, 61257, 61256
60843, 61238, 61239, 61258, 61257
60844, 61239, 61240, 61259, 61258
60845, 61240, 61241, 61260, 61259
60846, 61241, 61242, 61261, 61260
60847, 61242, 61243, 61262, 61261
60848, 61243, 61244, 61263, 61262
60849, 61244, 61245, 61264, 61263
60850, 61245, 61246, 61265, 61264
60851, 61246, 61247, 61266, 61265
60852, 61247, 61248, 61267, 61266
60853, 61248, 61249, 61268, 61267
60854, 61249, 61250, 61269, 61268
60855, 61250, 61251, 61270, 61269
60856, 61251, 61252, 61271, 61270
60857, 61252, 61253, 61272, 61271
60858, 61253, 61254, 61273, 61272
60859, 61254, 61255, 61274, 61273
60860, 61255, 60069, 60070, 61274
60861, 60202, 61256, 61275, 60201
60862, 61256, 61257, 61276, 61275
60863, 61257, 61258, 61277, 61276
60864, 61258, 61259, 61278, 61277
60865, 61259, 61260, 61279, 61278
60866, 61260, 61261, 61280, 61279
60867, 61261, 61262, 61281, 61280
60868, 61262, 61263, 61282, 61281
60869, 61263, 61264, 61283, 61282
60870, 61264, 61265, 61284, 61283
60871, 61265, 61266, 61285, 61284
60872, 61266, 61267, 61286, 61285
60873, 61267, 61268, 61287, 61286
60874, 61268, 61269, 61288, 61287
60875, 61269, 61270, 61289, 61288
60876, 61270, 61271, 61290, 61289
60877, 61271, 61272, 61291, 61290
60878, 61272, 61273, 61292, 61291
60879, 61273, 61274, 61293, 61292
60880, 61274, 60070, 60071, 61293
60881, 60201, 61275, 61294, 60200
60882, 61275, 61276, 61295, 61294
60883, 61276, 61277, 61296, 61295
60884, 61277, 61278, 61297, 61296
60885, 61278, 61279, 61298, 61297
60886, 61279, 61280, 61299, 61298
60887, 61280, 61281, 61300, 61299
60888, 61281, 61282, 61301, 61300
60889, 61282, 61283, 61302, 61301
60890, 61283, 61284, 61303, 61302
60891, 61284, 61285, 61304, 61303
60892, 61285, 61286, 61305, 61304
60893, 61286, 61287, 61306, 61305
60894, 61287, 61288, 61307, 61306
60895, 61288, 61289, 61308, 61307
60896, 61289, 61290, 61309, 61308
60897, 61290, 61291, 61310, 61309
60898, 61291, 61292, 61311, 61310
60899, 61292, 61293, 61312, 61311
60900, 61293, 60071, 60072, 61312
60901, 60200, 61294, 61313, 60199
60902, 61294, 61295, 61314, 61313
60903, 61295, 61296, 61315, 61314
60904, 61296, 61297, 61316, 61315
60905, 61297, 61298, 61317, 61316
60906, 61298, 61299, 61318, 61317
60907, 61299, 61300, 61319, 61318
60908, 61300, 61301, 61320, 61319
60909, 61301, 61302, 61321, 61320
60910, 61302, 61303, 61322, 61321
60911, 61303, 61304, 61323, 61322
60912, 61304, 61305, 61324, 61323
60913, 61305, 61306, 61325, 61324
60914, 61306, 61307, 61326, 61325
60915, 61307, 61308, 61327, 61326
60916, 61308, 61309, 61328, 61327
60917, 61309, 61310, 61329, 61328
60918, 61310, 61311, 61330, 61329
60919, 61311, 61312, 61331, 61330
60920, 61312, 60072, 60073, 61331
60921, 60199, 61313, 61332, 60198
60922, 61313, 61314, 61333, 61332
60923, 61314, 61315, 61334, 61333
60924, 61315, 61316, 61335, 61334
60925, 61316, 61317, 61336, 61335
60926, 61317, 61318, 61337, 61336
60927, 61318, 61319, 61338, 61337
60928, 61319, 61320, 61339, 61338
60929, 61320, 61321, 61340, 61339
60930, 61321, 61322, 61341, 61340
60931, 61322, 61323, 61342, 61341
60932, 61323, 61324, 61343, 61342
60933, 61324, 61325, 61344, 61343
60934, 61325, 61326, 61345, 61344
60935, 61326, 61327, 61346, 61345
60936, 61327, 61328, 61347, 61346
60937, 61328, 61329, 61348, 61347
60938, 61329, 61330, 61349, 61348
60939, 61330, 61331, 61350, 61349
60940, 61331, 60073, 60074, 61350
60941, 60198, 61332, 61351, 60197
60942, 61332, 61333, 61352, 61351
60943, 61333, 61334, 61353, 61352
60944, 61334, 61335, 61354, 61353
60945, 61335, 61336, 61355, 61354
60946, 61336, 61337, 61356, 61355
60947, 61337, 61338, 61357, 61356
60948, 61338, 61339, 61358, 61357
60949, 61339, 61340, 61359, 61358
60950, 61340, 61341, 61360, 61359
60951, 61341, 61342, 61361, 61360
60952, 61342, 61343, 61362, 61361
60953, 61343, 61344, 61363, 61362
60954, 61344, 61345, 61364, 61363
60955, 61345, 61346, 61365, 61364
60956, 61346, 61347, 61366, 61365
60957, 61347, 61348, 61367, 61366
60958, 61348, 61349, 61368, 61367
60959, 61349, 61350, 61369, 61368
60960, 61350, 60074, 60075, 61369
60961, 60197, 61351, 61370, 60196
60962, 61351, 61352, 61371, 61370
60963, 61352, 61353, 61372, 61371
60964, 61353, 61354, 61373, 61372
60965, 61354, 61355, 61374, 61373
60966, 61355, 61356, 61375, 61374
60967, 61356, 61357, 61376, 61375
60968, 61357, 61358, 61377, 61376
60969, 61358, 61359, 61378, 61377
60970, 61359, 61360, 61379, 61378
60971, 61360, 61361, 61380, 61379
60972, 61361, 61362, 61381, 61380
60973, 61362, 61363, 61382, 61381
60974, 61363, 61364, 61383, 61382
60975, 61364, 61365, 61384, 61383
60976, 61365, 61366, 61385, 61384
60977, 61366, 61367, 61386, 61385
60978, 61367, 61368, 61387, 61386
60979, 61368, 61369, 61388, 61387
60980, 61369, 60075, 60076, 61388
60981, 60196, 61370, 61389, 60195
60982, 61370, 61371, 61390, 61389
60983, 61371, 61372, 61391, 61390
60984, 61372, 61373, 61392, 61391
60985, 61373, 61374, 61393, 61392
60986, 61374, 61375, 61394, 61393
60987, 61375, 61376, 61395, 61394
60988, 61376, 61377, 61396, 61395
60989, 61377, 61378, 61397, 61396
60990, 61378, 61379, 61398, 61397
60991, 61379, 61380, 61399, 61398
60992, 61380, 61381, 61400, 61399
60993, 61381, 61382, 61401, 61400
60994, 61382, 61383, 61402, 61401
60995, 61383, 61384, 61403, 61402
60996, 61384, 61385, 61404, 61403
60997, 61385, 61386, 61405, 61404
60998, 61386, 61387, 61406, 61405
60999, 61387, 61388, 61407, 61406
61000, 61388, 60076, 60077, 61407
61001, 60195, 61389, 61408, 60194
61002, 61389, 61390, 61409, 61408
61003, 61390, 61391, 61410, 61409
61004, 61391, 61392, 61411, 61410
61005, 61392, 61393, 61412, 61411
61006, 61393, 61394, 61413, 61412
61007, 61394, 61395, 61414, 61413
61008, 61395, 61396, 61415, 61414
61009, 61396, 61397, 61416, 61415
61010, 61397, 61398, 61417, 61416
61011, 61398, 61399, 61418, 61417
61012, 61399, 61400, 61419, 61418
61013, 61400, 61401, 61420, 61419
61014, 61401, 61402, 61421, 61420
61015, 61402, 61403, 61422, 61421
61016, 61403, 61404, 61423, 61422
61017, 61404, 61405, 61424, 61423
61018, 61405, 61406, 61425, 61424
61019, 61406, 61407, 61426, 61425
61020, 61407, 60077, 60078, 61426
61021, 60194, 61408, 61427, 60193
61022, 61408, 61409, 61428, 61427
61023, 61409, 61410, 61429, 61428
61024, 61410, 61411, 61430, 61429
61025, 61411, 61412, 61431, 61430
61026, 61412, 61413, 61432, 61431
61027, 61413, 61414, 61433, 61432
61028, 61414, 61415, 61434, 61433
61029, 61415, 61416, 61435, 61434
61030, 61416, 61417, 61436, 61435
61031, 61417, 61418, 61437, 61436
61032, 61418, 61419, 61438, 61437
61033, 61419, 61420, 61439, 61438
61034, 61420, 61421, 61440, 61439
61035, 61421, 61422, 61441, 61440
61036, 61422, 61423, 61442, 61441
61037, 61423, 61424, 61443, 61442
61038, 61424, 61425, 61444, 61443
61039, 61425, 61426, 61445, 61444
61040, 61426, 60078, 60079, 61445
61041, 60193, 61427, 61446, 60192
61042, 61427, 61428, 61447, 61446
61043, 61428, 61429, 61448, 61447
61044, 61429, 61430, 61449, 61448
61045, 61430, 61431, 61450, 61449
61046, 61431, 61432, 61451, 61450
61047, 61432, 61433, 61452, 61451
61048, 61433, 61434, 61453, 61452
61049, 61434, 61435, 61454, 61453
61050, 61435, 61436, 61455, 61454
61051, 61436, 61437, 61456, 61455
61052, 61437, 61438, 61457, 61456
61053, 61438, 61439, 61458, 61457
61054, 61439, 61440, 61459, 61458
61055, 61440, 61441, 61460, 61459
61056, 61441, 61442, 61461, 61460
61057, 61442, 61443, 61462, 61461
61058, 61443, 61444, 61463, 61462
61059, 61444, 61445, 61464, 61463
61060, 61445, 60079, 60080, 61464
61061, 60192, 61446, 61465, 60191
61062, 61446, 61447, 61466, 61465
61063, 61447, 61448, 61467, 61466
61064, 61448, 61449, 61468, 61467
61065, 61449, 61450, 61469, 61468
61066, 61450, 61451, 61470, 61469
61067, 61451, 61452, 61471, 61470
61068, 61452, 61453, 61472, 61471
61069, 61453, 61454, 61473, 61472
61070, 61454, 61455, 61474, 61473
61071, 61455, 61456, 61475, 61474
61072, 61456, 61457, 61476, 61475
61073, 61457, 61458, 61477, 61476
61074, 61458, 61459, 61478, 61477
61075, 61459, 61460, 61479, 61478
61076, 61460, 61461, 61480, 61479
61077, 61461, 61462, 61481, 61480
61078, 61462, 61463, 61482, 61481
61079, 61463, 61464, 61483, 61482
61080, 61464, 60080, 60081, 61483
61081, 60191, 61465, 61484, 60190
61082, 61465, 61466, 61485, 61484
61083, 61466, 61467, 61486, 61485
61084, 61467, 61468, 61487, 61486
61085, 61468, 61469, 61488, 61487
61086, 61469, 61470, 61489, 61488
61087, 61470, 61471, 61490, 61489
61088, 61471, 61472, 61491, 61490
61089, 61472, 61473, 61492, 61491
61090, 61473, 61474, 61493, 61492
61091, 61474, 61475, 61494, 61493
61092, 61475, 61476, 61495, 61494
61093, 61476, 61477, 61496, 61495
61094, 61477, 61478, 61497, 61496
61095, 61478, 61479, 61498, 61497
61096, 61479, 61480, 61499, 61498
61097, 61480, 61481, 61500, 61499
61098, 61481, 61482, 61501, 61500
61099, 61482, 61483, 61502, 61501
61100, 61483, 60081, 60082, 61502
61101, 60190, 61484, 61503, 60189
61102, 61484, 61485, 61504, 61503
61103, 61485, 61486, 61505, 61504
61104, 61486, 61487, 61506, 61505
61105, 61487, 61488, 61507, 61506
61106, 61488, 61489, 61508, 61507
61107, 61489, 61490, 61509, 61508
61108, 61490, 61491, 61510, 61509
61109, 61491, 61492, 61511, 61510
61110, 61492, 61493, 61512, 61511
61111, 61493, 61494, 61513, 61512
61112, 61494, 61495, 61514, 61513
61113, 61495, 61496, 61515, 61514
61114, 61496, 61497, 61516, 61515
61115, 61497, 61498, 61517, 61516
61116, 61498, 61499, 61518, 61517
61117, 61499, 61500, 61519, 61518
61118, 61500, 61501, 61520, 61519
61119, 61501, 61502, 61521, 61520
61120, 61502, 60082, 60083, 61521
61121, 60189, 61503, 61522, 60188
61122, 61503, 61504, 61523, 61522
61123, 61504, 61505, 61524, 61523
61124, 61505, 61506, 61525, 61524
61125, 61506, 61507, 61526, 61525
61126, 61507, 61508, 61527, 61526
61127, 61508, 61509, 61528, 61527
61128, 61509, 61510, 61529, 61528
61129, 61510, 61511, 61530, 61529
61130, 61511, 61512, 61531, 61530
61131, 61512, 61513, 61532, 61531
61132, 61513, 61514, 61533, 61532
61133, 61514, 61515, 61534, 61533
61134, 61515, 61516, 61535, 61534
61135, 61516, 61517, 61536, 61535
61136, 61517, 61518, 61537, 61536
61137, 61518, 61519, 61538, 61537
61138, 61519, 61520, 61539, 61538
61139, 61520, 61521, 61540, 61539
61140, 61521, 60083, 60084, 61540
61141, 60188, 61522, 61541, 60187
61142, 61522, 61523, 61542, 61541
61143, 61523, 61524, 61543, 61542
61144, 61524, 61525, 61544, 61543
61145, 61525, 61526, 61545, 61544
61146, 61526, 61527, 61546, 61545
61147, 61527, 61528, 61547, 61546
61148, 61528, 61529, 61548, 61547
61149, 61529, 61530, 61549, 61548
61150, 61530, 61531, 61550, 61549
61151, 61531, 61532, 61551, 61550
61152, 61532, 61533, 61552, 61551
61153, 61533, 61534, 61553, 61552
61154, 61534, 61535, 61554, 61553
61155, 61535, 61536, 61555, 61554
61156, 61536, 61537, 61556, 61555
61157, 61537, 61538, 61557, 61556
61158, 61538, 61539, 61558, 61557
61159, 61539, 61540, 61559, 61558
61160, 61540, 60084, 60085, 61559
61161, 60187, 61541, 61560, 60186
61162, 61541, 61542, 61561, 61560
61163, 61542, 61543, 61562, 61561
61164, 61543, 61544, 61563, 61562
61165, 61544, 61545, 61564, 61563
61166, 61545, 61546, 61565, 61564
61167, 61546, 61547, 61566, 61565
61168, 61547, 61548, 61567, 61566
61169, 61548, 61549, 61568, 61567
61170, 61549, 61550, 61569, 61568
61171, 61550, 61551, 61570, 61569
61172, 61551, 61552, 61571, 61570
61173, 61552, 61553, 61572, 61571
61174, 61553, 61554, 61573, 61572
61175, 61554, 61555, 61574, 61573
61176, 61555, 61556, 61575, 61574
61177, 61556, 61557, 61576, 61575
61178, 61557, 61558, 61577, 61576
61179, 61558, 61559, 61578, 61577
61180, 61559, 60085, 60086, 61578
61181, 60186, 61560, 61579, 60185
61182, 61560, 61561, 61580, 61579
61183, 61561, 61562, 61581, 61580
61184, 61562, 61563, 61582, 61581
61185, 61563, 61564, 61583, 61582
61186, 61564, 61565, 61584, 61583
61187, 61565, 61566, 61585, 61584
61188, 61566, 61567, 61586, 61585
61189, 61567, 61568, 61587, 61586
61190, 61568, 61569, 61588, 61587
61191, 61569, 61570, 61589, 61588
61192, 61570, 61571, 61590, 61589
61193, 61571, 61572, 61591, 61590
61194, 61572, 61573, 61592, 61591
61195, 61573, 61574, 61593, 61592
61196, 61574, 61575, 61594, 61593
61197, 61575, 61576, 61595, 61594
61198, 61576, 61577, 61596, 61595
61199, 61577, 61578, 61597, 61596
61200, 61578, 60086, 60087, 61597
61201, 60185, 61579, 61598, 60184
61202, 61579, 61580, 61599, 61598
61203, 61580, 61581, 61600, 61599
61204, 61581, 61582, 61601, 61600
61205, 61582, 61583, 61602, 61601
61206, 61583, 61584, 61603, 61602
61207, 61584, 61585, 61604, 61603
61208, 61585, 61586, 61605, 61604
61209, 61586, 61587, 61606, 61605
61210, 61587, 61588, 61607, 61606
61211, 61588, 61589, 61608, 61607
61212, 61589, 61590, 61609, 61608
61213, 61590, 61591, 61610, 61609
61214, 61591, 61592, 61611, 61610
61215, 61592, 61593, 61612, 61611
61216, 61593, 61594, 61613, 61612
61217, 61594, 61595, 61614, 61613
61218, 61595, 61596, 61615, 61614
61219, 61596, 61597, 61616, 61615
61220, 61597, 60087, 60088, 61616
61221, 60184, 61598, 61617, 60183
61222, 61598, 61599, 61618, 61617
61223, 61599, 61600, 61619, 61618
61224, 61600, 61601, 61620, 61619
61225, 61601, 61602, 61621, 61620
61226, 61602, 61603, 61622, 61621
61227, 61603, 61604, 61623, 61622
61228, 61604, 61605, 61624, 61623
61229, 61605, 61606, 61625, 61624
61230, 61606, 61607, 61626, 61625
61231, 61607, 61608, 61627, 61626
61232, 61608, 61609, 61628, 61627
61233, 61609, 61610, 61629, 61628
61234, 61610, 61611, 61630, 61629
61235, 61611, 61612, 61631, 61630
61236, 61612, 61613, 61632, 61631
61237, 61613, 61614, 61633, 61632
61238, 61614, 61615, 61634, 61633
61239, 61615, 61616, 61635, 61634
61240, 61616, 60088, 60089, 61635
61241, 60183, 61617, 61636, 60182
61242, 61617, 61618, 61637, 61636
61243, 61618, 61619, 61638, 61637
61244, 61619, 61620, 61639, 61638
61245, 61620, 61621, 61640, 61639
61246, 61621, 61622, 61641, 61640
61247, 61622, 61623, 61642, 61641
61248, 61623, 61624, 61643, 61642
61249, 61624, 61625, 61644, 61643
61250, 61625, 61626, 61645, 61644
61251, 61626, 61627, 61646, 61645
61252, 61627, 61628, 61647, 61646
61253, 61628, 61629, 61648, 61647
61254, 61629, 61630, 61649, 61648
61255, 61630, 61631, 61650, 61649
61256, 61631, 61632, 61651, 61650
61257, 61632, 61633, 61652, 61651
61258, 61633, 61634, 61653, 61652
61259, 61634, 61635, 61654, 61653
61260, 61635, 60089, 60090, 61654
61261, 60182, 61636, 61655, 60181
61262, 61636, 61637, 61656, 61655
61263, 61637, 61638, 61657, 61656
61264, 61638, 61639, 61658, 61657
61265, 61639, 61640, 61659, 61658
61266, 61640, 61641, 61660, 61659
61267, 61641, 61642, 61661, 61660
61268, 61642, 61643, 61662, 61661
61269, 61643, 61644, 61663, 61662
61270, 61644, 61645, 61664, 61663
61271, 61645, 61646, 61665, 61664
61272, 61646, 61647, 61666, 61665
61273, 61647, 61648, 61667, 61666
61274, 61648, 61649, 61668, 61667
61275, 61649, 61650, 61669, 61668
61276, 61650, 61651, 61670, 61669
61277, 61651, 61652, 61671, 61670
61278, 61652, 61653, 61672, 61671
61279, 61653, 61654, 61673, 61672
61280, 61654, 60090, 60091, 61673
61281, 60181, 61655, 61674, 60180
61282, 61655, 61656, 61675, 61674
61283, 61656, 61657, 61676, 61675
61284, 61657, 61658, 61677, 61676
61285, 61658, 61659, 61678, 61677
61286, 61659, 61660, 61679, 61678
61287, 61660, 61661, 61680, 61679
61288, 61661, 61662, 61681, 61680
61289, 61662, 61663, 61682, 61681
61290, 61663, 61664, 61683, 61682
61291, 61664, 61665, 61684, 61683
61292, 61665, 61666, 61685, 61684
61293, 61666, 61667, 61686, 61685
61294, 61667, 61668, 61687, 61686
61295, 61668, 61669, 61688, 61687
61296, 61669, 61670, 61689, 61688
61297, 61670, 61671, 61690, 61689
61298, 61671, 61672, 61691, 61690
61299, 61672, 61673, 61692, 61691
61300, 61673, 60091, 60092, 61692
61301, 60180, 61674, 61693, 60179
61302, 61674, 61675, 61694, 61693
61303, 61675, 61676, 61695, 61694
61304, 61676, 61677, 61696, 61695
61305, 61677, 61678, 61697, 61696
61306, 61678, 61679, 61698, 61697
61307, 61679, 61680, 61699, 61698
61308, 61680, 61681, 61700, 61699
61309, 61681, 61682, 61701, 61700
61310, 61682, 61683, 61702, 61701
61311, 61683, 61684, 61703, 61702
61312, 61684, 61685, 61704, 61703
61313, 61685, 61686, 61705, 61704
61314, 61686, 61687, 61706, 61705
61315, 61687, 61688, 61707, 61706
61316, 61688, 61689, 61708, 61707
61317, 61689, 61690, 61709, 61708
61318, 61690, 61691, 61710, 61709
61319, 61691, 61692, 61711, 61710
61320, 61692, 60092, 60093, 61711
61321, 60179, 61693, 61712, 60178
61322, 61693, 61694, 61713, 61712
61323, 61694, 61695, 61714, 61713
61324, 61695, 61696, 61715, 61714
61325, 61696, 61697, 61716, 61715
61326, 61697, 61698, 61717, 61716
61327, 61698, 61699, 61718, 61717
61328, 61699, 61700, 61719, 61718
61329, 61700, 61701, 61720, 61719
61330, 61701, 61702, 61721, 61720
61331, 61702, 61703, 61722, 61721
61332, 61703, 61704, 61723, 61722
61333, 61704, 61705, 61724, 61723
61334, 61705, 61706, 61725, 61724
61335, 61706, 61707, 61726, 61725
61336, 61707, 61708, 61727, 61726
61337, 61708, 61709, 61728, 61727
61338, 61709, 61710, 61729, 61728
61339, 61710, 61711, 61730, 61729
61340, 61711, 60093, 60094, 61730
61341, 60178, 61712, 61731, 60177
61342, 61712, 61713, 61732, 61731
61343, 61713, 61714, 61733, 61732
61344, 61714, 61715, 61734, 61733
61345, 61715, 61716, 61735, 61734
61346, 61716, 61717, 61736, 61735
61347, 61717, 61718, 61737, 61736
61348, 61718, 61719, 61738, 61737
61349, 61719, 61720, 61739, 61738
61350, 61720, 61721, 61740, 61739
61351, 61721, 61722, 61741, 61740
61352, 61722, 61723, 61742, 61741
61353, 61723, 61724, 61743, 61742
61354, 61724, 61725, 61744, 61743
61355, 61725, 61726, 61745, 61744
61356, 61726, 61727, 61746, 61745
61357, 61727, 61728, 61747, 61746
61358, 61728, 61729, 61748, 61747
61359, 61729, 61730, 61749, 61748
61360, 61730, 60094, 60095, 61749
61361, 60177, 61731, 61750, 60176
61362, 61731, 61732, 61751, 61750
61363, 61732, 61733, 61752, 61751
61364, 61733, 61734, 61753, 61752
61365, 61734, 61735, 61754, 61753
61366, 61735, 61736, 61755, 61754
61367, 61736, 61737, 61756, 61755
61368, 61737, 61738, 61757, 61756
61369, 61738, 61739, 61758, 61757
61370, 61739, 61740, 61759, 61758
61371, 61740, 61741, 61760, 61759
61372, 61741, 61742, 61761, 61760
61373, 61742, 61743, 61762, 61761
61374, 61743, 61744, 61763, 61762
61375, 61744, 61745, 61764, 61763
61376, 61745, 61746, 61765, 61764
61377, 61746, 61747, 61766, 61765
61378, 61747, 61748, 61767, 61766
61379, 61748, 61749, 61768, 61767
61380, 61749, 60095, 60096, 61768
61381, 60176, 61750, 61769, 60175
61382, 61750, 61751, 61770, 61769
61383, 61751, 61752, 61771, 61770
61384, 61752, 61753, 61772, 61771
61385, 61753, 61754, 61773, 61772
61386, 61754, 61755, 61774, 61773
61387, 61755, 61756, 61775, 61774
61388, 61756, 61757, 61776, 61775
61389, 61757, 61758, 61777, 61776
61390, 61758, 61759, 61778, 61777
61391, 61759, 61760, 61779, 61778
61392, 61760, 61761, 61780, 61779
61393, 61761, 61762, 61781, 61780
61394, 61762, 61763, 61782, 61781
61395, 61763, 61764, 61783, 61782
61396, 61764, 61765, 61784, 61783
61397, 61765, 61766, 61785, 61784
61398, 61766, 61767, 61786, 61785
61399, 61767, 61768, 61787, 61786
61400, 61768, 60096, 60097, 61787
61401, 60175, 61769, 61788, 60174
61402, 61769, 61770, 61789, 61788
61403, 61770, 61771, 61790, 61789
61404, 61771, 61772, 61791, 61790
61405, 61772, 61773, 61792, 61791
61406, 61773, 61774, 61793, 61792
61407, 61774, 61775, 61794, 61793
61408, 61775, 61776, 61795, 61794
61409, 61776, 61777, 61796, 61795
61410, 61777, 61778, 61797, 61796
61411, 61778, 61779, 61798, 61797
61412, 61779, 61780, 61799, 61798
61413, 61780, 61781, 61800, 61799
61414, 61781, 61782, 61801, 61800
61415, 61782, 61783, 61802, 61801
61416, 61783, 61784, 61803, 61802
61417, 61784, 61785, 61804, 61803
61418, 61785, 61786, 61805, 61804
61419, 61786, 61787, 61806, 61805
61420, 61787, 60097, 60098, 61806
61421, 60174, 61788, 61807, 60173
61422, 61788, 61789, 61808, 61807
61423, 61789, 61790, 61809, 61808
61424, 61790, 61791, 61810, 61809
61425, 61791, 61792, 61811, 61810
61426, 61792, 61793, 61812, 61811
61427, 61793, 61794, 61813, 61812
61428, 61794, 61795, 61814, 61813
61429, 61795, 61796, 61815, 61814
61430, 61796, 61797, 61816, 61815
61431, 61797, 61798, 61817, 61816
61432, 61798, 61799, 61818, 61817
61433, 61799, 61800, 61819, 61818
61434, 61800, 61801, 61820, 61819
61435, 61801, 61802, 61821, 61820
61436, 61802, 61803, 61822, 61821
61437, 61803, 61804, 61823, 61822
61438, 61804, 61805, 61824, 61823
61439, 61805, 61806, 61825, 61824
61440, 61806, 60098, 60099, 61825
61441, 60173, 61807, 61826, 60172
61442, 61807, 61808, 61827, 61826
61443, 61808, 61809, 61828, 61827
61444, 61809, 61810, 61829, 61828
61445, 61810, 61811, 61830, 61829
61446, 61811, 61812, 61831, 61830
61447, 61812, 61813, 61832, 61831
61448, 61813, 61814, 61833, 61832
61449, 61814, 61815, 61834, 61833
61450, 61815, 61816, 61835, 61834
61451, 61816, 61817, 61836, 61835
61452, 61817, 61818, 61837, 61836
61453, 61818, 61819, 61838, 61837
61454, 61819, 61820, 61839, 61838
61455, 61820, 61821, 61840, 61839
61456, 61821, 61822, 61841, 61840
61457, 61822, 61823, 61842, 61841
61458, 61823, 61824, 61843, 61842
61459, 61824, 61825, 61844, 61843
61460, 61825, 60099, 60100, 61844
61461, 60172, 61826, 61845, 60171
61462, 61826, 61827, 61846, 61845
61463, 61827, 61828, 61847, 61846
61464, 61828, 61829, 61848, 61847
61465, 61829, 61830, 61849, 61848
61466, 61830, 61831, 61850, 61849
61467, 61831, 61832, 61851, 61850
61468, 61832, 61833, 61852, 61851
61469, 61833, 61834, 61853, 61852
61470, 61834, 61835, 61854, 61853
61471, 61835, 61836, 61855, 61854
61472, 61836, 61837, 61856, 61855
61473, 61837, 61838, 61857, 61856
61474, 61838, 61839, 61858, 61857
61475, 61839, 61840, 61859, 61858
61476, 61840, 61841, 61860, 61859
61477, 61841, 61842, 61861, 61860
61478, 61842, 61843, 61862, 61861
61479, 61843, 61844, 61863, 61862
61480, 61844, 60100, 60101, 61863
61481, 60171, 61845, 61864, 60170
61482, 61845, 61846, 61865, 61864
61483, 61846, 61847, 61866, 61865
61484, 61847, 61848, 61867, 61866
61485, 61848, 61849, 61868, 61867
61486, 61849, 61850, 61869, 61868
61487, 61850, 61851, 61870, 61869
61488, 61851, 61852, 61871, 61870
61489, 61852, 61853, 61872, 61871
61490, 61853, 61854, 61873, 61872
61491, 61854, 61855, 61874, 61873
61492, 61855, 61856, 61875, 61874
61493, 61856, 61857, 61876, 61875
61494, 61857, 61858, 61877, 61876
61495, 61858, 61859, 61878, 61877
61496, 61859, 61860, 61879, 61878
61497, 61860, 61861, 61880, 61879
61498, 61861, 61862, 61881, 61880
61499, 61862, 61863, 61882, 61881
61500, 61863, 60101, 60102, 61882
61501, 60170, 61864, 61883, 60169
61502, 61864, 61865, 61884, 61883
61503, 61865, 61866, 61885, 61884
61504, 61866, 61867, 61886, 61885
61505, 61867, 61868, 61887, 61886
61506, 61868, 61869, 61888, 61887
61507, 61869, 61870, 61889, 61888
61508, 61870, 61871, 61890, 61889
61509, 61871, 61872, 61891, 61890
61510, 61872, 61873, 61892, 61891
61511, 61873, 61874, 61893, 61892
61512, 61874, 61875, 61894, 61893
61513, 61875, 61876, 61895, 61894
61514, 61876, 61877, 61896, 61895
61515, 61877, 61878, 61897, 61896
61516, 61878, 61879, 61898, 61897
61517, 61879, 61880, 61899, 61898
61518, 61880, 61881, 61900, 61899
61519, 61881, 61882, 61901, 61900
61520, 61882, 60102, 60103, 61901
61521, 60169, 61883, 61902, 60168
61522, 61883, 61884, 61903, 61902
61523, 61884, 61885, 61904, 61903
61524, 61885, 61886, 61905, 61904
61525, 61886, 61887, 61906, 61905
61526, 61887, 61888, 61907, 61906
61527, 61888, 61889, 61908, 61907
61528, 61889, 61890, 61909, 61908
61529, 61890, 61891, 61910, 61909
61530, 61891, 61892, 61911, 61910
61531, 61892, 61893, 61912, 61911
61532, 61893, 61894, 61913, 61912
61533, 61894, 61895, 61914, 61913
61534, 61895, 61896, 61915, 61914
61535, 61896, 61897, 61916, 61915
61536, 61897, 61898, 61917, 61916
61537, 61898, 61899, 61918, 61917
61538, 61899, 61900, 61919, 61918
61539, 61900, 61901, 61920, 61919
61540, 61901, 60103, 60104, 61920
61541, 60168, 61902, 61921, 60167
61542, 61902, 61903, 61922, 61921
61543, 61903, 61904, 61923, 61922
61544, 61904, 61905, 61924, 61923
61545, 61905, 61906, 61925, 61924
61546, 61906, 61907, 61926, 61925
61547, 61907, 61908, 61927, 61926
61548, 61908, 61909, 61928, 61927
61549, 61909, 61910, 61929, 61928
61550, 61910, 61911, 61930, 61929
61551, 61911, 61912, 61931, 61930
61552, 61912, 61913, 61932, 61931
61553, 61913, 61914, 61933, 61932
61554, 61914, 61915, 61934, 61933
61555, 61915, 61916, 61935, 61934
61556, 61916, 61917, 61936, 61935
61557, 61917, 61918, 61937, 61936
61558, 61918, 61919, 61938, 61937
61559, 61919, 61920, 61939, 61938
61560, 61920, 60104, 60105, 61939
61561, 60167, 61921, 61940, 60166
61562, 61921, 61922, 61941, 61940
61563, 61922, 61923, 61942, 61941
61564, 61923, 61924, 61943, 61942
61565, 61924, 61925, 61944, 61943
61566, 61925, 61926, 61945, 61944
61567, 61926, 61927, 61946, 61945
61568, 61927, 61928, 61947, 61946
61569, 61928, 61929, 61948, 61947
61570, 61929, 61930, 61949, 61948
61571, 61930, 61931, 61950, 61949
61572, 61931, 61932, 61951, 61950
61573, 61932, 61933, 61952, 61951
61574, 61933, 61934, 61953, 61952
61575, 61934, 61935, 61954, 61953
61576, 61935, 61936, 61955, 61954
61577, 61936, 61937, 61956, 61955
61578, 61937, 61938, 61957, 61956
61579, 61938, 61939, 61958, 61957
61580, 61939, 60105, 60106, 61958
61581, 60166, 61940, 61959, 60165
61582, 61940, 61941, 61960, 61959
61583, 61941, 61942, 61961, 61960
61584, 61942, 61943, 61962, 61961
61585, 61943, 61944, 61963, 61962
61586, 61944, 61945, 61964, 61963
61587, 61945, 61946, 61965, 61964
61588, 61946, 61947, 61966, 61965
61589, 61947, 61948, 61967, 61966
61590, 61948, 61949, 61968, 61967
61591, 61949, 61950, 61969, 61968
61592, 61950, 61951, 61970, 61969
61593, 61951, 61952, 61971, 61970
61594, 61952, 61953, 61972, 61971
61595, 61953, 61954, 61973, 61972
61596, 61954, 61955, 61974, 61973
61597, 61955, 61956, 61975, 61974
61598, 61956, 61957, 61976, 61975
61599, 61957, 61958, 61977, 61976
61600, 61958, 60106, 60107, 61977
61601, 60165, 61959, 61978, 60164
61602, 61959, 61960, 61979, 61978
61603, 61960, 61961, 61980, 61979
61604, 61961, 61962, 61981, 61980
61605, 61962, 61963, 61982, 61981
61606, 61963, 61964, 61983, 61982
61607, 61964, 61965, 61984, 61983
61608, 61965, 61966, 61985, 61984
61609, 61966, 61967, 61986, 61985
61610, 61967, 61968, 61987, 61986
61611, 61968, 61969, 61988, 61987
61612, 61969, 61970, 61989, 61988
61613, 61970, 61971, 61990, 61989
61614, 61971, 61972, 61991, 61990
61615, 61972, 61973, 61992, 61991
61616, 61973, 61974, 61993, 61992
61617, 61974, 61975, 61994, 61993
61618, 61975, 61976, 61995, 61994
61619, 61976, 61977, 61996, 61995
61620, 61977, 60107, 60108, 61996
61621, 60164, 61978, 61997, 60163
61622, 61978, 61979, 61998, 61997
61623, 61979, 61980, 61999, 61998
61624, 61980, 61981, 62000, 61999
61625, 61981, 61982, 62001, 62000
61626, 61982, 61983, 62002, 62001
61627, 61983, 61984, 62003, 62002
61628, 61984, 61985, 62004, 62003
61629, 61985, 61986, 62005, 62004
61630, 61986, 61987, 62006, 62005
61631, 61987, 61988, 62007, 62006
61632, 61988, 61989, 62008, 62007
61633, 61989, 61990, 62009, 62008
61634, 61990, 61991, 62010, 62009
61635, 61991, 61992, 62011, 62010
61636, 61992, 61993, 62012, 62011
61637, 61993, 61994, 62013, 62012
61638, 61994, 61995, 62014, 62013
61639, 61995, 61996, 62015, 62014
61640, 61996, 60108, 60109, 62015
61641, 60163, 61997, 62016, 60162
61642, 61997, 61998, 62017, 62016
61643, 61998, 61999, 62018, 62017
61644, 61999, 62000, 62019, 62018
61645, 62000, 62001, 62020, 62019
61646, 62001, 62002, 62021, 62020
61647, 62002, 62003, 62022, 62021
61648, 62003, 62004, 62023, 62022
61649, 62004, 62005, 62024, 62023
61650, 62005, 62006, 62025, 62024
61651, 62006, 62007, 62026, 62025
61652, 62007, 62008, 62027, 62026
61653, 62008, 62009, 62028, 62027
61654, 62009, 62010, 62029, 62028
61655, 62010, 62011, 62030, 62029
61656, 62011, 62012, 62031, 62030
61657, 62012, 62013, 62032, 62031
61658, 62013, 62014, 62033, 62032
61659, 62014, 62015, 62034, 62033
61660, 62015, 60109, 60110, 62034
61661, 60162, 62016, 62035, 60161
61662, 62016, 62017, 62036, 62035
61663, 62017, 62018, 62037, 62036
61664, 62018, 62019, 62038, 62037
61665, 62019, 62020, 62039, 62038
61666, 62020, 62021, 62040, 62039
61667, 62021, 62022, 62041, 62040
61668, 62022, 62023, 62042, 62041
61669, 62023, 62024, 62043, 62042
61670, 62024, 62025, 62044, 62043
61671, 62025, 62026, 62045, 62044
61672, 62026, 62027, 62046, 62045
61673, 62027, 62028, 62047, 62046
61674, 62028, 62029, 62048, 62047
61675, 62029, 62030, 62049, 62048
61676, 62030, 62031, 62050, 62049
61677, 62031, 62032, 62051, 62050
61678, 62032, 62033, 62052, 62051
61679, 62033, 62034, 62053, 62052
61680, 62034, 60110, 60111, 62053
61681, 60161, 62035, 62054, 60160
61682, 62035, 62036, 62055, 62054
61683, 62036, 62037, 62056, 62055
61684, 62037, 62038, 62057, 62056
61685, 62038, 62039, 62058, 62057
61686, 62039, 62040, 62059, 62058
61687, 62040, 62041, 62060, 62059
61688, 62041, 62042, 62061, 62060
61689, 62042, 62043, 62062, 62061
61690, 62043, 62044, 62063, 62062
61691, 62044, 62045, 62064, 62063
61692, 62045, 62046, 62065, 62064
61693, 62046, 62047, 62066, 62065
61694, 62047, 62048, 62067, 62066
61695, 62048, 62049, 62068, 62067
61696, 62049, 62050, 62069, 62068
61697, 62050, 62051, 62070, 62069
61698, 62051, 62052, 62071, 62070
61699, 62052, 62053, 62072, 62071
61700, 62053, 60111, 60112, 62072
61701, 60160, 62054, 62073, 60159
61702, 62054, 62055, 62074, 62073
61703, 62055, 62056, 62075, 62074
61704, 62056, 62057, 62076, 62075
61705, 62057, 62058, 62077, 62076
61706, 62058, 62059, 62078, 62077
61707, 62059, 62060, 62079, 62078
61708, 62060, 62061, 62080, 62079
61709, 62061, 62062, 62081, 62080
61710, 62062, 62063, 62082, 62081
61711, 62063, 62064, 62083, 62082
61712, 62064, 62065, 62084, 62083
61713, 62065, 62066, 62085, 62084
61714, 62066, 62067, 62086, 62085
61715, 62067, 62068, 62087, 62086
61716, 62068, 62069, 62088, 62087
61717, 62069, 62070, 62089, 62088
61718, 62070, 62071, 62090, 62089
61719, 62071, 62072, 62091, 62090
61720, 62072, 60112, 60113, 62091
61721, 60159, 62073, 62092, 60158
61722, 62073, 62074, 62093, 62092
61723, 62074, 62075, 62094, 62093
61724, 62075, 62076, 62095, 62094
61725, 62076, 62077, 62096, 62095
61726, 62077, 62078, 62097, 62096
61727, 62078, 62079, 62098, 62097
61728, 62079, 62080, 62099, 62098
61729, 62080, 62081, 62100, 62099
61730, 62081, 62082, 62101, 62100
61731, 62082, 62083, 62102, 62101
61732, 62083, 62084, 62103, 62102
61733, 62084, 62085, 62104, 62103
61734, 62085, 62086, 62105, 62104
61735, 62086, 62087, 62106, 62105
61736, 62087, 62088, 62107, 62106
61737, 62088, 62089, 62108, 62107
61738, 62089, 62090, 62109, 62108
61739, 62090, 62091, 62110, 62109
61740, 62091, 60113, 60114, 62110
61741, 60158, 62092, 62111, 60157
61742, 62092, 62093, 62112, 62111
61743, 62093, 62094, 62113, 62112
61744, 62094, 62095, 62114, 62113
61745, 62095, 62096, 62115, 62114
61746, 62096, 62097, 62116, 62115
61747, 62097, 62098, 62117, 62116
61748, 62098, 62099, 62118, 62117
61749, 62099, 62100, 62119, 62118
61750, 62100, 62101, 62120, 62119
61751, 62101, 62102, 62121, 62120
61752, 62102, 62103, 62122, 62121
61753, 62103, 62104, 62123, 62122
61754, 62104, 62105, 62124, 62123
61755, 62105, 62106, 62125, 62124
61756, 62106, 62107, 62126, 62125
61757, 62107, 62108, 62127, 62126
61758, 62108, 62109, 62128, 62127
61759, 62109, 62110, 62129, 62128
61760, 62110, 60114, 60115, 62129
61761, 60157, 62111, 62130, 60156
61762, 62111, 62112, 62131, 62130
61763, 62112, 62113, 62132, 62131
61764, 62113, 62114, 62133, 62132
61765, 62114, 62115, 62134, 62133
61766, 62115, 62116, 62135, 62134
61767, 62116, 62117, 62136, 62135
61768, 62117, 62118, 62137, 62136
61769, 62118, 62119, 62138, 62137
61770, 62119, 62120, 62139, 62138
61771, 62120, 62121, 62140, 62139
61772, 62121, 62122, 62141, 62140
61773, 62122, 62123, 62142, 62141
61774, 62123, 62124, 62143, 62142
61775, 62124, 62125, 62144, 62143
61776, 62125, 62126, 62145, 62144
61777, 62126, 62127, 62146, 62145
61778, 62127, 62128, 62147, 62146
61779, 62128, 62129, 62148, 62147
61780, 62129, 60115, 60116, 62148
61781, 60156, 62130, 62149, 60155
61782, 62130, 62131, 62150, 62149
61783, 62131, 62132, 62151, 62150
61784, 62132, 62133, 62152, 62151
61785, 62133, 62134, 62153, 62152
61786, 62134, 62135, 62154, 62153
61787, 62135, 62136, 62155, 62154
61788, 62136, 62137, 62156, 62155
61789, 62137, 62138, 62157, 62156
61790, 62138, 62139, 62158, 62157
61791, 62139, 62140, 62159, 62158
61792, 62140, 62141, 62160, 62159
61793, 62141, 62142, 62161, 62160
61794, 62142, 62143, 62162, 62161
61795, 62143, 62144, 62163, 62162
61796, 62144, 62145, 62164, 62163
61797, 62145, 62146, 62165, 62164
61798, 62146, 62147, 62166, 62165
61799, 62147, 62148, 62167, 62166
61800, 62148, 60116, 60117, 62167
61801, 60155, 62149, 62168, 60154
61802, 62149, 62150, 62169, 62168
61803, 62150, 62151, 62170, 62169
61804, 62151, 62152, 62171, 62170
61805, 62152, 62153, 62172, 62171
61806, 62153, 62154, 62173, 62172
61807, 62154, 62155, 62174, 62173
61808, 62155, 62156, 62175, 62174
61809, 62156, 62157, 62176, 62175
61810, 62157, 62158, 62177, 62176
61811, 62158, 62159, 62178, 62177
61812, 62159, 62160, 62179, 62178
61813, 62160, 62161, 62180, 62179
61814, 62161, 62162, 62181, 62180
61815, 62162, 62163, 62182, 62181
61816, 62163, 62164, 62183, 62182
61817, 62164, 62165, 62184, 62183
61818, 62165, 62166, 62185, 62184
61819, 62166, 62167, 62186, 62185
61820, 62167, 60117, 60118, 62186
61821, 60154, 62168, 62187, 60153
61822, 62168, 62169, 62188, 62187
61823, 62169, 62170, 62189, 62188
61824, 62170, 62171, 62190, 62189
61825, 62171, 62172, 62191, 62190
61826, 62172, 62173, 62192, 62191
61827, 62173, 62174, 62193, 62192
61828, 62174, 62175, 62194, 62193
61829, 62175, 62176, 62195, 62194
61830, 62176, 62177, 62196, 62195
61831, 62177, 62178, 62197, 62196
61832, 62178, 62179, 62198, 62197
61833, 62179, 62180, 62199, 62198
61834, 62180, 62181, 62200, 62199
61835, 62181, 62182, 62201, 62200
61836, 62182, 62183, 62202, 62201
61837, 62183, 62184, 62203, 62202
61838, 62184, 62185, 62204, 62203
61839, 62185, 62186, 62205, 62204
61840, 62186, 60118, 60119, 62205
61841, 60153, 62187, 62206, 60152
61842, 62187, 62188, 62207, 62206
61843, 62188, 62189, 62208, 62207
61844, 62189, 62190, 62209, 62208
61845, 62190, 62191, 62210, 62209
61846, 62191, 62192, 62211, 62210
61847, 62192, 62193, 62212, 62211
61848, 62193, 62194, 62213, 62212
61849, 62194, 62195, 62214, 62213
61850, 62195, 62196, 62215, 62214
61851, 62196, 62197, 62216, 62215
61852, 62197, 62198, 62217, 62216
61853, 62198, 62199, 62218, 62217
61854, 62199, 62200, 62219, 62218
61855, 62200, 62201, 62220, 62219
61856, 62201, 62202, 62221, 62220
61857, 62202, 62203, 62222, 62221
61858, 62203, 62204, 62223, 62222
61859, 62204, 62205, 62224, 62223
61860, 62205, 60119, 60120, 62224
61861, 60152, 62206, 62225, 60151
61862, 62206, 62207, 62226, 62225
61863, 62207, 62208, 62227, 62226
61864, 62208, 62209, 62228, 62227
61865, 62209, 62210, 62229, 62228
61866, 62210, 62211, 62230, 62229
61867, 62211, 62212, 62231, 62230
61868, 62212, 62213, 62232, 62231
61869, 62213, 62214, 62233, 62232
61870, 62214, 62215, 62234, 62233
61871, 62215, 62216, 62235, 62234
61872, 62216, 62217, 62236, 62235
61873, 62217, 62218, 62237, 62236
61874, 62218, 62219, 62238, 62237
61875, 62219, 62220, 62239, 62238
61876, 62220, 62221, 62240, 62239
61877, 62221, 62222, 62241, 62240
61878, 62222, 62223, 62242, 62241
61879, 62223, 62224, 62243, 62242
61880, 62224, 60120, 60121, 62243
61881, 60151, 62225, 62244, 60150
61882, 62225, 62226, 62245, 62244
61883, 62226, 62227, 62246, 62245
61884, 62227, 62228, 62247, 62246
61885, 62228, 62229, 62248, 62247
61886, 62229, 62230, 62249, 62248
61887, 62230, 62231, 62250, 62249
61888, 62231, 62232, 62251, 62250
61889, 62232, 62233, 62252, 62251
61890, 62233, 62234, 62253, 62252
61891, 62234, 62235, 62254, 62253
61892, 62235, 62236, 62255, 62254
61893, 62236, 62237, 62256, 62255
61894, 62237, 62238, 62257, 62256
61895, 62238, 62239, 62258, 62257
61896, 62239, 62240, 62259, 62258
61897, 62240, 62241, 62260, 62259
61898, 62241, 62242, 62261, 62260
61899, 62242, 62243, 62262, 62261
61900, 62243, 60121, 60122, 62262
61901, 60150, 62244, 62263, 60149
61902, 62244, 62245, 62264, 62263
61903, 62245, 62246, 62265, 62264
61904, 62246, 62247, 62266, 62265
61905, 62247, 62248, 62267, 62266
61906, 62248, 62249, 62268, 62267
61907, 62249, 62250, 62269, 62268
61908, 62250, 62251, 62270, 62269
61909, 62251, 62252, 62271, 62270
61910, 62252, 62253, 62272, 62271
61911, 62253, 62254, 62273, 62272
61912, 62254, 62255, 62274, 62273
61913, 62255, 62256, 62275, 62274
61914, 62256, 62257, 62276, 62275
61915, 62257, 62258, 62277, 62276
61916, 62258, 62259, 62278, 62277
61917, 62259, 62260, 62279, 62278
61918, 62260, 62261, 62280, 62279
61919, 62261, 62262, 62281, 62280
61920, 62262, 60122, 60123, 62281
61921, 60149, 62263, 62282, 60148
61922, 62263, 62264, 62283, 62282
61923, 62264, 62265, 62284, 62283
61924, 62265, 62266, 62285, 62284
61925, 62266, 62267, 62286, 62285
61926, 62267, 62268, 62287, 62286
61927, 62268, 62269, 62288, 62287
61928, 62269, 62270, 62289, 62288
61929, 62270, 62271, 62290, 62289
61930, 62271, 62272, 62291, 62290
61931, 62272, 62273, 62292, 62291
61932, 62273, 62274, 62293, 62292
61933, 62274, 62275, 62294, 62293
61934, 62275, 62276, 62295, 62294
61935, 62276, 62277, 62296, 62295
61936, 62277, 62278, 62297, 62296
61937, 62278, 62279, 62298, 62297
61938, 62279, 62280, 62299, 62298
61939, 62280, 62281, 62300, 62299
61940, 62281, 60123, 60124, 62300
61941, 60148, 62282, 62301, 60147
61942, 62282, 62283, 62302, 62301
61943, 62283, 62284, 62303, 62302
61944, 62284, 62285, 62304, 62303
61945, 62285, 62286, 62305, 62304
61946, 62286, 62287, 62306, 62305
61947, 62287, 62288, 62307, 62306
61948, 62288, 62289, 62308, 62307
61949, 62289, 62290, 62309, 62308
61950, 62290, 62291, 62310, 62309
61951, 62291, 62292, 62311, 62310
61952, 62292, 62293, 62312, 62311
61953, 62293, 62294, 62313, 62312
61954, 62294, 62295, 62314, 62313
61955, 62295, 62296, 62315, 62314
61956, 62296, 62297, 62316, 62315
61957, 62297, 62298, 62317, 62316
61958, 62298, 62299, 62318, 62317
61959, 62299, 62300, 62319, 62318
61960, 62300, 60124, 60125, 62319
61961, 60147, 62301, 62320, 60146
61962, 62301, 62302, 62321, 62320
61963, 62302, 62303, 62322, 62321
61964, 62303, 62304, 62323, 62322
61965, 62304, 62305, 62324, 62323
61966, 62305, 62306, 62325, 62324
61967, 62306, 62307, 62326, 62325
61968, 62307, 62308, 62327, 62326
61969, 62308, 62309, 62328, 62327
61970, 62309, 62310, 62329, 62328
61971, 62310, 62311, 62330, 62329
61972, 62311, 62312, 62331, 62330
61973, 62312, 62313, 62332, 62331
61974, 62313, 62314, 62333, 62332
61975, 62314, 62315, 62334, 62333
61976, 62315, 62316, 62335, 62334
61977, 62316, 62317, 62336, 62335
61978, 62317, 62318, 62337, 62336
61979, 62318, 62319, 62338, 62337
61980, 62319, 60125, 60126, 62338
61981, 60146, 62320, 60145, 60004
61982, 62320, 62321, 60144, 60145
61983, 62321, 62322, 60143, 60144
61984, 62322, 62323, 60142, 60143
61985, 62323, 62324, 60141, 60142
61986, 62324, 62325, 60140, 60141
61987, 62325, 62326, 60139, 60140
61988, 62326, 62327, 60138, 60139
61989, 62327, 62328, 60137, 60138
61990, 62328, 62329, 60136, 60137
61991, 62329, 62330, 60135, 60136
61992, 62330, 62331, 60134, 60135
61993, 62331, 62332, 60133, 60134
61994, 62332, 62333, 60132, 60133
61995, 62333, 62334, 60131, 60132
61996, 62334, 62335, 60130, 60131
61997, 62335, 62336, 60129, 60130
61998, 62336, 62337, 60128, 60129
61999, 62337, 62338, 60127, 60128
62000, 62338, 60126, 60003, 60127
62001, 60004, 60145, 62339, 60301
62002, 60145, 60144, 62340, 62339
62003, 60144, 60143, 62341, 62340
62004, 60143, 60142, 62342, 62341
62005, 60142, 60141, 62343, 62342
62006, 60141, 60140, 62344, 62343
62007, 60140, 60139, 62345, 62344
62008, 60139, 60138, 62346, 62345
62009, 60138, 60137, 62347, 62346
62010, 60137, 60136, 62348, 62347
62011, 60136, 60135, 62349, 62348
62012, 60135, 60134, 62350, 62349
62013, 60134, 60133, 62351, 62350
62014, 60133, 60132, 62352, 62351
62015, 60132, 60131, 62353, 62352
62016, 60131, 60130, 62354, 62353
62017, 60130, 60129, 62355, 62354
62018, 60129, 60128, 62356, 62355
62019, 60128, 60127, 62357, 62356
62020, 60127, 60003, 60245, 62357
62021, 60301, 62339, 62358, 60300
62022, 62339, 62340, 62359, 62358
62023, 62340, 62341, 62360, 62359
62024, 62341, 62342, 62361, 62360
62025, 62342, 62343, 62362, 62361
62026, 62343, 62344, 62363, 62362
62027, 62344, 62345, 62364, 62363
62028, 62345, 62346, 62365, 62364
62029, 62346, 62347, 62366, 62365
62030, 62347, 62348, 62367, 62366
62031, 62348, 62349, 62368, 62367
62032, 62349, 62350, 62369, 62368
62033, 62350, 62351, 62370, 62369
62034, 62351, 62352, 62371, 62370
62035, 62352, 62353, 62372, 62371
62036, 62353, 62354, 62373, 62372
62037, 62354, 62355, 62374, 62373
62038, 62355, 62356, 62375, 62374
62039, 62356, 62357, 62376, 62375
62040, 62357, 60245, 60246, 62376
62041, 60300, 62358, 62377, 60299
62042, 62358, 62359, 62378, 62377
62043, 62359, 62360, 62379, 62378
62044, 62360, 62361, 62380, 62379
62045, 62361, 62362, 62381, 62380
62046, 62362, 62363, 62382, 62381
62047, 62363, 62364, 62383, 62382
62048, 62364, 62365, 62384, 62383
62049, 62365, 62366, 62385, 62384
62050, 62366, 62367, 62386, 62385
62051, 62367, 62368, 62387, 62386
62052, 62368, 62369, 62388, 62387
62053, 62369, 62370, 62389, 62388
62054, 62370, 62371, 62390, 62389
62055, 62371, 62372, 62391, 62390
62056, 62372, 62373, 62392, 62391
62057, 62373, 62374, 62393, 62392
62058, 62374, 62375, 62394, 62393
62059, 62375, 62376, 62395, 62394
62060, 62376, 60246, 60247, 62395
62061, 60299, 62377, 62396, 60298
62062, 62377, 62378, 62397, 62396
62063, 62378, 62379, 62398, 62397
62064, 62379, 62380, 62399, 62398
62065, 62380, 62381, 62400, 62399
62066, 62381, 62382, 62401, 62400
62067, 62382, 62383, 62402, 62401
62068, 62383, 62384, 62403, 62402
62069, 62384, 62385, 62404, 62403
62070, 62385, 62386, 62405, 62404
62071, 62386, 62387, 62406, 62405
62072, 62387, 62388, 62407, 62406
62073, 62388, 62389, 62408, 62407
62074, 62389, 62390, 62409, 62408
62075, 62390, 62391, 62410, 62409
62076, 62391, 62392, 62411, 62410
62077, 62392, 62393, 62412, 62411
62078, 62393, 62394, 62413, 62412
62079, 62394, 62395, 62414, 62413
62080, 62395, 60247, 60248, 62414
62081, 60298, 62396, 62415, 60297
62082, 62396, 62397, 62416, 62415
62083, 62397, 62398, 62417, 62416
62084, 62398, 62399, 62418, 62417
62085, 62399, 62400, 62419, 62418
62086, 62400, 62401, 62420, 62419
62087, 62401, 62402, 62421, 62420
62088, 62402, 62403, 62422, 62421
62089, 62403, 62404, 62423, 62422
62090, 62404, 62405, 62424, 62423
62091, 62405, 62406, 62425, 62424
62092, 62406, 62407, 62426, 62425
62093, 62407, 62408, 62427, 62426
62094, 62408, 62409, 62428, 62427
62095, 62409, 62410, 62429, 62428
62096, 62410, 62411, 62430, 62429
62097, 62411, 62412, 62431, 62430
62098, 62412, 62413, 62432, 62431
62099, 62413, 62414, 62433, 62432
62100, 62414, 60248, 60249, 62433
62101, 60297, 62415, 62434, 60296
62102, 62415, 62416, 62435, 62434
62103, 62416, 62417, 62436, 62435
62104, 62417, 62418, 62437, 62436
62105, 62418, 62419, 62438, 62437
62106, 62419, 62420, 62439, 62438
62107, 62420, 62421, 62440, 62439
62108, 62421, 62422, 62441, 62440
62109, 62422, 62423, 62442, 62441
62110, 62423, 62424, 62443, 62442
62111, 62424, 62425, 62444, 62443
62112, 62425, 62426, 62445, 62444
62113, 62426, 62427, 62446, 62445
62114, 62427, 62428, 62447, 62446
62115, 62428, 62429, 62448, 62447
62116, 62429, 62430, 62449, 62448
62117, 62430, 62431, 62450, 62449
62118, 62431, 62432, 62451, 62450
62119, 62432, 62433, 62452, 62451
62120, 62433, 60249, 60250, 62452
62121, 60296, 62434, 62453, 60295
62122, 62434, 62435, 62454, 62453
62123, 62435, 62436, 62455, 62454
62124, 62436, 62437, 62456, 62455
62125, 62437, 62438, 62457, 62456
62126, 62438, 62439, 62458, 62457
62127, 62439, 62440, 62459, 62458
62128, 62440, 62441, 62460, 62459
62129, 62441, 62442, 62461, 62460
62130, 62442, 62443, 62462, 62461
62131, 62443, 62444, 62463, 62462
62132, 62444, 62445, 62464, 62463
62133, 62445, 62446, 62465, 62464
62134, 62446, 62447, 62466, 62465
62135, 62447, 62448, 62467, 62466
62136, 62448, 62449, 62468, 62467
62137, 62449, 62450, 62469, 62468
62138, 62450, 62451, 62470, 62469
62139, 62451, 62452, 62471, 62470
62140, 62452, 60250, 60251, 62471
62141, 60295, 62453, 62472, 60294
62142, 62453, 62454, 62473, 62472
62143, 62454, 62455, 62474, 62473
62144, 62455, 62456, 62475, 62474
62145, 62456, 62457, 62476, 62475
62146, 62457, 62458, 62477, 62476
62147, 62458, 62459, 62478, 62477
62148, 62459, 62460, 62479, 62478
62149, 62460, 62461, 62480, 62479
62150, 62461, 62462, 62481, 62480
62151, 62462, 62463, 62482, 62481
62152, 62463, 62464, 62483, 62482
62153, 62464, 62465, 62484, 62483
62154, 62465, 62466, 62485, 62484
62155, 62466, 62467, 62486, 62485
62156, 62467, 62468, 62487, 62486
62157, 62468, 62469, 62488, 62487
62158, 62469, 62470, 62489, 62488
62159, 62470, 62471, 62490, 62489
62160, 62471, 60251, 60252, 62490
62161, 60294, 62472, 62491, 60293
62162, 62472, 62473, 62492, 62491
62163, 62473, 62474, 62493, 62492
62164, 62474, 62475, 62494, 62493
62165, 62475, 62476, 62495, 62494
62166, 62476, 62477, 62496, 62495
62167, 62477, 62478, 62497, 62496
62168, 62478, 62479, 62498, 62497
62169, 62479, 62480, 62499, 62498
62170, 62480, 62481, 62500, 62499
62171, 62481, 62482, 62501, 62500
62172, 62482, 62483, 62502, 62501
62173, 62483, 62484, 62503, 62502
62174, 62484, 62485, 62504, 62503
62175, 62485, 62486, 62505, 62504
62176, 62486, 62487, 62506, 62505
62177, 62487, 62488, 62507, 62506
62178, 62488, 62489, 62508, 62507
62179, 62489, 62490, 62509, 62508
62180, 62490, 60252, 60253, 62509
62181, 60293, 62491, 62510, 60292
62182, 62491, 62492, 62511, 62510
62183, 62492, 62493, 62512, 62511
62184, 62493, 62494, 62513, 62512
62185, 62494, 62495, 62514, 62513
62186, 62495, 62496, 62515, 62514
62187, 62496, 62497, 62516, 62515
62188, 62497, 62498, 62517, 62516
62189, 62498, 62499, 62518, 62517
62190, 62499, 62500, 62519, 62518
62191, 62500, 62501, 62520, 62519
62192, 62501, 62502, 62521, 62520
62193, 62502, 62503, 62522, 62521
62194, 62503, 62504, 62523, 62522
62195, 62504, 62505, 62524, 62523
62196, 62505, 62506, 62525, 62524
62197, 62506, 62507, 62526, 62525
62198, 62507, 62508, 62527, 62526
62199, 62508, 62509, 62528, 62527
62200, 62509, 60253, 60254, 62528
62201, 60292, 62510, 62529, 60291
62202, 62510, 62511, 62530, 62529
62203, 62511, 62512, 62531, 62530
62204, 62512, 62513, 62532, 62531
62205, 62513, 62514, 62533, 62532
62206, 62514, 62515, 62534, 62533
62207, 62515, 62516, 62535, 62534
62208, 62516, 62517, 62536, 62535
62209, 62517, 62518, 62537, 62536
62210, 62518, 62519, 62538, 62537
62211, 62519, 62520, 62539, 62538
62212, 62520, 62521, 62540, 62539
62213, 62521, 62522, 62541, 62540
62214, 62522, 62523, 62542, 62541
62215, 62523, 62524, 62543, 62542
62216, 62524, 62525, 62544, 62543
62217, 62525, 62526, 62545, 62544
62218, 62526, 62527, 62546, 62545
62219, 62527, 62528, 62547, 62546
62220, 62528, 60254, 60255, 62547
62221, 60291, 62529, 62548, 60290
62222, 62529, 62530, 62549, 62548
62223, 62530, 62531, 62550, 62549
62224, 62531, 62532, 62551, 62550
62225, 62532, 62533, 62552, 62551
62226, 62533, 62534, 62553, 62552
62227, 62534, 62535, 62554, 62553
62228, 62535, 62536, 62555, 62554
62229, 62536, 62537, 62556, 62555
62230, 62537, 62538, 62557, 62556
62231, 62538, 62539, 62558, 62557
62232, 62539, 62540, 62559, 62558
62233, 62540, 62541, 62560, 62559
62234, 62541, 62542, 62561, 62560
62235, 62542, 62543, 62562, 62561
62236, 62543, 62544, 62563, 62562
62237, 62544, 62545, 62564, 62563
62238, 62545, 62546, 62565, 62564
62239, 62546, 62547, 62566, 62565
62240, 62547, 60255, 60256, 62566
62241, 60290, 62548, 62567, 60289
62242, 62548, 62549, 62568, 62567
62243, 62549, 62550, 62569, 62568
62244, 62550, 62551, 62570, 62569
62245, 62551, 62552, 62571, 62570
62246, 62552, 62553, 62572, 62571
62247, 62553, 62554, 62573, 62572
62248, 62554, 62555, 62574, 62573
62249, 62555, 62556, 62575, 62574
62250, 62556, 62557, 62576, 62575
62251, 62557, 62558, 62577, 62576
62252, 62558, 62559, 62578, 62577
62253, 62559, 62560, 62579, 62578
62254, 62560, 62561, 62580, 62579
62255, 62561, 62562, 62581, 62580
62256, 62562, 62563, 62582, 62581
62257, 62563, 62564, 62583, 62582
62258, 62564, 62565, 62584, 62583
62259, 62565, 62566, 62585, 62584
62260, 62566, 60256, 60257, 62585
62261, 60289, 62567, 62586, 60288
62262, 62567, 62568, 62587, 62586
62263, 62568, 62569, 62588, 62587
62264, 62569, 62570, 62589, 62588
62265, 62570, 62571, 62590, 62589
62266, 62571, 62572, 62591, 62590
62267, 62572, 62573, 62592, 62591
62268, 62573, 62574, 62593, 62592
62269, 62574, 62575, 62594, 62593
62270, 62575, 62576, 62595, 62594
62271, 62576, 62577, 62596, 62595
62272, 62577, 62578, 62597, 62596
62273, 62578, 62579, 62598, 62597
62274, 62579, 62580, 62599, 62598
62275, 62580, 62581, 62600, 62599
62276, 62581, 62582, 62601, 62600
62277, 62582, 62583, 62602, 62601
62278, 62583, 62584, 62603, 62602
62279, 62584, 62585, 62604, 62603
62280, 62585, 60257, 60258, 62604
62281, 60288, 62586, 62605, 60287
62282, 62586, 62587, 62606, 62605
62283, 62587, 62588, 62607, 62606
62284, 62588, 62589, 62608, 62607
62285, 62589, 62590, 62609, 62608
62286, 62590, 62591, 62610, 62609
62287, 62591, 62592, 62611, 62610
62288, 62592, 62593, 62612, 62611
62289, 62593, 62594, 62613, 62612
62290, 62594, 62595, 62614, 62613
62291, 62595, 62596, 62615, 62614
62292, 62596, 62597, 62616, 62615
62293, 62597, 62598, 62617, 62616
62294, 62598, 62599, 62618, 62617
62295, 62599, 62600, 62619, 62618
62296, 62600, 62601, 62620, 62619
62297, 62601, 62602, 62621, 62620
62298, 62602, 62603, 62622, 62621
62299, 62603, 62604, 62623, 62622
62300, 62604, 60258, 60259, 62623
62301, 60287, 62605, 62624, 60286
62302, 62605, 62606, 62625, 62624
62303, 62606, 62607, 62626, 62625
62304, 62607, 62608, 62627, 62626
62305, 62608, 62609, 62628, 62627
62306, 62609, 62610, 62629, 62628
62307, 62610, 62611, 62630, 62629
62308, 62611, 62612, 62631, 62630
62309, 62612, 62613, 62632, 62631
62310, 62613, 62614, 62633, 62632
62311, 62614, 62615, 62634, 62633
62312, 62615, 62616, 62635, 62634
62313, 62616, 62617, 62636, 62635
62314, 62617, 62618, 62637, 62636
62315, 62618, 62619, 62638, 62637
62316, 62619, 62620, 62639, 62638
62317, 62620, 62621, 62640, 62639
62318, 62621, 62622, 62641, 62640
62319, 62622, 62623, 62642, 62641
62320, 62623, 60259, 60260, 62642
62321, 60286, 62624, 62643, 60285
62322, 62624, 62625, 62644, 62643
62323, 62625, 62626, 62645, 62644
62324, 62626, 62627, 62646, 62645
62325, 62627, 62628, 62647, 62646
62326, 62628, 62629, 62648, 62647
62327, 62629, 62630, 62649, 62648
62328, 62630, 62631, 62650, 62649
62329, 62631, 62632, 62651, 62650
62330, 62632, 62633, 62652, 62651
62331, 62633, 62634, 62653, 62652
62332, 62634, 62635, 62654, 62653
62333, 62635, 62636, 62655, 62654
62334, 62636, 62637, 62656, 62655
62335, 62637, 62638, 62657, 62656
62336, 62638, 62639, 62658, 62657
62337, 62639, 62640, 62659, 62658
62338, 62640, 62641, 62660, 62659
62339, 62641, 62642, 62661, 62660
62340, 62642, 60260, 60261, 62661
62341, 60285, 62643, 62662, 60284
62342, 62643, 62644, 62663, 62662
62343, 62644, 62645, 62664, 62663
62344, 62645, 62646, 62665, 62664
62345, 62646, 62647, 62666, 62665
62346, 62647, 62648, 62667, 62666
62347, 62648, 62649, 62668, 62667
62348, 62649, 62650, 62669, 62668
62349, 62650, 62651, 62670, 62669
62350, 62651, 62652, 62671, 62670
62351, 62652, 62653, 62672, 62671
62352, 62653, 62654, 62673, 62672
62353, 62654, 62655, 62674, 62673
62354, 62655, 62656, 62675, 62674
62355, 62656, 62657, 62676, 62675
62356, 62657, 62658, 62677, 62676
62357, 62658, 62659, 62678, 62677
62358, 62659, 62660, 62679, 62678
62359, 62660, 62661, 62680, 62679
62360, 62661, 60261, 60262, 62680
62361, 60284, 62662, 62681, 60283
62362, 62662, 62663, 62682, 62681
62363, 62663, 62664, 62683, 62682
62364, 62664, 62665, 62684, 62683
62365, 62665, 62666, 62685, 62684
62366, 62666, 62667, 62686, 62685
62367, 62667, 62668, 62687, 62686
62368, 62668, 62669, 62688, 62687
62369, 62669, 62670, 62689, 62688
62370, 62670, 62671, 62690, 62689
62371, 62671, 62672, 62691, 62690
62372, 62672, 62673, 62692, 62691
62373, 62673, 62674, 62693, 62692
62374, 62674, 62675, 62694, 62693
62375, 62675, 62676, 62695, 62694
62376, 62676, 62677, 62696, 62695
62377, 62677, 62678, 62697, 62696
62378, 62678, 62679, 62698, 62697
62379, 62679, 62680, 62699, 62698
62380, 62680, 60262, 60263, 62699
62381, 60283, 62681, 60282, 60006
62382, 62681, 62682, 60281, 60282
62383, 62682, 62683, 60280, 60281
62384, 62683, 62684, 60279, 60280
62385, 62684, 62685, 60278, 60279
62386, 62685, 62686, 60277, 60278
62387, 62686, 62687, 60276, 60277
62388, 62687, 62688, 60275, 60276
62389, 62688, 62689, 60274, 60275
62390, 62689, 62690, 60273, 60274
62391, 62690, 62691, 60272, 60273
62392, 62691, 62692, 60271, 60272
62393, 62692, 62693, 60270, 60271
62394, 62693, 62694, 60269, 60270
62395, 62694, 62695, 60268, 60269
62396, 62695, 62696, 60267, 60268
62397, 62696, 62697, 60266, 60267
62398, 62697, 62698, 60265, 60266
62399, 62698, 62699, 60264, 60265
62400, 62699, 60263, 60005, 60264
62401, 60007, 60302, 62700, 60358
62402, 60302, 60303, 62701, 62700
62403, 60303, 60304, 62702, 62701
62404, 60304, 60305, 62703, 62702
62405, 60305, 60306, 62704, 62703
62406, 60306, 60307, 62705, 62704
62407, 60307, 60308, 62706, 62705
62408, 60308, 60309, 62707, 62706
62409, 60309, 60310, 62708, 62707
62410, 60310, 60311, 62709, 62708
62411, 60311, 60312, 62710, 62709
62412, 60312, 60313, 62711, 62710
62413, 60313, 60314, 62712, 62711
62414, 60314, 60315, 62713, 62712
62415, 60315, 60316, 62714, 62713
62416, 60316, 60317, 62715, 62714
62417, 60317, 60318, 62716, 62715
62418, 60318, 60319, 62717, 62716
62419, 60319, 60320, 62718, 62717
62420, 60320, 60002, 60027, 62718
62421, 60358, 62700, 62719, 60357
62422, 62700, 62701, 62720, 62719
62423, 62701, 62702, 62721, 62720
62424, 62702, 62703, 62722, 62721
62425, 62703, 62704, 62723, 62722
62426, 62704, 62705, 62724, 62723
62427, 62705, 62706, 62725, 62724
62428, 62706, 62707, 62726, 62725
62429, 62707, 62708, 62727, 62726
62430, 62708, 62709, 62728, 62727
62431, 62709, 62710, 62729, 62728
62432, 62710, 62711, 62730, 62729
62433, 62711, 62712, 62731, 62730
62434, 62712, 62713, 62732, 62731
62435, 62713, 62714, 62733, 62732
62436, 62714, 62715, 62734, 62733
62437, 62715, 62716, 62735, 62734
62438, 62716, 62717, 62736, 62735
62439, 62717, 62718, 62737, 62736
62440, 62718, 60027, 60026, 62737
62441, 60357, 62719, 62738, 60356
62442, 62719, 62720, 62739, 62738
62443, 62720, 62721, 62740, 62739
62444, 62721, 62722, 62741, 62740
62445, 62722, 62723, 62742, 62741
62446, 62723, 62724, 62743, 62742
62447, 62724, 62725, 62744, 62743
62448, 62725, 62726, 62745, 62744
62449, 62726, 62727, 62746, 62745
62450, 62727, 62728, 62747, 62746
62451, 62728, 62729, 62748, 62747
62452, 62729, 62730, 62749, 62748
62453, 62730, 62731, 62750, 62749
62454, 62731, 62732, 62751, 62750
62455, 62732, 62733, 62752, 62751
62456, 62733, 62734, 62753, 62752
62457, 62734, 62735, 62754, 62753
62458, 62735, 62736, 62755, 62754
62459, 62736, 62737, 62756, 62755
62460, 62737, 60026, 60025, 62756
62461, 60356, 62738, 62757, 60355
62462, 62738, 62739, 62758, 62757
62463, 62739, 62740, 62759, 62758
62464, 62740, 62741, 62760, 62759
62465, 62741, 62742, 62761, 62760
62466, 62742, 62743, 62762, 62761
62467, 62743, 62744, 62763, 62762
62468, 62744, 62745, 62764, 62763
62469, 62745, 62746, 62765, 62764
62470, 62746, 62747, 62766, 62765
62471, 62747, 62748, 62767, 62766
62472, 62748, 62749, 62768, 62767
62473, 62749, 62750, 62769, 62768
62474, 62750, 62751, 62770, 62769
62475, 62751, 62752, 62771, 62770
62476, 62752, 62753, 62772, 62771
62477, 62753, 62754, 62773, 62772
62478, 62754, 62755, 62774, 62773
62479, 62755, 62756, 62775, 62774
62480, 62756, 60025, 60024, 62775
62481, 60355, 62757, 62776, 60354
62482, 62757, 62758, 62777, 62776
62483, 62758, 62759, 62778, 62777
62484, 62759, 62760, 62779, 62778
62485, 62760, 62761, 62780, 62779
62486, 62761, 62762, 62781, 62780
62487, 62762, 62763, 62782, 62781
62488, 62763, 62764, 62783, 62782
62489, 62764, 62765, 62784, 62783
62490, 62765, 62766, 62785, 62784
62491, 62766, 62767, 62786, 62785
62492, 62767, 62768, 62787, 62786
62493, 62768, 62769, 62788, 62787
62494, 62769, 62770, 62789, 62788
62495, 62770, 62771, 62790, 62789
62496, 62771, 62772, 62791, 62790
62497, 62772, 62773, 62792, 62791
62498, 62773, 62774, 62793, 62792
62499, 62774, 62775, 62794, 62793
62500, 62775, 60024, 60023, 62794
62501, 60354, 62776, 62795, 60353
62502, 62776, 62777, 62796, 62795
62503, 62777, 62778, 62797, 62796
62504, 62778, 62779, 62798, 62797
62505, 62779, 62780, 62799, 62798
62506, 62780, 62781, 62800, 62799
62507, 62781, 62782, 62801, 62800
62508, 62782, 62783, 62802, 62801
62509, 62783, 62784, 62803, 62802
62510, 62784, 62785, 62804, 62803
62511, 62785, 62786, 62805, 62804
62512, 62786, 62787, 62806, 62805
62513, 62787, 62788, 62807, 62806
62514, 62788, 62789, 62808, 62807
62515, 62789, 62790, 62809, 62808
62516, 62790, 62791, 62810, 62809
62517, 62791, 62792, 62811, 62810
62518, 62792, 62793, 62812, 62811
62519, 62793, 62794, 62813, 62812
62520, 62794, 60023, 60022, 62813
62521, 60353, 62795, 62814, 60352
62522, 62795, 62796, 62815, 62814
62523, 62796, 62797, 62816, 62815
62524, 62797, 62798, 62817, 62816
62525, 62798, 62799, 62818, 62817
62526, 62799, 62800, 62819, 62818
62527, 62800, 62801, 62820, 62819
62528, 62801, 62802, 62821, 62820
62529, 62802, 62803, 62822, 62821
62530, 62803, 62804, 62823, 62822
62531, 62804, 62805, 62824, 62823
62532, 62805, 62806, 62825, 62824
62533, 62806, 62807, 62826, 62825
62534, 62807, 62808, 62827, 62826
62535, 62808, 62809, 62828, 62827
62536, 62809, 62810, 62829, 62828
62537, 62810, 62811, 62830, 62829
62538, 62811, 62812, 62831, 62830
62539, 62812, 62813, 62832, 62831
62540, 62813, 60022, 60021, 62832
62541, 60352, 62814, 62833, 60351
62542, 62814, 62815, 62834, 62833
62543, 62815, 62816, 62835, 62834
62544, 62816, 62817, 62836, 62835
62545, 62817, 62818, 62837, 62836
62546, 62818, 62819, 62838, 62837
62547, 62819, 62820, 62839, 62838
62548, 62820, 62821, 62840, 62839
62549, 62821, 62822, 62841, 62840
62550, 62822, 62823, 62842, 62841
62551, 62823, 62824, 62843, 62842
62552, 62824, 62825, 62844, 62843
62553, 62825, 62826, 62845, 62844
62554, 62826, 62827, 62846, 62845
62555, 62827, 62828, 62847, 62846
62556, 62828, 62829, 62848, 62847
62557, 62829, 62830, 62849, 62848
62558, 62830, 62831, 62850, 62849
62559, 62831, 62832, 62851, 62850
62560, 62832, 60021, 60020, 62851
62561, 60351, 62833, 62852, 60350
62562, 62833, 62834, 62853, 62852
62563, 62834, 62835, 62854, 62853
62564, 62835, 62836, 62855, 62854
62565, 62836, 62837, 62856, 62855
62566, 62837, 62838, 62857, 62856
62567, 62838, 62839, 62858, 62857
62568, 62839, 62840, 62859, 62858
62569, 62840, 62841, 62860, 62859
62570, 62841, 62842, 62861, 62860
62571, 62842, 62843, 62862, 62861
62572, 62843, 62844, 62863, 62862
62573, 62844, 62845, 62864, 62863
62574, 62845, 62846, 62865, 62864
62575, 62846, 62847, 62866, 62865
62576, 62847, 62848, 62867, 62866
62577, 62848, 62849, 62868, 62867
62578, 62849, 62850, 62869, 62868
62579, 62850, 62851, 62870, 62869
62580, 62851, 60020, 60019, 62870
62581, 60350, 62852, 62871, 60349
62582, 62852, 62853, 62872, 62871
62583, 62853, 62854, 62873, 62872
62584, 62854, 62855, 62874, 62873
62585, 62855, 62856, 62875, 62874
62586, 62856, 62857, 62876, 62875
62587, 62857, 62858, 62877, 62876
62588, 62858, 62859, 62878, 62877
62589, 62859, 62860, 62879, 62878
62590, 62860, 62861, 62880, 62879
62591, 62861, 62862, 62881, 62880
62592, 62862, 62863, 62882, 62881
62593, 62863, 62864, 62883, 62882
62594, 62864, 62865, 62884, 62883
62595, 62865, 62866, 62885, 62884
62596, 62866, 62867, 62886, 62885
62597, 62867, 62868, 62887, 62886
62598, 62868, 62869, 62888, 62887
62599, 62869, 62870, 62889, 62888
62600, 62870, 60019, 60018, 62889
62601, 60349, 62871, 62890, 60348
62602, 62871, 62872, 62891, 62890
62603, 62872, 62873, 62892, 62891
62604, 62873, 62874, 62893, 62892
62605, 62874, 62875, 62894, 62893
62606, 62875, 62876, 62895, 62894
62607, 62876, 62877, 62896, 62895
62608, 62877, 62878, 62897, 62896
62609, 62878, 62879, 62898, 62897
62610, 62879, 62880, 62899, 62898
62611, 62880, 62881, 62900, 62899
62612, 62881, 62882, 62901, 62900
62613, 62882, 62883, 62902, 62901
62614, 62883, 62884, 62903, 62902
62615, 62884, 62885, 62904, 62903
62616, 62885, 62886, 62905, 62904
62617, 62886, 62887, 62906, 62905
62618, 62887, 62888, 62907, 62906
62619, 62888, 62889, 62908, 62907
62620, 62889, 60018, 60017, 62908
62621, 60348, 62890, 62909, 60347
62622, 62890, 62891, 62910, 62909
62623, 62891, 62892, 62911, 62910
62624, 62892, 62893, 62912, 62911
62625, 62893, 62894, 62913, 62912
62626, 62894, 62895, 62914, 62913
62627, 62895, 62896, 62915, 62914
62628, 62896, 62897, 62916, 62915
62629, 62897, 62898, 62917, 62916
62630, 62898, 62899, 62918, 62917
62631, 62899, 62900, 62919, 62918
62632, 62900, 62901, 62920, 62919
62633, 62901, 62902, 62921, 62920
62634, 62902, 62903, 62922, 62921
62635, 62903, 62904, 62923, 62922
62636, 62904, 62905, 62924, 62923
62637, 62905, 62906, 62925, 62924
62638, 62906, 62907, 62926, 62925
62639, 62907, 62908, 62927, 62926
62640, 62908, 60017, 60016, 62927
62641, 60347, 62909, 62928, 60346
62642, 62909, 62910, 62929, 62928
62643, 62910, 62911, 62930, 62929
62644, 62911, 62912, 62931, 62930
62645, 62912, 62913, 62932, 62931
62646, 62913, 62914, 62933, 62932
62647, 62914, 62915, 62934, 62933
62648, 62915, 62916, 62935, 62934
62649, 62916, 62917, 62936, 62935
62650, 62917, 62918, 62937, 62936
62651, 62918, 62919, 62938, 62937
62652, 62919, 62920, 62939, 62938
62653, 62920, 62921, 62940, 62939
62654, 62921, 62922, 62941, 62940
62655, 62922, 62923, 62942, 62941
62656, 62923, 62924, 62943, 62942
62657, 62924, 62925, 62944, 62943
62658, 62925, 62926, 62945, 62944
62659, 62926, 62927, 62946, 62945
62660, 62927, 60016, 60015, 62946
62661, 60346, 62928, 62947, 60345
62662, 62928, 62929, 62948, 62947
62663, 62929, 62930, 62949, 62948
62664, 62930, 62931, 62950, 62949
62665, 62931, 62932, 62951, 62950
62666, 62932, 62933, 62952, 62951
62667, 62933, 62934, 62953, 62952
62668, 62934, 62935, 62954, 62953
62669, 62935, 62936, 62955, 62954
62670, 62936, 62937, 62956, 62955
62671, 62937, 62938, 62957, 62956
62672, 62938, 62939, 62958, 62957
62673, 62939, 62940, 62959, 62958
62674, 62940, 62941, 62960, 62959
62675, 62941, 62942, 62961, 62960
62676, 62942, 62943, 62962, 62961
62677, 62943, 62944, 62963, 62962
62678, 62944, 62945, 62964, 62963
62679, 62945, 62946, 62965, 62964
62680, 62946, 60015, 60014, 62965
62681, 60345, 62947, 62966, 60344
62682, 62947, 62948, 62967, 62966
62683, 62948, 62949, 62968, 62967
62684, 62949, 62950, 62969, 62968
62685, 62950, 62951, 62970, 62969
62686, 62951, 62952, 62971, 62970
62687, 62952, 62953, 62972, 62971
62688, 62953, 62954, 62973, 62972
62689, 62954, 62955, 62974, 62973
62690, 62955, 62956, 62975, 62974
62691, 62956, 62957, 62976, 62975
62692, 62957, 62958, 62977, 62976
62693, 62958, 62959, 62978, 62977
62694, 62959, 62960, 62979, 62978
62695, 62960, 62961, 62980, 62979
62696, 62961, 62962, 62981, 62980
62697, 62962, 62963, 62982, 62981
62698, 62963, 62964, 62983, 62982
62699, 62964, 62965, 62984, 62983
62700, 62965, 60014, 60013, 62984
62701, 60344, 62966, 62985, 60343
62702, 62966, 62967, 62986, 62985
62703, 62967, 62968, 62987, 62986
62704, 62968, 62969, 62988, 62987
62705, 62969, 62970, 62989, 62988
62706, 62970, 62971, 62990, 62989
62707, 62971, 62972, 62991, 62990
62708, 62972, 62973, 62992, 62991
62709, 62973, 62974, 62993, 62992
62710, 62974, 62975, 62994, 62993
62711, 62975, 62976, 62995, 62994
62712, 62976, 62977, 62996, 62995
62713, 62977, 62978, 62997, 62996
62714, 62978, 62979, 62998, 62997
62715, 62979, 62980, 62999, 62998
62716, 62980, 62981, 63000, 62999
62717, 62981, 62982, 63001, 63000
62718, 62982, 62983, 63002, 63001
62719, 62983, 62984, 63003, 63002
62720, 62984, 60013, 60012, 63003
62721, 60343, 62985, 63004, 60342
62722, 62985, 62986, 63005, 63004
62723, 62986, 62987, 63006, 63005
62724, 62987, 62988, 63007, 63006
62725, 62988, 62989, 63008, 63007
62726, 62989, 62990, 63009, 63008
62727, 62990, 62991, 63010, 63009
62728, 62991, 62992, 63011, 63010
62729, 62992, 62993, 63012, 63011
62730, 62993, 62994, 63013, 63012
62731, 62994, 62995, 63014, 63013
62732, 62995, 62996, 63015, 63014
62733, 62996, 62997, 63016, 63015
62734, 62997, 62998, 63017, 63016
62735, 62998, 62999, 63018, 63017
62736, 62999, 63000, 63019, 63018
62737, 63000, 63001, 63020, 63019
62738, 63001, 63002, 63021, 63020
62739, 63002, 63003, 63022, 63021
62740, 63003, 60012, 60011, 63022
62741, 60342, 63004, 63023, 60341
62742, 63004, 63005, 63024, 63023
62743, 63005, 63006, 63025, 63024
62744, 63006, 63007, 63026, 63025
62745, 63007, 63008, 63027, 63026
62746, 63008, 63009, 63028, 63027
62747, 63009, 63010, 63029, 63028
62748, 63010, 63011, 63030, 63029
62749, 63011, 63012, 63031, 63030
62750, 63012, 63013, 63032, 63031
62751, 63013, 63014, 63033, 63032
62752, 63014, 63015, 63034, 63033
62753, 63015, 63016, 63035, 63034
62754, 63016, 63017, 63036, 63035
62755, 63017, 63018, 63037, 63036
62756, 63018, 63019, 63038, 63037
62757, 63019, 63020, 63039, 63038
62758, 63020, 63021, 63040, 63039
62759, 63021, 63022, 63041, 63040
62760, 63022, 60011, 60010, 63041
62761, 60341, 63023, 63042, 60340
62762, 63023, 63024, 63043, 63042
62763, 63024, 63025, 63044, 63043
62764, 63025, 63026, 63045, 63044
62765, 63026, 63027, 63046, 63045
62766, 63027, 63028, 63047, 63046
62767, 63028, 63029, 63048, 63047
62768, 63029, 63030, 63049, 63048
62769, 63030, 63031, 63050, 63049
62770, 63031, 63032, 63051, 63050
62771, 63032, 63033, 63052, 63051
62772, 63033, 63034, 63053, 63052
62773, 63034, 63035, 63054, 63053
62774, 63035, 63036, 63055, 63054
62775, 63036, 63037, 63056, 63055
62776, 63037, 63038, 63057, 63056
62777, 63038, 63039, 63058, 63057
62778, 63039, 63040, 63059, 63058
62779, 63040, 63041, 63060, 63059
62780, 63041, 60010, 60009, 63060
62781, 60340, 63042, 60339, 60008
62782, 63042, 63043, 60338, 60339
62783, 63043, 63044, 60337, 60338
62784, 63044, 63045, 60336, 60337
62785, 63045, 63046, 60335, 60336
62786, 63046, 63047, 60334, 60335
62787, 63047, 63048, 60333, 60334
62788, 63048, 63049, 60332, 60333
62789, 63049, 63050, 60331, 60332
62790, 63050, 63051, 60330, 60331
62791, 63051, 63052, 60329, 60330
62792, 63052, 63053, 60328, 60329
62793, 63053, 63054, 60327, 60328
62794, 63054, 63055, 60326, 60327
62795, 63055, 63056, 60325, 60326
62796, 63056, 63057, 60324, 60325
62797, 63057, 63058, 60323, 60324
62798, 63058, 63059, 60322, 60323
62799, 63059, 63060, 60321, 60322
62800, 63060, 60009, 60001, 60321
*ELSET, ELSET=_CYLTOP3
2781, 2782, 2783, 2784, 2785, 2786, 2787, 2788, 2789, 2790, 2791, 2792
2793, 2794, 2795, 2796, 2797, 2798, 2799, 2800
*SURFACE, TYPE=ELEMENT, NAME=CYLTOP3
_CYLTOP3, S3
*ELSET, ELSET=_CYLTOP4
1, 21, 41, 61, 81, 101, 121, 141, 161, 181, 201, 221
241, 261, 281, 301, 321, 341, 361, 381, 401, 421, 441, 461
481, 501, 521, 541, 561, 581, 601, 621, 641, 661, 681, 701
721, 741, 761, 781, 801, 821, 841, 861, 881, 901, 921, 941
961, 981, 1001, 1021, 1041, 1061, 1081, 1101, 1121, 1141, 1161, 1181
1201, 1221, 1241, 1261, 1281, 1301, 1321, 1341, 1361, 1381, 1401, 1421
1441, 1461, 1481, 1501, 1521, 1541, 1561, 1581, 1601, 1621, 1641, 1661
1681, 1701, 1721, 1741, 1761, 1781, 1801, 1821, 1841, 1861, 1881, 1901
1921, 1941, 1961, 1981, 2001, 2021, 2041, 2061, 2081, 2101, 2121, 2141
2161, 2181, 2201, 2221, 2241, 2261, 2281, 2301, 2321, 2341, 2361, 2381
*SURFACE, TYPE=ELEMENT, NAME=CYLTOP4
_CYLTOP4, S4
*SURFACE, NAME=CYLTOP, COMBINE=UNION
CYLTOP3
CYLTOP4
*ELSET, ELSET=_FLATBOT
60001, 60021, 60041, 60061, 60081, 60101, 60121, 60141, 60161, 60181, 60201, 60221
60241, 60261, 60281, 60301, 60321, 60341, 60361, 60381, 60401, 60421, 60441, 60461
60481, 60501, 60521, 60541, 60561, 60581, 60601, 60621, 60641, 60661, 60681, 60701
60721, 60741, 60761, 60781, 60801, 60821, 60841, 60861, 60881, 60901, 60921, 60941
60961, 60981, 61001, 61021, 61041, 61061, 61081, 61101, 61121, 61141, 61161, 61181
61201, 61221, 61241, 61261, 61281, 61301, 61321, 61341, 61361, 61381, 61401, 61421
61441, 61461, 61481, 61501, 61521, 61541, 61561, 61581, 61601, 61621, 61641, 61661
61681, 61701, 61721, 61741, 61761, 61781, 61801, 61821, 61841, 61861, 61881, 61901
61921, 61941, 61961, 61981
*SURFACE, TYPE=ELEMENT, NAME=FLATBOT
_FLATBOT, S4
*COUPLING, CONSTRAINT NAME=CC, REF NODE=QPOINT, SURFACE=CYLTOP
*KINEMATIC
*COUPLING, CONSTRAINT NAME=CF, REF NODE=DISP, SURFACE=FLATBOT
*KINEMATIC
*SOLID SECTION, ELSET=BULK, MATERIAL=STEEL
1.
*MATERIAL, NAME=STEEL
*ELASTIC
200000, 0.3
*USER ELEMENT, NODES=4, TYPE=U1, PROPERTIES=6, COORDINATES=2, VARIABLES=21
1, 2
*USER ELEMENT, NODES=48, TYPE=U2, PROPERTIES=11, COORDINATES=2, VARIABLES=24, UNSYMM
1, 2
*ELEMENT, TYPE=U1, ELSET=UELF
62801, 60002, 60320, 63061, 60028
62802, 60320, 60319, 63062, 63061
62803, 60319, 60318, 63063, 63062
62804, 60318, 60317, 63064, 63063
62805, 60317, 60316, 63065, 63064
62806, 60316, 60315, 63066, 63065
62807, 60315, 60314, 63067, 63066
62808, 60314, 60313, 63068, 63067
62809, 60313, 60312, 63069, 63068
62810, 60312, 60311, 63070, 63069
62811, 60311, 60310, 63071, 63070
62812, 60310, 60309, 63072, 63071
62813, 60309, 60308, 63073, 63072
62814, 60308, 60307, 63074, 63073
62815, 60307, 60306, 63075, 63074
62816, 60306, 60305, 63076, 63075
62817, 60305, 60304, 63077, 63076
62818, 60304, 60303, 63078, 63077
62819, 60303, 60302, 63079, 63078
62820, 60302, 60007, 60359, 63079
62821, 60028, 63061, 63080, 60029
62822, 63061, 63062, 63081, 63080
62823, 63062, 63063, 63082, 63081
62824, 63063, 63064, 63083, 63082
62825, 63064, 63065, 63084, 63083
62826, 63065, 63066, 63085, 63084
62827, 63066, 63067, 63086, 63085
62828, 63067, 63068, 63087, 63086
62829, 63068, 63069, 63088, 63087
62830, 63069, 63070, 63089, 63088
62831, 63070, 63071, 63090, 63089
62832, 63071, 63072, 63091, 63090
62833, 63072, 63073, 63092, 63091
62834, 63073, 63074, 63093, 63092
62835, 63074, 63075, 63094, 63093
62836, 63075, 63076, 63095, 63094
62837, 63076, 63077, 63096, 63095
62838, 63077, 63078, 63097, 63096
62839, 63078, 63079, 63098, 63097
62840, 63079, 60359, 60360, 63098
62841, 60029, 63080, 63099, 60030
62842, 63080, 63081, 63100, 63099
62843, 63081, 63082, 63101, 63100
62844, 63082, 63083, 63102, 63101
62845, 63083, 63084, 63103, 63102
62846, 63084, 63085, 63104, 63103
62847, 63085, 63086, 63105, 63104
62848, 63086, 63087, 63106, 63105
62849, 63087, 63088, 63107, 63106
62850, 63088, 63089, 63108, 63107
62851, 63089, 63090, 63109, 63108
62852, 63090, 63091, 63110, 63109
62853, 63091, 63092, 63111, 63110
62854, 63092, 63093, 63112, 63111
62855, 63093, 63094, 63113, 63112
62856, 63094, 63095, 63114, 63113
62857, 63095, 63096, 63115, 63114
62858, 63096, 63097, 63116, 63115
62859, 63097, 63098, 63117, 63116
62860, 63098, 60360, 60361, 63117
62861, 60030, 63099, 63118, 60031
62862, 63099, 63100, 63119, 63118
62863, 63100, 63101, 63120, 63119
62864, 63101, 63102, 63121, 63120
62865, 63102, 63103, 63122, 63121
62866, 63103, 63104, 63123, 63122
62867, 63104, 63105, 63124, 63123
62868, 63105, 63106, 63125, 63124
62869, 63106, 63107, 63126, 63125
62870, 63107, 63108, 63127, 63126
62871, 63108, 63109, 63128, 63127
62872, 63109, 63110, 63129, 63128
62873, 63110, 63111, 63130, 63129
62874, 63111, 63112, 63131, 63130
62875, 63112, 63113, 63132, 63131
62876, 63113, 63114, 63133, 63132
62877, 63114, 63115, 63134, 63133
62878, 63115, 63116, 63135, 63134
62879, 63116, 63117, 63136, 63135
62880, 63117, 60361, 60362, 63136
62881, 60031, 63118, 63137, 60032
62882, 63118, 63119, 63138, 63137
62883, 63119, 63120, 63139, 63138
62884, 63120, 63121, 63140, 63139
62885, 63121, 63122, 63141, 63140
62886, 63122, 63123, 63142, 63141
62887, 63123, 63124, 63143, 63142
62888, 63124, 63125, 63144, 63143
62889, 63125, 63126, 63145, 63144
62890, 63126, 63127, 63146, 63145
62891, 63127, 63128, 63147, 63146
62892, 63128, 63129, 63148, 63147
62893, 63129, 63130, 63149, 63148
62894, 63130, 63131, 63150, 63149
62895, 63131, 63132, 63151, 63150
62896, 63132, 63133, 63152, 63151
62897, 63133, 63134, 63153, 63152
62898, 63134, 63135, 63154, 63153
62899, 63135, 63136, 63155, 63154
62900, 63136, 60362, 60363, 63155
62901, 60032, 63137, 63156, 60033
62902, 63137, 63138, 63157, 63156
62903, 63138, 63139, 63158, 63157
62904, 63139, 63140, 63159, 63158
62905, 63140, 63141, 63160, 63159
62906, 63141, 63142, 63161, 63160
62907, 63142, 63143, 63162, 63161
62908, 63143, 63144, 63163, 63162
62909, 63144, 63145, 63164, 63163
62910, 63145, 63146, 63165, 63164
62911, 63146, 63147, 63166, 63165
62912, 63147, 63148, 63167, 63166
62913, 63148, 63149, 63168, 63167
62914, 63149, 63150, 63169, 63168
62915, 63150, 63151, 63170, 63169
62916, 63151, 63152, 63171, 63170
62917, 63152, 63153, 63172, 63171
62918, 63153, 63154, 63173, 63172
62919, 63154, 63155, 63174, 63173
62920, 63155, 60363, 60364, 63174
62921, 60033, 63156, 63175, 60034
62922, 63156, 63157, 63176, 63175
62923, 63157, 63158, 63177, 63176
62924, 63158, 63159, 63178, 63177
62925, 63159, 63160, 63179, 63178
62926, 63160, 63161, 63180, 63179
62927, 63161, 63162, 63181, 63180
62928, 63162, 63163, 63182, 63181
62929, 63163, 63164, 63183, 63182
62930, 63164, 63165, 63184, 63183
62931, 63165, 63166, 63185, 63184
62932, 63166, 63167, 63186, 63185
62933, 63167, 63168, 63187, 63186
62934, 63168, 63169, 63188, 63187
62935, 63169, 63170, 63189, 63188
62936, 63170, 63171, 63190, 63189
62937, 63171, 63172, 63191, 63190
62938, 63172, 63173, 63192, 63191
62939, 63173, 63174, 63193, 63192
62940, 63174, 60364, 60365, 63193
62941, 60034, 63175, 63194, 60035
62942, 63175, 63176, 63195, 63194
62943, 63176, 63177, 63196, 63195
62944, 63177, 63178, 63197, 63196
62945, 63178, 63179, 63198, 63197
62946, 63179, 63180, 63199, 63198
62947, 63180, 63181, 63200, 63199
62948, 63181, 63182, 63201, 63200
62949, 63182, 63183, 63202, 63201
62950, 63183, 63184, 63203, 63202
62951, 63184, 63185, 63204, 63203
62952, 63185, 63186, 63205, 63204
62953, 63186, 63187, 63206, 63205
62954, 63187, 63188, 63207, 63206
62955, 63188, 63189, 63208, 63207
62956, 63189, 63190, 63209, 63208
62957, 63190, 63191, 63210, 63209
62958, 63191, 63192, 63211, 63210
62959, 63192, 63193, 63212, 63211
62960, 63193, 60365, 60366, 63212
62961, 60035, 63194, 63213, 60036
62962, 63194, 63195, 63214, 63213
62963, 63195, 63196, 63215, 63214
62964, 63196, 63197, 63216, 63215
62965, 63197, 63198, 63217, 63216
62966, 63198, 63199, 63218, 63217
62967, 63199, 63200, 63219, 63218
62968, 63200, 63201, 63220, 63219
62969, 63201, 63202, 63221, 63220
62970, 63202, 63203, 63222, 63221
62971, 63203, 63204, 63223, 63222
62972, 63204, 63205, 63224, 63223
62973, 63205, 63206, 63225, 63224
62974, 63206, 63207, 63226, 63225
62975, 63207, 63208, 63227, 63226
62976, 63208, 63209, 63228, 63227
62977, 63209, 63210, 63229, 63228
62978, 63210, 63211, 63230, 63229
62979, 63211, 63212, 63231, 63230
62980, 63212, 60366, 60367, 63231
62981, 60036, 63213, 63232, 60037
62982, 63213, 63214, 63233, 63232
62983, 63214, 63215, 63234, 63233
62984, 63215, 63216, 63235, 63234
62985, 63216, 63217, 63236, 63235
62986, 63217, 63218, 63237, 63236
62987, 63218, 63219, 63238, 63237
62988, 63219, 63220, 63239, 63238
62989, 63220, 63221, 63240, 63239
62990, 63221, 63222, 63241, 63240
62991, 63222, 63223, 63242, 63241
62992, 63223, 63224, 63243, 63242
62993, 63224, 63225, 63244, 63243
62994, 63225, 63226, 63245, 63244
62995, 63226, 63227, 63246, 63245
62996, 63227, 63228, 63247, 63246
62997, 63228, 63229, 63248, 63247
62998, 63229, 63230, 63249, 63248
62999, 63230, 63231, 63250, 63249
63000, 63231, 60367, 60368, 63250
63001, 60037, 63232, 63251, 60038
63002, 63232, 63233, 63252, 63251
63003, 63233, 63234, 63253, 63252
63004, 63234, 63235, 63254, 63253
63005, 63235, 63236, 63255, 63254
63006, 63236, 63237, 63256, 63255
63007, 63237, 63238, 63257, 63256
63008, 63238, 63239, 63258, 63257
63009, 63239, 63240, 63259, 63258
63010, 63240, 63241, 63260, 63259
63011, 63241, 63242, 63261, 63260
63012, 63242, 63243, 63262, 63261
63013, 63243, 63244, 63263, 63262
63014, 63244, 63245, 63264, 63263
63015, 63245, 63246, 63265, 63264
63016, 63246, 63247, 63266, 63265
63017, 63247, 63248, 63267, 63266
63018, 63248, 63249, 63268, 63267
63019, 63249, 63250, 63269, 63268
63020, 63250, 60368, 60369, 63269
63021, 60038, 63251, 63270, 60039
63022, 63251, 63252, 63271, 63270
63023, 63252, 63253, 63272, 63271
63024, 63253, 63254, 63273, 63272
63025, 63254, 63255, 63274, 63273
63026, 63255, 63256, 63275, 63274
63027, 63256, 63257, 63276, 63275
63028, 63257, 63258, 63277, 63276
63029, 63258, 63259, 63278, 63277
63030, 63259, 63260, 63279, 63278
63031, 63260, 63261, 63280, 63279
63032, 63261, 63262, 63281, 63280
63033, 63262, 63263, 63282, 63281
63034, 63263, 63264, 63283, 63282
63035, 63264, 63265, 63284, 63283
63036, 63265, 63266, 63285, 63284
63037, 63266, 63267, 63286, 63285
63038, 63267, 63268, 63287, 63286
63039, 63268, 63269, 63288, 63287
63040, 63269, 60369, 60370, 63288
63041, 60039, 63270, 63289, 60040
63042, 63270, 63271, 63290, 63289
63043, 63271, 63272, 63291, 63290
63044, 63272, 63273, 63292, 63291
63045, 63273, 63274, 63293, 63292
63046, 63274, 63275, 63294, 63293
63047, 63275, 63276, 63295, 63294
63048, 63276, 63277, 63296, 63295
63049, 63277, 63278, 63297, 63296
63050, 63278, 63279, 63298, 63297
63051, 63279, 63280, 63299, 63298
63052, 63280, 63281, 63300, 63299
63053, 63281, 63282, 63301, 63300
63054, 63282, 63283, 63302, 63301
63055, 63283, 63284, 63303, 63302
63056, 63284, 63285, 63304, 63303
63057, 63285, 63286, 63305, 63304
63058, 63286, 63287, 63306, 63305
63059, 63287, 63288, 63307, 63306
63060, 63288, 60370, 60371, 63307
63061, 60040, 63289, 63308, 60041
63062, 63289, 63290, 63309, 63308
63063, 63290, 63291, 63310, 63309
63064, 63291, 63292, 63311, 63310
63065, 63292, 63293, 63312, 63311
63066, 63293, 63294, 63313, 63312
63067, 63294, 63295, 63314, 63313
63068, 63295, 63296, 63315, 63314
63069, 63296, 63297, 63316, 63315
63070, 63297, 63298, 63317, 63316
63071, 63298, 63299, 63318, 63317
63072, 63299, 63300, 63319, 63318
63073, 63300, 63301, 63320, 63319
63074, 63301, 63302, 63321, 63320
63075, 63302, 63303, 63322, 63321
63076, 63303, 63304, 63323, 63322
63077, 63304, 63305, 63324, 63323
63078, 63305, 63306, 63325, 63324
63079, 63306, 63307, 63326, 63325
63080, 63307, 60371, 60372, 63326
63081, 60041, 63308, 63327, 60042
63082, 63308, 63309, 63328, 63327
63083, 63309, 63310, 63329, 63328
63084, 63310, 63311, 63330, 63329
63085, 63311, 63312, 63331, 63330
63086, 63312, 63313, 63332, 63331
63087, 63313, 63314, 63333, 63332
63088, 63314, 63315, 63334, 63333
63089, 63315, 63316, 63335, 63334
63090, 63316, 63317, 63336, 63335
63091, 63317, 63318, 63337, 63336
63092, 63318, 63319, 63338, 63337
63093, 63319, 63320, 63339, 63338
63094, 63320, 63321, 63340, 63339
63095, 63321, 63322, 63341, 63340
63096, 63322, 63323, 63342, 63341
63097, 63323, 63324, 63343, 63342
63098, 63324, 63325, 63344, 63343
63099, 63325, 63326, 63345, 63344
63100, 63326, 60372, 60373, 63345
63101, 60042, 63327, 63346, 60043
63102, 63327, 63328, 63347, 63346
63103, 63328, 63329, 63348, 63347
63104, 63329, 63330, 63349, 63348
63105, 63330, 63331, 63350, 63349
63106, 63331, 63332, 63351, 63350
63107, 63332, 63333, 63352, 63351
63108, 63333, 63334, 63353, 63352
63109, 63334, 63335, 63354, 63353
63110, 63335, 63336, 63355, 63354
63111, 63336, 63337, 63356, 63355
63112, 63337, 63338, 63357, 63356
63113, 63338, 63339, 63358, 63357
63114, 63339, 63340, 63359, 63358
63115, 63340, 63341, 63360, 63359
63116, 63341, 63342, 63361, 63360
63117, 63342, 63343, 63362, 63361
63118, 63343, 63344, 63363, 63362
63119, 63344, 63345, 63364, 63363
63120, 63345, 60373, 60374, 63364
63121, 60043, 63346, 63365, 60044
63122, 63346, 63347, 63366, 63365
63123, 63347, 63348, 63367, 63366
63124, 63348, 63349, 63368, 63367
63125, 63349, 63350, 63369, 63368
63126, 63350, 63351, 63370, 63369
63127, 63351, 63352, 63371, 63370
63128, 63352, 63353, 63372, 63371
63129, 63353, 63354, 63373, 63372
63130, 63354, 63355, 63374, 63373
63131, 63355, 63356, 63375, 63374
63132, 63356, 63357, 63376, 63375
63133, 63357, 63358, 63377, 63376
63134, 63358, 63359, 63378, 63377
63135, 63359, 63360, 63379, 63378
63136, 63360, 63361, 63380, 63379
63137, 63361, 63362, 63381, 63380
63138, 63362, 63363, 63382, 63381
63139, 63363, 63364, 63383, 63382
63140, 63364, 60374, 60375, 63383
63141, 60044, 63365, 63384, 60045
63142, 63365, 63366, 63385, 63384
63143, 63366, 63367, 63386, 63385
63144, 63367, 63368, 63387, 63386
63145, 63368, 63369, 63388, 63387
63146, 63369, 63370, 63389, 63388
63147, 63370, 63371, 63390, 63389
63148, 63371, 63372, 63391, 63390
63149, 63372, 63373, 63392, 63391
63150, 63373, 63374, 63393, 63392
63151, 63374, 63375, 63394, 63393
63152, 63375, 63376, 63395, 63394
63153, 63376, 63377, 63396, 63395
63154, 63377, 63378, 63397, 63396
63155, 63378, 63379, 63398, 63397
63156, 63379, 63380, 63399, 63398
63157, 63380, 63381, 63400, 63399
63158, 63381, 63382, 63401, 63400
63159, 63382, 63383, 63402, 63401
63160, 63383, 60375, 60376, 63402
63161, 60045, 63384, 63403, 60046
63162, 63384, 63385, 63404, 63403
63163, 63385, 63386, 63405, 63404
63164, 63386, 63387, 63406, 63405
63165, 63387, 63388, 63407, 63406
63166, 63388, 63389, 63408, 63407
63167, 63389, 63390, 63409, 63408
63168, 63390, 63391, 63410, 63409
63169, 63391, 63392, 63411, 63410
63170, 63392, 63393, 63412, 63411
63171, 63393, 63394, 63413, 63412
63172, 63394, 63395, 63414, 63413
63173, 63395, 63396, 63415, 63414
63174, 63396, 63397, 63416, 63415
63175, 63397, 63398, 63417, 63416
63176, 63398, 63399, 63418, 63417
63177, 63399, 63400, 63419, 63418
63178, 63400, 63401, 63420, 63419
63179, 63401, 63402, 63421, 63420
63180, 63402, 60376, 60377, 63421
63181, 60046, 63403, 63422, 60047
63182, 63403, 63404, 63423, 63422
63183, 63404, 63405, 63424, 63423
63184, 63405, 63406, 63425, 63424
63185, 63406, 63407, 63426, 63425
63186, 63407, 63408, 63427, 63426
63187, 63408, 63409, 63428, 63427
63188, 63409, 63410, 63429, 63428
63189, 63410, 63411, 63430, 63429
63190, 63411, 63412, 63431, 63430
63191, 63412, 63413, 63432, 63431
63192, 63413, 63414, 63433, 63432
63193, 63414, 63415, 63434, 63433
63194, 63415, 63416, 63435, 63434
63195, 63416, 63417, 63436, 63435
63196, 63417, 63418, 63437, 63436
63197, 63418, 63419, 63438, 63437
63198, 63419, 63420, 63439, 63438
63199, 63420, 63421, 63440, 63439
63200, 63421, 60377, 60378, 63440
63201, 60047, 63422, 63441, 60048
63202, 63422, 63423, 63442, 63441
63203, 63423, 63424, 63443, 63442
63204, 63424, 63425, 63444, 63443
63205, 63425, 63426, 63445, 63444
63206, 63426, 63427, 63446, 63445
63207, 63427, 63428, 63447, 63446
63208, 63428, 63429, 63448, 63447
63209, 63429, 63430, 63449, 63448
63210, 63430, 63431, 63450, 63449
63211, 63431, 63432, 63451, 63450
63212, 63432, 63433, 63452, 63451
63213, 63433, 63434, 63453, 63452
63214, 63434, 63435, 63454, 63453
63215, 63435, 63436, 63455, 63454
63216, 63436, 63437, 63456, 63455
63217, 63437, 63438, 63457, 63456
63218, 63438, 63439, 63458, 63457
63219, 63439, 63440, 63459, 63458
63220, 63440, 60378, 60379, 63459
63221, 60048, 63441, 63460, 60049
63222, 63441, 63442, 63461, 63460
63223, 63442, 63443, 63462, 63461
63224, 63443, 63444, 63463, 63462
63225, 63444, 63445, 63464, 63463
63226, 63445, 63446, 63465, 63464
63227, 63446, 63447, 63466, 63465
63228, 63447, 63448, 63467, 63466
63229, 63448, 63449, 63468, 63467
63230, 63449, 63450, 63469, 63468
63231, 63450, 63451, 63470, 63469
63232, 63451, 63452, 63471, 63470
63233, 63452, 63453, 63472, 63471
63234, 63453, 63454, 63473, 63472
63235, 63454, 63455, 63474, 63473
63236, 63455, 63456, 63475, 63474
63237, 63456, 63457, 63476, 63475
63238, 63457, 63458, 63477, 63476
63239, 63458, 63459, 63478, 63477
63240, 63459, 60379, 60380, 63478
63241, 60049, 63460, 63479, 60050
63242, 63460, 63461, 63480, 63479
63243, 63461, 63462, 63481, 63480
63244, 63462, 63463, 63482, 63481
63245, 63463, 63464, 63483, 63482
63246, 63464, 63465, 63484, 63483
63247, 63465, 63466, 63485, 63484
63248, 63466, 63467, 63486, 63485
63249, 63467, 63468, 63487, 63486
63250, 63468, 63469, 63488, 63487
63251, 63469, 63470, 63489, 63488
63252, 63470, 63471, 63490, 63489
63253, 63471, 63472, 63491, 63490
63254, 63472, 63473, 63492, 63491
63255, 63473, 63474, 63493, 63492
63256, 63474, 63475, 63494, 63493
63257, 63475, 63476, 63495, 63494
63258, 63476, 63477, 63496, 63495
63259, 63477, 63478, 63497, 63496
63260, 63478, 60380, 60381, 63497
63261, 60050, 63479, 63498, 60051
63262, 63479, 63480, 63499, 63498
63263, 63480, 63481, 63500, 63499
63264, 63481, 63482, 63501, 63500
63265, 63482, 63483, 63502, 63501
63266, 63483, 63484, 63503, 63502
63267, 63484, 63485, 63504, 63503
63268, 63485, 63486, 63505, 63504
63269, 63486, 63487, 63506, 63505
63270, 63487, 63488, 63507, 63506
63271, 63488, 63489, 63508, 63507
63272, 63489, 63490, 63509, 63508
63273, 63490, 63491, 63510, 63509
63274, 63491, 63492, 63511, 63510
63275, 63492, 63493, 63512, 63511
63276, 63493, 63494, 63513, 63512
63277, 63494, 63495, 63514, 63513
63278, 63495, 63496, 63515, 63514
63279, 63496, 63497, 63516, 63515
63280, 63497, 60381, 60382, 63516
63281, 60051, 63498, 63517, 60052
63282, 63498, 63499, 63518, 63517
63283, 63499, 63500, 63519, 63518
63284, 63500, 63501, 63520, 63519
63285, 63501, 63502, 63521, 63520
63286, 63502, 63503, 63522, 63521
63287, 63503, 63504, 63523, 63522
63288, 63504, 63505, 63524, 63523
63289, 63505, 63506, 63525, 63524
63290, 63506, 63507, 63526, 63525
63291, 63507, 63508, 63527, 63526
63292, 63508, 63509, 63528, 63527
63293, 63509, 63510, 63529, 63528
63294, 63510, 63511, 63530, 63529
63295, 63511, 63512, 63531, 63530
63296, 63512, 63513, 63532, 63531
63297, 63513, 63514, 63533, 63532
63298, 63514, 63515, 63534, 63533
63299, 63515, 63516, 63535, 63534
63300, 63516, 60382, 60383, 63535
63301, 60052, 63517, 63536, 60053
63302, 63517, 63518, 63537, 63536
63303, 63518, 63519, 63538, 63537
63304, 63519, 63520, 63539, 63538
63305, 63520, 63521, 63540, 63539
63306, 63521, 63522, 63541, 63540
63307, 63522, 63523, 63542, 63541
63308, 63523, 63524, 63543, 63542
63309, 63524, 63525, 63544, 63543
63310, 63525, 63526, 63545, 63544
63311, 63526, 63527, 63546, 63545
63312, 63527, 63528, 63547, 63546
63313, 63528, 63529, 63548, 63547
63314, 63529, 63530, 63549, 63548
63315, 63530, 63531, 63550, 63549
63316, 63531, 63532, 63551, 63550
63317, 63532, 63533, 63552, 63551
63318, 63533, 63534, 63553, 63552
63319, 63534, 63535, 63554, 63553
63320, 63535, 60383, 60384, 63554
63321, 60053, 63536, 63555, 60054
63322, 63536, 63537, 63556, 63555
63323, 63537, 63538, 63557, 63556
63324, 63538, 63539, 63558, 63557
63325, 63539, 63540, 63559, 63558
63326, 63540, 63541, 63560, 63559
63327, 63541, 63542, 63561, 63560
63328, 63542, 63543, 63562, 63561
63329, 63543, 63544, 63563, 63562
63330, 63544, 63545, 63564, 63563
63331, 63545, 63546, 63565, 63564
63332, 63546, 63547, 63566, 63565
63333, 63547, 63548, 63567, 63566
63334, 63548, 63549, 63568, 63567
63335, 63549, 63550, 63569, 63568
63336, 63550, 63551, 63570, 63569
63337, 63551, 63552, 63571, 63570
63338, 63552, 63553, 63572, 63571
63339, 63553, 63554, 63573, 63572
63340, 63554, 60384, 60385, 63573
63341, 60054, 63555, 63574, 60055
63342, 63555, 63556, 63575, 63574
63343, 63556, 63557, 63576, 63575
63344, 63557, 63558, 63577, 63576
63345, 63558, 63559, 63578, 63577
63346, 63559, 63560, 63579, 63578
63347, 63560, 63561, 63580, 63579
63348, 63561, 63562, 63581, 63580
63349, 63562, 63563, 63582, 63581
63350, 63563, 63564, 63583, 63582
63351, 63564, 63565, 63584, 63583
63352, 63565, 63566, 63585, 63584
63353, 63566, 63567, 63586, 63585
63354, 63567, 63568, 63587, 63586
63355, 63568, 63569, 63588, 63587
63356, 63569, 63570, 63589, 63588
63357, 63570, 63571, 63590, 63589
63358, 63571, 63572, 63591, 63590
63359, 63572, 63573, 63592, 63591
63360, 63573, 60385, 60386, 63592
63361, 60055, 63574, 63593, 60056
63362, 63574, 63575, 63594, 63593
63363, 63575, 63576, 63595, 63594
63364, 63576, 63577, 63596, 63595
63365, 63577, 63578, 63597, 63596
63366, 63578, 63579, 63598, 63597
63367, 63579, 63580, 63599, 63598
63368, 63580, 63581, 63600, 63599
63369, 63581, 63582, 63601, 63600
63370, 63582, 63583, 63602, 63601
63371, 63583, 63584, 63603, 63602
63372, 63584, 63585, 63604, 63603
63373, 63585, 63586, 63605, 63604
63374, 63586, 63587, 63606, 63605
63375, 63587, 63588, 63607, 63606
63376, 63588, 63589, 63608, 63607
63377, 63589, 63590, 63609, 63608
63378, 63590, 63591, 63610, 63609
63379, 63591, 63592, 63611, 63610
63380, 63592, 60386, 60387, 63611
63381, 60056, 63593, 63612, 60057
63382, 63593, 63594, 63613, 63612
63383, 63594, 63595, 63614, 63613
63384, 63595, 63596, 63615, 63614
63385, 63596, 63597, 63616, 63615
63386, 63597, 63598, 63617, 63616
63387, 63598, 63599, 63618, 63617
63388, 63599, 63600, 63619, 63618
63389, 63600, 63601, 63620, 63619
63390, 63601, 63602, 63621, 63620
63391, 63602, 63603, 63622, 63621
63392, 63603, 63604, 63623, 63622
63393, 63604, 63605, 63624, 63623
63394, 63605, 63606, 63625, 63624
63395, 63606, 63607, 63626, 63625
63396, 63607, 63608, 63627, 63626
63397, 63608, 63609, 63628, 63627
63398, 63609, 63610, 63629, 63628
63399, 63610, 63611, 63630, 63629
63400, 63611, 60387, 60388, 63630
63401, 60057, 63612, 63631, 60058
63402, 63612, 63613, 63632, 63631
63403, 63613, 63614, 63633, 63632
63404, 63614, 63615, 63634, 63633
63405, 63615, 63616, 63635, 63634
63406, 63616, 63617, 63636, 63635
63407, 63617, 63618, 63637, 63636
63408, 63618, 63619, 63638, 63637
63409, 63619, 63620, 63639, 63638
63410, 63620, 63621, 63640, 63639
63411, 63621, 63622, 63641, 63640
63412, 63622, 63623, 63642, 63641
63413, 63623, 63624, 63643, 63642
63414, 63624, 63625, 63644, 63643
63415, 63625, 63626, 63645, 63644
63416, 63626, 63627, 63646, 63645
63417, 63627, 63628, 63647, 63646
63418, 63628, 63629, 63648, 63647
63419, 63629, 63630, 63649, 63648
63420, 63630, 60388, 60389, 63649
63421, 60058, 63631, 63650, 60059
63422, 63631, 63632, 63651, 63650
63423, 63632, 63633, 63652, 63651
63424, 63633, 63634, 63653, 63652
63425, 63634, 63635, 63654, 63653
63426, 63635, 63636, 63655, 63654
63427, 63636, 63637, 63656, 63655
63428, 63637, 63638, 63657, 63656
63429, 63638, 63639, 63658, 63657
63430, 63639, 63640, 63659, 63658
63431, 63640, 63641, 63660, 63659
63432, 63641, 63642, 63661, 63660
63433, 63642, 63643, 63662, 63661
63434, 63643, 63644, 63663, 63662
63435, 63644, 63645, 63664, 63663
63436, 63645, 63646, 63665, 63664
63437, 63646, 63647, 63666, 63665
63438, 63647, 63648, 63667, 63666
63439, 63648, 63649, 63668, 63667
63440, 63649, 60389, 60390, 63668
63441, 60059, 63650, 63669, 60060
63442, 63650, 63651, 63670, 63669
63443, 63651, 63652, 63671, 63670
63444, 63652, 63653, 63672, 63671
63445, 63653, 63654, 63673, 63672
63446, 63654, 63655, 63674, 63673
63447, 63655, 63656, 63675, 63674
63448, 63656, 63657, 63676, 63675
63449, 63657, 63658, 63677, 63676
63450, 63658, 63659, 63678, 63677
63451, 63659, 63660, 63679, 63678
63452, 63660, 63661, 63680, 63679
63453, 63661, 63662, 63681, 63680
63454, 63662, 63663, 63682, 63681
63455, 63663, 63664, 63683, 63682
63456, 63664, 63665, 63684, 63683
63457, 63665, 63666, 63685, 63684
63458, 63666, 63667, 63686, 63685
63459, 63667, 63668, 63687, 63686
63460, 63668, 60390, 60391, 63687
63461, 60060, 63669, 63688, 60061
63462, 63669, 63670, 63689, 63688
63463, 63670, 63671, 63690, 63689
63464, 63671, 63672, 63691, 63690
63465, 63672, 63673, 63692, 63691
63466, 63673, 63674, 63693, 63692
63467, 63674, 63675, 63694, 63693
63468, 63675, 63676, 63695, 63694
63469, 63676, 63677, 63696, 63695
63470, 63677, 63678, 63697, 63696
63471, 63678, 63679, 63698, 63697
63472, 63679, 63680, 63699, 63698
63473, 63680, 63681, 63700, 63699
63474, 63681, 63682, 63701, 63700
63475, 63682, 63683, 63702, 63701
63476, 63683, 63684, 63703, 63702
63477, 63684, 63685, 63704, 63703
63478, 63685, 63686, 63705, 63704
63479, 63686, 63687, 63706, 63705
63480, 63687, 60391, 60392, 63706
63481, 60061, 63688, 63707, 60062
63482, 63688, 63689, 63708, 63707
63483, 63689, 63690, 63709, 63708
63484, 63690, 63691, 63710, 63709
63485, 63691, 63692, 63711, 63710
63486, 63692, 63693, 63712, 63711
63487, 63693, 63694, 63713, 63712
63488, 63694, 63695, 63714, 63713
63489, 63695, 63696, 63715, 63714
63490, 63696, 63697, 63716, 63715
63491, 63697, 63698, 63717, 63716
63492, 63698, 63699, 63718, 63717
63493, 63699, 63700, 63719, 63718
63494, 63700, 63701, 63720, 63719
63495, 63701, 63702, 63721, 63720
63496, 63702, 63703, 63722, 63721
63497, 63703, 63704, 63723, 63722
63498, 63704, 63705, 63724, 63723
63499, 63705, 63706, 63725, 63724
63500, 63706, 60392, 60393, 63725
63501, 60062, 63707, 63726, 60063
63502, 63707, 63708, 63727, 63726
63503, 63708, 63709, 63728, 63727
63504, 63709, 63710, 63729, 63728
63505, 63710, 63711, 63730, 63729
63506, 63711, 63712, 63731, 63730
63507, 63712, 63713, 63732, 63731
63508, 63713, 63714, 63733, 63732
63509, 63714, 63715, 63734, 63733
63510, 63715, 63716, 63735, 63734
63511, 63716, 63717, 63736, 63735
63512, 63717, 63718, 63737, 63736
63513, 63718, 63719, 63738, 63737
63514, 63719, 63720, 63739, 63738
63515, 63720, 63721, 63740, 63739
63516, 63721, 63722, 63741, 63740
63517, 63722, 63723, 63742, 63741
63518, 63723, 63724, 63743, 63742
63519, 63724, 63725, 63744, 63743
63520, 63725, 60393, 60394, 63744
63521, 60063, 63726, 63745, 60064
63522, 63726, 63727, 63746, 63745
63523, 63727, 63728, 63747, 63746
63524, 63728, 63729, 63748, 63747
63525, 63729, 63730, 63749, 63748
63526, 63730, 63731, 63750, 63749
63527, 63731, 63732, 63751, 63750
63528, 63732, 63733, 63752, 63751
63529, 63733, 63734, 63753, 63752
63530, 63734, 63735, 63754, 63753
63531, 63735, 63736, 63755, 63754
63532, 63736, 63737, 63756, 63755
63533, 63737, 63738, 63757, 63756
63534, 63738, 63739, 63758, 63757
63535, 63739, 63740, 63759, 63758
63536, 63740, 63741, 63760, 63759
63537, 63741, 63742, 63761, 63760
63538, 63742, 63743, 63762, 63761
63539, 63743, 63744, 63763, 63762
63540, 63744, 60394, 60395, 63763
63541, 60064, 63745, 63764, 60065
63542, 63745, 63746, 63765, 63764
63543, 63746, 63747, 63766, 63765
63544, 63747, 63748, 63767, 63766
63545, 63748, 63749, 63768, 63767
63546, 63749, 63750, 63769, 63768
63547, 63750, 63751, 63770, 63769
63548, 63751, 63752, 63771, 63770
63549, 63752, 63753, 63772, 63771
63550, 63753, 63754, 63773, 63772
63551, 63754, 63755, 63774, 63773
63552, 63755, 63756, 63775, 63774
63553, 63756, 63757, 63776, 63775
63554, 63757, 63758, 63777, 63776
63555, 63758, 63759, 63778, 63777
63556, 63759, 63760, 63779, 63778
63557, 63760, 63761, 63780, 63779
63558, 63761, 63762, 63781, 63780
63559, 63762, 63763, 63782, 63781
63560, 63763, 60395, 60396, 63782
63561, 60065, 63764, 63783, 60066
63562, 63764, 63765, 63784, 63783
63563, 63765, 63766, 63785, 63784
63564, 63766, 63767, 63786, 63785
63565, 63767, 63768, 63787, 63786
63566, 63768, 63769, 63788, 63787
63567, 63769, 63770, 63789, 63788
63568, 63770, 63771, 63790, 63789
63569, 63771, 63772, 63791, 63790
63570, 63772, 63773, 63792, 63791
63571, 63773, 63774, 63793, 63792
63572, 63774, 63775, 63794, 63793
63573, 63775, 63776, 63795, 63794
63574, 63776, 63777, 63796, 63795
63575, 63777, 63778, 63797, 63796
63576, 63778, 63779, 63798, 63797
63577, 63779, 63780, 63799, 63798
63578, 63780, 63781, 63800, 63799
63579, 63781, 63782, 63801, 63800
63580, 63782, 60396, 60397, 63801
63581, 60066, 63783, 63802, 60067
63582, 63783, 63784, 63803, 63802
63583, 63784, 63785, 63804, 63803
63584, 63785, 63786, 63805, 63804
63585, 63786, 63787, 63806, 63805
63586, 63787, 63788, 63807, 63806
63587, 63788, 63789, 63808, 63807
63588, 63789, 63790, 63809, 63808
63589, 63790, 63791, 63810, 63809
63590, 63791, 63792, 63811, 63810
63591, 63792, 63793, 63812, 63811
63592, 63793, 63794, 63813, 63812
63593, 63794, 63795, 63814, 63813
63594, 63795, 63796, 63815, 63814
63595, 63796, 63797, 63816, 63815
63596, 63797, 63798, 63817, 63816
63597, 63798, 63799, 63818, 63817
63598, 63799, 63800, 63819, 63818
63599, 63800, 63801, 63820, 63819
63600, 63801, 60397, 60398, 63820
63601, 60067, 63802, 63821, 60068
63602, 63802, 63803, 63822, 63821
63603, 63803, 63804, 63823, 63822
63604, 63804, 63805, 63824, 63823
63605, 63805, 63806, 63825, 63824
63606, 63806, 63807, 63826, 63825
63607, 63807, 63808, 63827, 63826
63608, 63808, 63809, 63828, 63827
63609, 63809, 63810, 63829, 63828
63610, 63810, 63811, 63830, 63829
63611, 63811, 63812, 63831, 63830
63612, 63812, 63813, 63832, 63831
63613, 63813, 63814, 63833, 63832
63614, 63814, 63815, 63834, 63833
63615, 63815, 63816, 63835, 63834
63616, 63816, 63817, 63836, 63835
63617, 63817, 63818, 63837, 63836
63618, 63818, 63819, 63838, 63837
63619, 63819, 63820, 63839, 63838
63620, 63820, 60398, 60399, 63839
63621, 60068, 63821, 63840, 60069
63622, 63821, 63822, 63841, 63840
63623, 63822, 63823, 63842, 63841
63624, 63823, 63824, 63843, 63842
63625, 63824, 63825, 63844, 63843
63626, 63825, 63826, 63845, 63844
63627, 63826, 63827, 63846, 63845
63628, 63827, 63828, 63847, 63846
63629, 63828, 63829, 63848, 63847
63630, 63829, 63830, 63849, 63848
63631, 63830, 63831, 63850, 63849
63632, 63831, 63832, 63851, 63850
63633, 63832, 63833, 63852, 63851
63634, 63833, 63834, 63853, 63852
63635, 63834, 63835, 63854, 63853
63636, 63835, 63836, 63855, 63854
63637, 63836, 63837, 63856, 63855
63638, 63837, 63838, 63857, 63856
63639, 63838, 63839, 63858, 63857
63640, 63839, 60399, 60400, 63858
63641, 60069, 63840, 63859, 60070
63642, 63840, 63841, 63860, 63859
63643, 63841, 63842, 63861, 63860
63644, 63842, 63843, 63862, 63861
63645, 63843, 63844, 63863, 63862
63646, 63844, 63845, 63864, 63863
63647, 63845, 63846, 63865, 63864
63648, 63846, 63847, 63866, 63865
63649, 63847, 63848, 63867, 63866
63650, 63848, 63849, 63868, 63867
63651, 63849, 63850, 63869, 63868
63652, 63850, 63851, 63870, 63869
63653, 63851, 63852, 63871, 63870
63654, 63852, 63853, 63872, 63871
63655, 63853, 63854, 63873, 63872
63656, 63854, 63855, 63874, 63873
63657, 63855, 63856, 63875, 63874
63658, 63856, 63857, 63876, 63875
63659, 63857, 63858, 63877, 63876
63660, 63858, 60400, 60401, 63877
63661, 60070, 63859, 63878, 60071
63662, 63859, 63860, 63879, 63878
63663, 63860, 63861, 63880, 63879
63664, 63861, 63862, 63881, 63880
63665, 63862, 63863, 63882, 63881
63666, 63863, 63864, 63883, 63882
63667, 63864, 63865, 63884, 63883
63668, 63865, 63866, 63885, 63884
63669, 63866, 63867, 63886, 63885
63670, 63867, 63868, 63887, 63886
63671, 63868, 63869, 63888, 63887
63672, 63869, 63870, 63889, 63888
63673, 63870, 63871, 63890, 63889
63674, 63871, 63872, 63891, 63890
63675, 63872, 63873, 63892, 63891
63676, 63873, 63874, 63893, 63892
63677, 63874, 63875, 63894, 63893
63678, 63875, 63876, 63895, 63894
63679, 63876, 63877, 63896, 63895
63680, 63877, 60401, 60402, 63896
63681, 60071, 63878, 63897, 60072
63682, 63878, 63879, 63898, 63897
63683, 63879, 63880, 63899, 63898
63684, 63880, 63881, 63900, 63899
63685, 63881, 63882, 63901, 63900
63686, 63882, 63883, 63902, 63901
63687, 63883, 63884, 63903, 63902
63688, 63884, 63885, 63904, 63903
63689, 63885, 63886, 63905, 63904
63690, 63886, 63887, 63906, 63905
63691, 63887, 63888, 63907, 63906
63692, 63888, 63889, 63908, 63907
63693, 63889, 63890, 63909, 63908
63694, 63890, 63891, 63910, 63909
63695, 63891, 63892, 63911, 63910
63696, 63892, 63893, 63912, 63911
63697, 63893, 63894, 63913, 63912
63698, 63894, 63895, 63914, 63913
63699, 63895, 63896, 63915, 63914
63700, 63896, 60402, 60403, 63915
63701, 60072, 63897, 63916, 60073
63702, 63897, 63898, 63917, 63916
63703, 63898, 63899, 63918, 63917
63704, 63899, 63900, 63919, 63918
63705, 63900, 63901, 63920, 63919
63706, 63901, 63902, 63921, 63920
63707, 63902, 63903, 63922, 63921
63708, 63903, 63904, 63923, 63922
63709, 63904, 63905, 63924, 63923
63710, 63905, 63906, 63925, 63924
63711, 63906, 63907, 63926, 63925
63712, 63907, 63908, 63927, 63926
63713, 63908, 63909, 63928, 63927
63714, 63909, 63910, 63929, 63928
63715, 63910, 63911, 63930, 63929
63716, 63911, 63912, 63931, 63930
63717, 63912, 63913, 63932, 63931
63718, 63913, 63914, 63933, 63932
63719, 63914, 63915, 63934, 63933
63720, 63915, 60403, 60404, 63934
63721, 60073, 63916, 63935, 60074
63722, 63916, 63917, 63936, 63935
63723, 63917, 63918, 63937, 63936
63724, 63918, 63919, 63938, 63937
63725, 63919, 63920, 63939, 63938
63726, 63920, 63921, 63940, 63939
63727, 63921, 63922, 63941, 63940
63728, 63922, 63923, 63942, 63941
63729, 63923, 63924, 63943, 63942
63730, 63924, 63925, 63944, 63943
63731, 63925, 63926, 63945, 63944
63732, 63926, 63927, 63946, 63945
63733, 63927, 63928, 63947, 63946
63734, 63928, 63929, 63948, 63947
63735, 63929, 63930, 63949, 63948
63736, 63930, 63931, 63950, 63949
63737, 63931, 63932, 63951, 63950
63738, 63932, 63933, 63952, 63951
63739, 63933, 63934, 63953, 63952
63740, 63934, 60404, 60405, 63953
63741, 60074, 63935, 63954, 60075
63742, 63935, 63936, 63955, 63954
63743, 63936, 63937, 63956, 63955
63744, 63937, 63938, 63957, 63956
63745, 63938, 63939, 63958, 63957
63746, 63939, 63940, 63959, 63958
63747, 63940, 63941, 63960, 63959
63748, 63941, 63942, 63961, 63960
63749, 63942, 63943, 63962, 63961
63750, 63943, 63944, 63963, 63962
63751, 63944, 63945, 63964, 63963
63752, 63945, 63946, 63965, 63964
63753, 63946, 63947, 63966, 63965
63754, 63947, 63948, 63967, 63966
63755, 63948, 63949, 63968, 63967
63756, 63949, 63950, 63969, 63968
63757, 63950, 63951, 63970, 63969
63758, 63951, 63952, 63971, 63970
63759, 63952, 63953, 63972, 63971
63760, 63953, 60405, 60406, 63972
63761, 60075, 63954, 63973, 60076
63762, 63954, 63955, 63974, 63973
63763, 63955, 63956, 63975, 63974
63764, 63956, 63957, 63976, 63975
63765, 63957, 63958, 63977, 63976
63766, 63958, 63959, 63978, 63977
63767, 63959, 63960, 63979, 63978
63768, 63960, 63961, 63980, 63979
63769, 63961, 63962, 63981, 63980
63770, 63962, 63963, 63982, 63981
63771, 63963, 63964, 63983, 63982
63772, 63964, 63965, 63984, 63983
63773, 63965, 63966, 63985, 63984
63774, 63966, 63967, 63986, 63985
63775, 63967, 63968, 63987, 63986
63776, 63968, 63969, 63988, 63987
63777, 63969, 63970, 63989, 63988
63778, 63970, 63971, 63990, 63989
63779, 63971, 63972, 63991, 63990
63780, 63972, 60406, 60407, 63991
63781, 60076, 63973, 63992, 60077
63782, 63973, 63974, 63993, 63992
63783, 63974, 63975, 63994, 63993
63784, 63975, 63976, 63995, 63994
63785, 63976, 63977, 63996, 63995
63786, 63977, 63978, 63997, 63996
63787, 63978, 63979, 63998, 63997
63788, 63979, 63980, 63999, 63998
63789, 63980, 63981, 64000, 63999
63790, 63981, 63982, 64001, 64000
63791, 63982, 63983, 64002, 64001
63792, 63983, 63984, 64003, 64002
63793, 63984, 63985, 64004, 64003
63794, 63985, 63986, 64005, 64004
63795, 63986, 63987, 64006, 64005
63796, 63987, 63988, 64007, 64006
63797, 63988, 63989, 64008, 64007
63798, 63989, 63990, 64009, 64008
63799, 63990, 63991, 64010, 64009
63800, 63991, 60407, 60408, 64010
63801, 60077, 63992, 64011, 60078
63802, 63992, 63993, 64012, 64011
63803, 63993, 63994, 64013, 64012
63804, 63994, 63995, 64014, 64013
63805, 63995, 63996, 64015, 64014
63806, 63996, 63997, 64016, 64015
63807, 63997, 63998, 64017, 64016
63808, 63998, 63999, 64018, 64017
63809, 63999, 64000, 64019, 64018
63810, 64000, 64001, 64020, 64019
63811, 64001, 64002, 64021, 64020
63812, 64002, 64003, 64022, 64021
63813, 64003, 64004, 64023, 64022
63814, 64004, 64005, 64024, 64023
63815, 64005, 64006, 64025, 64024
63816, 64006, 64007, 64026, 64025
63817, 64007, 64008, 64027, 64026
63818, 64008, 64009, 64028, 64027
63819, 64009, 64010, 64029, 64028
63820, 64010, 60408, 60409, 64029
63821, 60078, 64011, 64030, 60079
63822, 64011, 64012, 64031, 64030
63823, 64012, 64013, 64032, 64031
63824, 64013, 64014, 64033, 64032
63825, 64014, 64015, 64034, 64033
63826, 64015, 64016, 64035, 64034
63827, 64016, 64017, 64036, 64035
63828, 64017, 64018, 64037, 64036
63829, 64018, 64019, 64038, 64037
63830, 64019, 64020, 64039, 64038
63831, 64020, 64021, 64040, 64039
63832, 64021, 64022, 64041, 64040
63833, 64022, 64023, 64042, 64041
63834, 64023, 64024, 64043, 64042
63835, 64024, 64025, 64044, 64043
63836, 64025, 64026, 64045, 64044
63837, 64026, 64027, 64046, 64045
63838, 64027, 64028, 64047, 64046
63839, 64028, 64029, 64048, 64047
63840, 64029, 60409, 60410, 64048
63841, 60079, 64030, 64049, 60080
63842, 64030, 64031, 64050, 64049
63843, 64031, 64032, 64051, 64050
63844, 64032, 64033, 64052, 64051
63845, 64033, 64034, 64053, 64052
63846, 64034, 64035, 64054, 64053
63847, 64035, 64036, 64055, 64054
63848, 64036, 64037, 64056, 64055
63849, 64037, 64038, 64057, 64056
63850, 64038, 64039, 64058, 64057
63851, 64039, 64040, 64059, 64058
63852, 64040, 64041, 64060, 64059
63853, 64041, 64042, 64061, 64060
63854, 64042, 64043, 64062, 64061
63855, 64043, 64044, 64063, 64062
63856, 64044, 64045, 64064, 64063
63857, 64045, 64046, 64065, 64064
63858, 64046, 64047, 64066, 64065
63859, 64047, 64048, 64067, 64066
63860, 64048, 60410, 60411, 64067
63861, 60080, 64049, 64068, 60081
63862, 64049, 64050, 64069, 64068
63863, 64050, 64051, 64070, 64069
63864, 64051, 64052, 64071, 64070
63865, 64052, 64053, 64072, 64071
63866, 64053, 64054, 64073, 64072
63867, 64054, 64055, 64074, 64073
63868, 64055, 64056, 64075, 64074
63869, 64056, 64057, 64076, 64075
63870, 64057, 64058, 64077, 64076
63871, 64058, 64059, 64078, 64077
63872, 64059, 64060, 64079, 64078
63873, 64060, 64061, 64080, 64079
63874, 64061, 64062, 64081, 64080
63875, 64062, 64063, 64082, 64081
63876, 64063, 64064, 64083, 64082
63877, 64064, 64065, 64084, 64083
63878, 64065, 64066, 64085, 64084
63879, 64066, 64067, 64086, 64085
63880, 64067, 60411, 60412, 64086
63881, 60081, 64068, 64087, 60082
63882, 64068, 64069, 64088, 64087
63883, 64069, 64070, 64089, 64088
63884, 64070, 64071, 64090, 64089
63885, 64071, 64072, 64091, 64090
63886, 64072, 64073, 64092, 64091
63887, 64073, 64074, 64093, 64092
63888, 64074, 64075, 64094, 64093
63889, 64075, 64076, 64095, 64094
63890, 64076, 64077, 64096, 64095
63891, 64077, 64078, 64097, 64096
63892, 64078, 64079, 64098, 64097
63893, 64079, 64080, 64099, 64098
63894, 64080, 64081, 64100, 64099
63895, 64081, 64082, 64101, 64100
63896, 64082, 64083, 64102, 64101
63897, 64083, 64084, 64103, 64102
63898, 64084, 64085, 64104, 64103
63899, 64085, 64086, 64105, 64104
63900, 64086, 60412, 60413, 64105
63901, 60082, 64087, 64106, 60083
63902, 64087, 64088, 64107, 64106
63903, 64088, 64089, 64108, 64107
63904, 64089, 64090, 64109, 64108
63905, 64090, 64091, 64110, 64109
63906, 64091, 64092, 64111, 64110
63907, 64092, 64093, 64112, 64111
63908, 64093, 64094, 64113, 64112
63909, 64094, 64095, 64114, 64113
63910, 64095, 64096, 64115, 64114
63911, 64096, 64097, 64116, 64115
63912, 64097, 64098, 64117, 64116
63913, 64098, 64099, 64118, 64117
63914, 64099, 64100, 64119, 64118
63915, 64100, 64101, 64120, 64119
63916, 64101, 64102, 64121, 64120
63917, 64102, 64103, 64122, 64121
63918, 64103, 64104, 64123, 64122
63919, 64104, 64105, 64124, 64123
63920, 64105, 60413, 60414, 64124
63921, 60083, 64106, 64125, 60084
63922, 64106, 64107, 64126, 64125
63923, 64107, 64108, 64127, 64126
63924, 64108, 64109, 64128, 64127
63925, 64109, 64110, 64129, 64128
63926, 64110, 64111, 64130, 64129
63927, 64111, 64112, 64131, 64130
63928, 64112, 64113, 64132, 64131
63929, 64113, 64114, 64133, 64132
63930, 64114, 64115, 64134, 64133
63931, 64115, 64116, 64135, 64134
63932, 64116, 64117, 64136, 64135
63933, 64117, 64118, 64137, 64136
63934, 64118, 64119, 64138, 64137
63935, 64119, 64120, 64139, 64138
63936, 64120, 64121, 64140, 64139
63937, 64121, 64122, 64141, 64140
63938, 64122, 64123, 64142, 64141
63939, 64123, 64124, 64143, 64142
63940, 64124, 60414, 60415, 64143
63941, 60084, 64125, 64144, 60085
63942, 64125, 64126, 64145, 64144
63943, 64126, 64127, 64146, 64145
63944, 64127, 64128, 64147, 64146
63945, 64128, 64129, 64148, 64147
63946, 64129, 64130, 64149, 64148
63947, 64130, 64131, 64150, 64149
63948, 64131, 64132, 64151, 64150
63949, 64132, 64133, 64152, 64151
63950, 64133, 64134, 64153, 64152
63951, 64134, 64135, 64154, 64153
63952, 64135, 64136, 64155, 64154
63953, 64136, 64137, 64156, 64155
63954, 64137, 64138, 64157, 64156
63955, 64138, 64139, 64158, 64157
63956, 64139, 64140, 64159, 64158
63957, 64140, 64141, 64160, 64159
63958, 64141, 64142, 64161, 64160
63959, 64142, 64143, 64162, 64161
63960, 64143, 60415, 60416, 64162
63961, 60085, 64144, 64163, 60086
63962, 64144, 64145, 64164, 64163
63963, 64145, 64146, 64165, 64164
63964, 64146, 64147, 64166, 64165
63965, 64147, 64148, 64167, 64166
63966, 64148, 64149, 64168, 64167
63967, 64149, 64150, 64169, 64168
63968, 64150, 64151, 64170, 64169
63969, 64151, 64152, 64171, 64170
63970, 64152, 64153, 64172, 64171
63971, 64153, 64154, 64173, 64172
63972, 64154, 64155, 64174, 64173
63973, 64155, 64156, 64175, 64174
63974, 64156, 64157, 64176, 64175
63975, 64157, 64158, 64177, 64176
63976, 64158, 64159, 64178, 64177
63977, 64159, 64160, 64179, 64178
63978, 64160, 64161, 64180, 64179
63979, 64161, 64162, 64181, 64180
63980, 64162, 60416, 60417, 64181
63981, 60086, 64163, 64182, 60087
63982, 64163, 64164, 64183, 64182
63983, 64164, 64165, 64184, 64183
63984, 64165, 64166, 64185, 64184
63985, 64166, 64167, 64186, 64185
63986, 64167, 64168, 64187, 64186
63987, 64168, 64169, 64188, 64187
63988, 64169, 64170, 64189, 64188
63989, 64170, 64171, 64190, 64189
63990, 64171, 64172, 64191, 64190
63991, 64172, 64173, 64192, 64191
63992, 64173, 64174, 64193, 64192
63993, 64174, 64175, 64194, 64193
63994, 64175, 64176, 64195, 64194
63995, 64176, 64177, 64196, 64195
63996, 64177, 64178, 64197, 64196
63997, 64178, 64179, 64198, 64197
63998, 64179, 64180, 64199, 64198
63999, 64180, 64181, 64200, 64199
64000, 64181, 60417, 60418, 64200
64001, 60087, 64182, 64201, 60088
64002, 64182, 64183, 64202, 64201
64003, 64183, 64184, 64203, 64202
64004, 64184, 64185, 64204, 64203
64005, 64185, 64186, 64205, 64204
64006, 64186, 64187, 64206, 64205
64007, 64187, 64188, 64207, 64206
64008, 64188, 64189, 64208, 64207
64009, 64189, 64190, 64209, 64208
64010, 64190, 64191, 64210, 64209
64011, 64191, 64192, 64211, 64210
64012, 64192, 64193, 64212, 64211
64013, 64193, 64194, 64213, 64212
64014, 64194, 64195, 64214, 64213
64015, 64195, 64196, 64215, 64214
64016, 64196, 64197, 64216, 64215
64017, 64197, 64198, 64217, 64216
64018, 64198, 64199, 64218, 64217
64019, 64199, 64200, 64219, 64218
64020, 64200, 60418, 60419, 64219
64021, 60088, 64201, 64220, 60089
64022, 64201, 64202, 64221, 64220
64023, 64202, 64203, 64222, 64221
64024, 64203, 64204, 64223, 64222
64025, 64204, 64205, 64224, 64223
64026, 64205, 64206, 64225, 64224
64027, 64206, 64207, 64226, 64225
64028, 64207, 64208, 64227, 64226
64029, 64208, 64209, 64228, 64227
64030, 64209, 64210, 64229, 64228
64031, 64210, 64211, 64230, 64229
64032, 64211, 64212, 64231, 64230
64033, 64212, 64213, 64232, 64231
64034, 64213, 64214, 64233, 64232
64035, 64214, 64215, 64234, 64233
64036, 64215, 64216, 64235, 64234
64037, 64216, 64217, 64236, 64235
64038, 64217, 64218, 64237, 64236
64039, 64218, 64219, 64238, 64237
64040, 64219, 60419, 60420, 64238
64041, 60089, 64220, 64239, 60090
64042, 64220, 64221, 64240, 64239
64043, 64221, 64222, 64241, 64240
64044, 64222, 64223, 64242, 64241
64045, 64223, 64224, 64243, 64242
64046, 64224, 64225, 64244, 64243
64047, 64225, 64226, 64245, 64244
64048, 64226, 64227, 64246, 64245
64049, 64227, 64228, 64247, 64246
64050, 64228, 64229, 64248, 64247
64051, 64229, 64230, 64249, 64248
64052, 64230, 64231, 64250, 64249
64053, 64231, 64232, 64251, 64250
64054, 64232, 64233, 64252, 64251
64055, 64233, 64234, 64253, 64252
64056, 64234, 64235, 64254, 64253
64057, 64235, 64236, 64255, 64254
64058, 64236, 64237, 64256, 64255
64059, 64237, 64238, 64257, 64256
64060, 64238, 60420, 60421, 64257
64061, 60090, 64239, 64258, 60091
64062, 64239, 64240, 64259, 64258
64063, 64240, 64241, 64260, 64259
64064, 64241, 64242, 64261, 64260
64065, 64242, 64243, 64262, 64261
64066, 64243, 64244, 64263, 64262
64067, 64244, 64245, 64264, 64263
64068, 64245, 64246, 64265, 64264
64069, 64246, 64247, 64266, 64265
64070, 64247, 64248, 64267, 64266
64071, 64248, 64249, 64268, 64267
64072, 64249, 64250, 64269, 64268
64073, 64250, 64251, 64270, 64269
64074, 64251, 64252, 64271, 64270
64075, 64252, 64253, 64272, 64271
64076, 64253, 64254, 64273, 64272
64077, 64254, 64255, 64274, 64273
64078, 64255, 64256, 64275, 64274
64079, 64256, 64257, 64276, 64275
64080, 64257, 60421, 60422, 64276
64081, 60091, 64258, 64277, 60092
64082, 64258, 64259, 64278, 64277
64083, 64259, 64260, 64279, 64278
64084, 64260, 64261, 64280, 64279
64085, 64261, 64262, 64281, 64280
64086, 64262, 64263, 64282, 64281
64087, 64263, 64264, 64283, 64282
64088, 64264, 64265, 64284, 64283
64089, 64265, 64266, 64285, 64284
64090, 64266, 64267, 64286, 64285
64091, 64267, 64268, 64287, 64286
64092, 64268, 64269, 64288, 64287
64093, 64269, 64270, 64289, 64288
64094, 64270, 64271, 64290, 64289
64095, 64271, 64272, 64291, 64290
64096, 64272, 64273, 64292, 64291
64097, 64273, 64274, 64293, 64292
64098, 64274, 64275, 64294, 64293
64099, 64275, 64276, 64295, 64294
64100, 64276, 60422, 60423, 64295
64101, 60092, 64277, 64296, 60093
64102, 64277, 64278, 64297, 64296
64103, 64278, 64279, 64298, 64297
64104, 64279, 64280, 64299, 64298
64105, 64280, 64281, 64300, 64299
64106, 64281, 64282, 64301, 64300
64107, 64282, 64283, 64302, 64301
64108, 64283, 64284, 64303, 64302
64109, 64284, 64285, 64304, 64303
64110, 64285, 64286, 64305, 64304
64111, 64286, 64287, 64306, 64305
64112, 64287, 64288, 64307, 64306
64113, 64288, 64289, 64308, 64307
64114, 64289, 64290, 64309, 64308
64115, 64290, 64291, 64310, 64309
64116, 64291, 64292, 64311, 64310
64117, 64292, 64293, 64312, 64311
64118, 64293, 64294, 64313, 64312
64119, 64294, 64295, 64314, 64313
64120, 64295, 60423, 60424, 64314
64121, 60093, 64296, 64315, 60094
64122, 64296, 64297, 64316, 64315
64123, 64297, 64298, 64317, 64316
64124, 64298, 64299, 64318, 64317
64125, 64299, 64300, 64319, 64318
64126, 64300, 64301, 64320, 64319
64127, 64301, 64302, 64321, 64320
64128, 64302, 64303, 64322, 64321
64129, 64303, 64304, 64323, 64322
64130, 64304, 64305, 64324, 64323
64131, 64305, 64306, 64325, 64324
64132, 64306, 64307, 64326, 64325
64133, 64307, 64308, 64327, 64326
64134, 64308, 64309, 64328, 64327
64135, 64309, 64310, 64329, 64328
64136, 64310, 64311, 64330, 64329
64137, 64311, 64312, 64331, 64330
64138, 64312, 64313, 64332, 64331
64139, 64313, 64314, 64333, 64332
64140, 64314, 60424, 60425, 64333
64141, 60094, 64315, 64334, 60095
64142, 64315, 64316, 64335, 64334
64143, 64316, 64317, 64336, 64335
64144, 64317, 64318, 64337, 64336
64145, 64318, 64319, 64338, 64337
64146, 64319, 64320, 64339, 64338
64147, 64320, 64321, 64340, 64339
64148, 64321, 64322, 64341, 64340
64149, 64322, 64323, 64342, 64341
64150, 64323, 64324, 64343, 64342
64151, 64324, 64325, 64344, 64343
64152, 64325, 64326, 64345, 64344
64153, 64326, 64327, 64346, 64345
64154, 64327, 64328, 64347, 64346
64155, 64328, 64329, 64348, 64347
64156, 64329, 64330, 64349, 64348
64157, 64330, 64331, 64350, 64349
64158, 64331, 64332, 64351, 64350
64159, 64332, 64333, 64352, 64351
64160, 64333, 60425, 60426, 64352
64161, 60095, 64334, 64353, 60096
64162, 64334, 64335, 64354, 64353
64163, 64335, 64336, 64355, 64354
64164, 64336, 64337, 64356, 64355
64165, 64337, 64338, 64357, 64356
64166, 64338, 64339, 64358, 64357
64167, 64339, 64340, 64359, 64358
64168, 64340, 64341, 64360, 64359
64169, 64341, 64342, 64361, 64360
64170, 64342, 64343, 64362, 64361
64171, 64343, 64344, 64363, 64362
64172, 64344, 64345, 64364, 64363
64173, 64345, 64346, 64365, 64364
64174, 64346, 64347, 64366, 64365
64175, 64347, 64348, 64367, 64366
64176, 64348, 64349, 64368, 64367
64177, 64349, 64350, 64369, 64368
64178, 64350, 64351, 64370, 64369
64179, 64351, 64352, 64371, 64370
64180, 64352, 60426, 60427, 64371
64181, 60096, 64353, 64372, 60097
64182, 64353, 64354, 64373, 64372
64183, 64354, 64355, 64374, 64373
64184, 64355, 64356, 64375, 64374
64185, 64356, 64357, 64376, 64375
64186, 64357, 64358, 64377, 64376
64187, 64358, 64359, 64378, 64377
64188, 64359, 64360, 64379, 64378
64189, 64360, 64361, 64380, 64379
64190, 64361, 64362, 64381, 64380
64191, 64362, 64363, 64382, 64381
64192, 64363, 64364, 64383, 64382
64193, 64364, 64365, 64384, 64383
64194, 64365, 64366, 64385, 64384
64195, 64366, 64367, 64386, 64385
64196, 64367, 64368, 64387, 64386
64197, 64368, 64369, 64388, 64387
64198, 64369, 64370, 64389, 64388
64199, 64370, 64371, 64390, 64389
64200, 64371, 60427, 60428, 64390
64201, 60097, 64372, 64391, 60098
64202, 64372, 64373, 64392, 64391
64203, 64373, 64374, 64393, 64392
64204, 64374, 64375, 64394, 64393
64205, 64375, 64376, 64395, 64394
64206, 64376, 64377, 64396, 64395
64207, 64377, 64378, 64397, 64396
64208, 64378, 64379, 64398, 64397
64209, 64379, 64380, 64399, 64398
64210, 64380, 64381, 64400, 64399
64211, 64381, 64382, 64401, 64400
64212, 64382, 64383, 64402, 64401
64213, 64383, 64384, 64403, 64402
64214, 64384, 64385, 64404, 64403
64215, 64385, 64386, 64405, 64404
64216, 64386, 64387, 64406, 64405
64217, 64387, 64388, 64407, 64406
64218, 64388, 64389, 64408, 64407
64219, 64389, 64390, 64409, 64408
64220, 64390, 60428, 60429, 64409
64221, 60098, 64391, 64410, 60099
64222, 64391, 64392, 64411, 64410
64223, 64392, 64393, 64412, 64411
64224, 64393, 64394, 64413, 64412
64225, 64394, 64395, 64414, 64413
64226, 64395, 64396, 64415, 64414
64227, 64396, 64397, 64416, 64415
64228, 64397, 64398, 64417, 64416
64229, 64398, 64399, 64418, 64417
64230, 64399, 64400, 64419, 64418
64231, 64400, 64401, 64420, 64419
64232, 64401, 64402, 64421, 64420
64233, 64402, 64403, 64422, 64421
64234, 64403, 64404, 64423, 64422
64235, 64404, 64405, 64424, 64423
64236, 64405, 64406, 64425, 64424
64237, 64406, 64407, 64426, 64425
64238, 64407, 64408, 64427, 64426
64239, 64408, 64409, 64428, 64427
64240, 64409, 60429, 60430, 64428
64241, 60099, 64410, 64429, 60100
64242, 64410, 64411, 64430, 64429
64243, 64411, 64412, 64431, 64430
64244, 64412, 64413, 64432, 64431
64245, 64413, 64414, 64433, 64432
64246, 64414, 64415, 64434, 64433
64247, 64415, 64416, 64435, 64434
64248, 64416, 64417, 64436, 64435
64249, 64417, 64418, 64437, 64436
64250, 64418, 64419, 64438, 64437
64251, 64419, 64420, 64439, 64438
64252, 64420, 64421, 64440, 64439
64253, 64421, 64422, 64441, 64440
64254, 64422, 64423, 64442, 64441
64255, 64423, 64424, 64443, 64442
64256, 64424, 64425, 64444, 64443
64257, 64425, 64426, 64445, 64444
64258, 64426, 64427, 64446, 64445
64259, 64427, 64428, 64447, 64446
64260, 64428, 60430, 60431, 64447
64261, 60100, 64429, 64448, 60101
64262, 64429, 64430, 64449, 64448
64263, 64430, 64431, 64450, 64449
64264, 64431, 64432, 64451, 64450
64265, 64432, 64433, 64452, 64451
64266, 64433, 64434, 64453, 64452
64267, 64434, 64435, 64454, 64453
64268, 64435, 64436, 64455, 64454
64269, 64436, 64437, 64456, 64455
64270, 64437, 64438, 64457, 64456
64271, 64438, 64439, 64458, 64457
64272, 64439, 64440, 64459, 64458
64273, 64440, 64441, 64460, 64459
64274, 64441, 64442, 64461, 64460
64275, 64442, 64443, 64462, 64461
64276, 64443, 64444, 64463, 64462
64277, 64444, 64445, 64464, 64463
64278, 64445, 64446, 64465, 64464
64279, 64446, 64447, 64466, 64465
64280, 64447, 60431, 60432, 64466
64281, 60101, 64448, 64467, 60102
64282, 64448, 64449, 64468, 64467
64283, 64449, 64450, 64469, 64468
64284, 64450, 64451, 64470, 64469
64285, 64451, 64452, 64471, 64470
64286, 64452, 64453, 64472, 64471
64287, 64453, 64454, 64473, 64472
64288, 64454, 64455, 64474, 64473
64289, 64455, 64456, 64475, 64474
64290, 64456, 64457, 64476, 64475
64291, 64457, 64458, 64477, 64476
64292, 64458, 64459, 64478, 64477
64293, 64459, 64460, 64479, 64478
64294, 64460, 64461, 64480, 64479
64295, 64461, 64462, 64481, 64480
64296, 64462, 64463, 64482, 64481
64297, 64463, 64464, 64483, 64482
64298, 64464, 64465, 64484, 64483
64299, 64465, 64466, 64485, 64484
64300, 64466, 60432, 60433, 64485
64301, 60102, 64467, 64486, 60103
64302, 64467, 64468, 64487, 64486
64303, 64468, 64469, 64488, 64487
64304, 64469, 64470, 64489, 64488
64305, 64470, 64471, 64490, 64489
64306, 64471, 64472, 64491, 64490
64307, 64472, 64473, 64492, 64491
64308, 64473, 64474, 64493, 64492
64309, 64474, 64475, 64494, 64493
64310, 64475, 64476, 64495, 64494
64311, 64476, 64477, 64496, 64495
64312, 64477, 64478, 64497, 64496
64313, 64478, 64479, 64498, 64497
64314, 64479, 64480, 64499, 64498
64315, 64480, 64481, 64500, 64499
64316, 64481, 64482, 64501, 64500
64317, 64482, 64483, 64502, 64501
64318, 64483, 64484, 64503, 64502
64319, 64484, 64485, 64504, 64503
64320, 64485, 60433, 60434, 64504
64321, 60103, 64486, 64505, 60104
64322, 64486, 64487, 64506, 64505
64323, 64487, 64488, 64507, 64506
64324, 64488, 64489, 64508, 64507
64325, 64489, 64490, 64509, 64508
64326, 64490, 64491, 64510, 64509
64327, 64491, 64492, 64511, 64510
64328, 64492, 64493, 64512, 64511
64329, 64493, 64494, 64513, 64512
64330, 64494, 64495, 64514, 64513
64331, 64495, 64496, 64515, 64514
64332, 64496, 64497, 64516, 64515
64333, 64497, 64498, 64517, 64516
64334, 64498, 64499, 64518, 64517
64335, 64499, 64500, 64519, 64518
64336, 64500, 64501, 64520, 64519
64337, 64501, 64502, 64521, 64520
64338, 64502, 64503, 64522, 64521
64339, 64503, 64504, 64523, 64522
64340, 64504, 60434, 60435, 64523
64341, 60104, 64505, 64524, 60105
64342, 64505, 64506, 64525, 64524
64343, 64506, 64507, 64526, 64525
64344, 64507, 64508, 64527, 64526
64345, 64508, 64509, 64528, 64527
64346, 64509, 64510, 64529, 64528
64347, 64510, 64511, 64530, 64529
64348, 64511, 64512, 64531, 64530
64349, 64512, 64513, 64532, 64531
64350, 64513, 64514, 64533, 64532
64351, 64514, 64515, 64534, 64533
64352, 64515, 64516, 64535, 64534
64353, 64516, 64517, 64536, 64535
64354, 64517, 64518, 64537, 64536
64355, 64518, 64519, 64538, 64537
64356, 64519, 64520, 64539, 64538
64357, 64520, 64521, 64540, 64539
64358, 64521, 64522, 64541, 64540
64359, 64522, 64523, 64542, 64541
64360, 64523, 60435, 60436, 64542
64361, 60105, 64524, 64543, 60106
64362, 64524, 64525, 64544, 64543
64363, 64525, 64526, 64545, 64544
64364, 64526, 64527, 64546, 64545
64365, 64527, 64528, 64547, 64546
64366, 64528, 64529, 64548, 64547
64367, 64529, 64530, 64549, 64548
64368, 64530, 64531, 64550, 64549
64369, 64531, 64532, 64551, 64550
64370, 64532, 64533, 64552, 64551
64371, 64533, 64534, 64553, 64552
64372, 64534, 64535, 64554, 64553
64373, 64535, 64536, 64555, 64554
64374, 64536, 64537, 64556, 64555
64375, 64537, 64538, 64557, 64556
64376, 64538, 64539, 64558, 64557
64377, 64539, 64540, 64559, 64558
64378, 64540, 64541, 64560, 64559
64379, 64541, 64542, 64561, 64560
64380, 64542, 60436, 60437, 64561
64381, 60106, 64543, 64562, 60107
64382, 64543, 64544, 64563, 64562
64383, 64544, 64545, 64564, 64563
64384, 64545, 64546, 64565, 64564
64385, 64546, 64547, 64566, 64565
64386, 64547, 64548, 64567, 64566
64387, 64548, 64549, 64568, 64567
64388, 64549, 64550, 64569, 64568
64389, 64550, 64551, 64570, 64569
64390, 64551, 64552, 64571, 64570
64391, 64552, 64553, 64572, 64571
64392, 64553, 64554, 64573, 64572
64393, 64554, 64555, 64574, 64573
64394, 64555, 64556, 64575, 64574
64395, 64556, 64557, 64576, 64575
64396, 64557, 64558, 64577, 64576
64397, 64558, 64559, 64578, 64577
64398, 64559, 64560, 64579, 64578
64399, 64560, 64561, 64580, 64579
64400, 64561, 60437, 60438, 64580
64401, 60107, 64562, 64581, 60108
64402, 64562, 64563, 64582, 64581
64403, 64563, 64564, 64583, 64582
64404, 64564, 64565, 64584, 64583
64405, 64565, 64566, 64585, 64584
64406, 64566, 64567, 64586, 64585
64407, 64567, 64568, 64587, 64586
64408, 64568, 64569, 64588, 64587
64409, 64569, 64570, 64589, 64588
64410, 64570, 64571, 64590, 64589
64411, 64571, 64572, 64591, 64590
64412, 64572, 64573, 64592, 64591
64413, 64573, 64574, 64593, 64592
64414, 64574, 64575, 64594, 64593
64415, 64575, 64576, 64595, 64594
64416, 64576, 64577, 64596, 64595
64417, 64577, 64578, 64597, 64596
64418, 64578, 64579, 64598, 64597
64419, 64579, 64580, 64599, 64598
64420, 64580, 60438, 60439, 64599
64421, 60108, 64581, 64600, 60109
64422, 64581, 64582, 64601, 64600
64423, 64582, 64583, 64602, 64601
64424, 64583, 64584, 64603, 64602
64425, 64584, 64585, 64604, 64603
64426, 64585, 64586, 64605, 64604
64427, 64586, 64587, 64606, 64605
64428, 64587, 64588, 64607, 64606
64429, 64588, 64589, 64608, 64607
64430, 64589, 64590, 64609, 64608
64431, 64590, 64591, 64610, 64609
64432, 64591, 64592, 64611, 64610
64433, 64592, 64593, 64612, 64611
64434, 64593, 64594, 64613, 64612
64435, 64594, 64595, 64614, 64613
64436, 64595, 64596, 64615, 64614
64437, 64596, 64597, 64616, 64615
64438, 64597, 64598, 64617, 64616
64439, 64598, 64599, 64618, 64617
64440, 64599, 60439, 60440, 64618
64441, 60109, 64600, 64619, 60110
64442, 64600, 64601, 64620, 64619
64443, 64601, 64602, 64621, 64620
64444, 64602, 64603, 64622, 64621
64445, 64603, 64604, 64623, 64622
64446, 64604, 64605, 64624, 64623
64447, 64605, 64606, 64625, 64624
64448, 64606, 64607, 64626, 64625
64449, 64607, 64608, 64627, 64626
64450, 64608, 64609, 64628, 64627
64451, 64609, 64610, 64629, 64628
64452, 64610, 64611, 64630, 64629
64453, 64611, 64612, 64631, 64630
64454, 64612, 64613, 64632, 64631
64455, 64613, 64614, 64633, 64632
64456, 64614, 64615, 64634, 64633
64457, 64615, 64616, 64635, 64634
64458, 64616, 64617, 64636, 64635
64459, 64617, 64618, 64637, 64636
64460, 64618, 60440, 60441, 64637
64461, 60110, 64619, 64638, 60111
64462, 64619, 64620, 64639, 64638
64463, 64620, 64621, 64640, 64639
64464, 64621, 64622, 64641, 64640
64465, 64622, 64623, 64642, 64641
64466, 64623, 64624, 64643, 64642
64467, 64624, 64625, 64644, 64643
64468, 64625, 64626, 64645, 64644
64469, 64626, 64627, 64646, 64645
64470, 64627, 64628, 64647, 64646
64471, 64628, 64629, 64648, 64647
64472, 64629, 64630, 64649, 64648
64473, 64630, 64631, 64650, 64649
64474, 64631, 64632, 64651, 64650
64475, 64632, 64633, 64652, 64651
64476, 64633, 64634, 64653, 64652
64477, 64634, 64635, 64654, 64653
64478, 64635, 64636, 64655, 64654
64479, 64636, 64637, 64656, 64655
64480, 64637, 60441, 60442, 64656
64481, 60111, 64638, 64657, 60112
64482, 64638, 64639, 64658, 64657
64483, 64639, 64640, 64659, 64658
64484, 64640, 64641, 64660, 64659
64485, 64641, 64642, 64661, 64660
64486, 64642, 64643, 64662, 64661
64487, 64643, 64644, 64663, 64662
64488, 64644, 64645, 64664, 64663
64489, 64645, 64646, 64665, 64664
64490, 64646, 64647, 64666, 64665
64491, 64647, 64648, 64667, 64666
64492, 64648, 64649, 64668, 64667
64493, 64649, 64650, 64669, 64668
64494, 64650, 64651, 64670, 64669
64495, 64651, 64652, 64671, 64670
64496, 64652, 64653, 64672, 64671
64497, 64653, 64654, 64673, 64672
64498, 64654, 64655, 64674, 64673
64499, 64655, 64656, 64675, 64674
64500, 64656, 60442, 60443, 64675
64501, 60112, 64657, 64676, 60113
64502, 64657, 64658, 64677, 64676
64503, 64658, 64659, 64678, 64677
64504, 64659, 64660, 64679, 64678
64505, 64660, 64661, 64680, 64679
64506, 64661, 64662, 64681, 64680
64507, 64662, 64663, 64682, 64681
64508, 64663, 64664, 64683, 64682
64509, 64664, 64665, 64684, 64683
64510, 64665, 64666, 64685, 64684
64511, 64666, 64667, 64686, 64685
64512, 64667, 64668, 64687, 64686
64513, 64668, 64669, 64688, 64687
64514, 64669, 64670, 64689, 64688
64515, 64670, 64671, 64690, 64689
64516, 64671, 64672, 64691, 64690
64517, 64672, 64673, 64692, 64691
64518, 64673, 64674, 64693, 64692
64519, 64674, 64675, 64694, 64693
64520, 64675, 60443, 60444, 64694
64521, 60113, 64676, 64695, 60114
64522, 64676, 64677, 64696, 64695
64523, 64677, 64678, 64697, 64696
64524, 64678, 64679, 64698, 64697
64525, 64679, 64680, 64699, 64698
64526, 64680, 64681, 64700, 64699
64527, 64681, 64682, 64701, 64700
64528, 64682, 64683, 64702, 64701
64529, 64683, 64684, 64703, 64702
64530, 64684, 64685, 64704, 64703
64531, 64685, 64686, 64705, 64704
64532, 64686, 64687, 64706, 64705
64533, 64687, 64688, 64707, 64706
64534, 64688, 64689, 64708, 64707
64535, 64689, 64690, 64709, 64708
64536, 64690, 64691, 64710, 64709
64537, 64691, 64692, 64711, 64710
64538, 64692, 64693, 64712, 64711
64539, 64693, 64694, 64713, 64712
64540, 64694, 60444, 60445, 64713
64541, 60114, 64695, 64714, 60115
64542, 64695, 64696, 64715, 64714
64543, 64696, 64697, 64716, 64715
64544, 64697, 64698, 64717, 64716
64545, 64698, 64699, 64718, 64717
64546, 64699, 64700, 64719, 64718
64547, 64700, 64701, 64720, 64719
64548, 64701, 64702, 64721, 64720
64549, 64702, 64703, 64722, 64721
64550, 64703, 64704, 64723, 64722
64551, 64704, 64705, 64724, 64723
64552, 64705, 64706, 64725, 64724
64553, 64706, 64707, 64726, 64725
64554, 64707, 64708, 64727, 64726
64555, 64708, 64709, 64728, 64727
64556, 64709, 64710, 64729, 64728
64557, 64710, 64711, 64730, 64729
64558, 64711, 64712, 64731, 64730
64559, 64712, 64713, 64732, 64731
64560, 64713, 60445, 60446, 64732
64561, 60115, 64714, 64733, 60116
64562, 64714, 64715, 64734, 64733
64563, 64715, 64716, 64735, 64734
64564, 64716, 64717, 64736, 64735
64565, 64717, 64718, 64737, 64736
64566, 64718, 64719, 64738, 64737
64567, 64719, 64720, 64739, 64738
64568, 64720, 64721, 64740, 64739
64569, 64721, 64722, 64741, 64740
64570, 64722, 64723, 64742, 64741
64571, 64723, 64724, 64743, 64742
64572, 64724, 64725, 64744, 64743
64573, 64725, 64726, 64745, 64744
64574, 64726, 64727, 64746, 64745
64575, 64727, 64728, 64747, 64746
64576, 64728, 64729, 64748, 64747
64577, 64729, 64730, 64749, 64748
64578, 64730, 64731, 64750, 64749
64579, 64731, 64732, 64751, 64750
64580, 64732, 60446, 60447, 64751
64581, 60116, 64733, 64752, 60117
64582, 64733, 64734, 64753, 64752
64583, 64734, 64735, 64754, 64753
64584, 64735, 64736, 64755, 64754
64585, 64736, 64737, 64756, 64755
64586, 64737, 64738, 64757, 64756
64587, 64738, 64739, 64758, 64757
64588, 64739, 64740, 64759, 64758
64589, 64740, 64741, 64760, 64759
64590, 64741, 64742, 64761, 64760
64591, 64742, 64743, 64762, 64761
64592, 64743, 64744, 64763, 64762
64593, 64744, 64745, 64764, 64763
64594, 64745, 64746, 64765, 64764
64595, 64746, 64747, 64766, 64765
64596, 64747, 64748, 64767, 64766
64597, 64748, 64749, 64768, 64767
64598, 64749, 64750, 64769, 64768
64599, 64750, 64751, 64770, 64769
64600, 64751, 60447, 60448, 64770
64601, 60117, 64752, 64771, 60118
64602, 64752, 64753, 64772, 64771
64603, 64753, 64754, 64773, 64772
64604, 64754, 64755, 64774, 64773
64605, 64755, 64756, 64775, 64774
64606, 64756, 64757, 64776, 64775
64607, 64757, 64758, 64777, 64776
64608, 64758, 64759, 64778, 64777
64609, 64759, 64760, 64779, 64778
64610, 64760, 64761, 64780, 64779
64611, 64761, 64762, 64781, 64780
64612, 64762, 64763, 64782, 64781
64613, 64763, 64764, 64783, 64782
64614, 64764, 64765, 64784, 64783
64615, 64765, 64766, 64785, 64784
64616, 64766, 64767, 64786, 64785
64617, 64767, 64768, 64787, 64786
64618, 64768, 64769, 64788, 64787
64619, 64769, 64770, 64789, 64788
64620, 64770, 60448, 60449, 64789
64621, 60118, 64771, 64790, 60119
64622, 64771, 64772, 64791, 64790
64623, 64772, 64773, 64792, 64791
64624, 64773, 64774, 64793, 64792
64625, 64774, 64775, 64794, 64793
64626, 64775, 64776, 64795, 64794
64627, 64776, 64777, 64796, 64795
64628, 64777, 64778, 64797, 64796
64629, 64778, 64779, 64798, 64797
64630, 64779, 64780, 64799, 64798
64631, 64780, 64781, 64800, 64799
64632, 64781, 64782, 64801, 64800
64633, 64782, 64783, 64802, 64801
64634, 64783, 64784, 64803, 64802
64635, 64784, 64785, 64804, 64803
64636, 64785, 64786, 64805, 64804
64637, 64786, 64787, 64806, 64805
64638, 64787, 64788, 64807, 64806
64639, 64788, 64789, 64808, 64807
64640, 64789, 60449, 60450, 64808
64641, 60119, 64790, 64809, 60120
64642, 64790, 64791, 64810, 64809
64643, 64791, 64792, 64811, 64810
64644, 64792, 64793, 64812, 64811
64645, 64793, 64794, 64813, 64812
64646, 64794, 64795, 64814, 64813
64647, 64795, 64796, 64815, 64814
64648, 64796, 64797, 64816, 64815
64649, 64797, 64798, 64817, 64816
64650, 64798, 64799, 64818, 64817
64651, 64799, 64800, 64819, 64818
64652, 64800, 64801, 64820, 64819
64653, 64801, 64802, 64821, 64820
64654, 64802, 64803, 64822, 64821
64655, 64803, 64804, 64823, 64822
64656, 64804, 64805, 64824, 64823
64657, 64805, 64806, 64825, 64824
64658, 64806, 64807, 64826, 64825
64659, 64807, 64808, 64827, 64826
64660, 64808, 60450, 60451, 64827
64661, 60120, 64809, 64828, 60121
64662, 64809, 64810, 64829, 64828
64663, 64810, 64811, 64830, 64829
64664, 64811, 64812, 64831, 64830
64665, 64812, 64813, 64832, 64831
64666, 64813, 64814, 64833, 64832
64667, 64814, 64815, 64834, 64833
64668, 64815, 64816, 64835, 64834
64669, 64816, 64817, 64836, 64835
64670, 64817, 64818, 64837, 64836
64671, 64818, 64819, 64838, 64837
64672, 64819, 64820, 64839, 64838
64673, 64820, 64821, 64840, 64839
64674, 64821, 64822, 64841, 64840
64675, 64822, 64823, 64842, 64841
64676, 64823, 64824, 64843, 64842
64677, 64824, 64825, 64844, 64843
64678, 64825, 64826, 64845, 64844
64679, 64826, 64827, 64846, 64845
64680, 64827, 60451, 60452, 64846
64681, 60121, 64828, 64847, 60122
64682, 64828, 64829, 64848, 64847
64683, 64829, 64830, 64849, 64848
64684, 64830, 64831, 64850, 64849
64685, 64831, 64832, 64851, 64850
64686, 64832, 64833, 64852, 64851
64687, 64833, 64834, 64853, 64852
64688, 64834, 64835, 64854, 64853
64689, 64835, 64836, 64855, 64854
64690, 64836, 64837, 64856, 64855
64691, 64837, 64838, 64857, 64856
64692, 64838, 64839, 64858, 64857
64693, 64839, 64840, 64859, 64858
64694, 64840, 64841, 64860, 64859
64695, 64841, 64842, 64861, 64860
64696, 64842, 64843, 64862, 64861
64697, 64843, 64844, 64863, 64862
64698, 64844, 64845, 64864, 64863
64699, 64845, 64846, 64865, 64864
64700, 64846, 60452, 60453, 64865
64701, 60122, 64847, 64866, 60123
64702, 64847, 64848, 64867, 64866
64703, 64848, 64849, 64868, 64867
64704, 64849, 64850, 64869, 64868
64705, 64850, 64851, 64870, 64869
64706, 64851, 64852, 64871, 64870
64707, 64852, 64853, 64872, 64871
64708, 64853, 64854, 64873, 64872
64709, 64854, 64855, 64874, 64873
64710, 64855, 64856, 64875, 64874
64711, 64856, 64857, 64876, 64875
64712, 64857, 64858, 64877, 64876
64713, 64858, 64859, 64878, 64877
64714, 64859, 64860, 64879, 64878
64715, 64860, 64861, 64880, 64879
64716, 64861, 64862, 64881, 64880
64717, 64862, 64863, 64882, 64881
64718, 64863, 64864, 64883, 64882
64719, 64864, 64865, 64884, 64883
64720, 64865, 60453, 60454, 64884
64721, 60123, 64866, 64885, 60124
64722, 64866, 64867, 64886, 64885
64723, 64867, 64868, 64887, 64886
64724, 64868, 64869, 64888, 64887
64725, 64869, 64870, 64889, 64888
64726, 64870, 64871, 64890, 64889
64727, 64871, 64872, 64891, 64890
64728, 64872, 64873, 64892, 64891
64729, 64873, 64874, 64893, 64892
64730, 64874, 64875, 64894, 64893
64731, 64875, 64876, 64895, 64894
64732, 64876, 64877, 64896, 64895
64733, 64877, 64878, 64897, 64896
64734, 64878, 64879, 64898, 64897
64735, 64879, 64880, 64899, 64898
64736, 64880, 64881, 64900, 64899
64737, 64881, 64882, 64901, 64900
64738, 64882, 64883, 64902, 64901
64739, 64883, 64884, 64903, 64902
64740, 64884, 60454, 60455, 64903
64741, 60124, 64885, 64904, 60125
64742, 64885, 64886, 64905, 64904
64743, 64886, 64887, 64906, 64905
64744, 64887, 64888, 64907, 64906
64745, 64888, 64889, 64908, 64907
64746, 64889, 64890, 64909, 64908
64747, 64890, 64891, 64910, 64909
64748, 64891, 64892, 64911, 64910
64749, 64892, 64893, 64912, 64911
64750, 64893, 64894, 64913, 64912
64751, 64894, 64895, 64914, 64913
64752, 64895, 64896, 64915, 64914
64753, 64896, 64897, 64916, 64915
64754, 64897, 64898, 64917, 64916
64755, 64898, 64899, 64918, 64917
64756, 64899, 64900, 64919, 64918
64757, 64900, 64901, 64920, 64919
64758, 64901, 64902, 64921, 64920
64759, 64902, 64903, 64922, 64921
64760, 64903, 60455, 60456, 64922
64761, 60125, 64904, 64923, 60126
64762, 64904, 64905, 64924, 64923
64763, 64905, 64906, 64925, 64924
64764, 64906, 64907, 64926, 64925
64765, 64907, 64908, 64927, 64926
64766, 64908, 64909, 64928, 64927
64767, 64909, 64910, 64929, 64928
64768, 64910, 64911, 64930, 64929
64769, 64911, 64912, 64931, 64930
64770, 64912, 64913, 64932, 64931
64771, 64913, 64914, 64933, 64932
64772, 64914, 64915, 64934, 64933
64773, 64915, 64916, 64935, 64934
64774, 64916, 64917, 64936, 64935
64775, 64917, 64918, 64937, 64936
64776, 64918, 64919, 64938, 64937
64777, 64919, 64920, 64939, 64938
64778, 64920, 64921, 64940, 64939
64779, 64921, 64922, 64941, 64940
64780, 64922, 60456, 60457, 64941
64781, 60126, 64923, 60245, 60003
64782, 64923, 64924, 60246, 60245
64783, 64924, 64925, 60247, 60246
64784, 64925, 64926, 60248, 60247
64785, 64926, 64927, 60249, 60248
64786, 64927, 64928, 60250, 60249
64787, 64928, 64929, 60251, 60250
64788, 64929, 64930, 60252, 60251
64789, 64930, 64931, 60253, 60252
64790, 64931, 64932, 60254, 60253
64791, 64932, 64933, 60255, 60254
64792, 64933, 64934, 60256, 60255
64793, 64934, 64935, 60257, 60256
64794, 64935, 64936, 60258, 60257
64795, 64936, 64937, 60259, 60258
64796, 64937, 64938, 60260, 60259
64797, 64938, 64939, 60261, 60260
64798, 64939, 64940, 60262, 60261
64799, 64940, 64941, 60263, 60262
64800, 64941, 60457, 60005, 60263
*ELEMENT, TYPE=U1, ELSET=UELC
2801, 2, 320, 3061, 28
2802, 320, 319, 3062, 3061
2803, 319, 318, 3063, 3062
2804, 318, 317, 3064, 3063
2805, 317, 316, 3065, 3064
2806, 316, 315, 3066, 3065
2807, 315, 314, 3067, 3066
2808, 314, 313, 3068, 3067
2809, 313, 312, 3069, 3068
2810, 312, 311, 3070, 3069
2811, 311, 310, 3071, 3070
2812, 310, 309, 3072, 3071
2813, 309, 308, 3073, 3072
2814, 308, 307, 3074, 3073
2815, 307, 306, 3075, 3074
2816, 306, 305, 3076, 3075
2817, 305, 304, 3077, 3076
2818, 304, 303, 3078, 3077
2819, 303, 302, 3079, 3078
2820, 302, 7, 359, 3079
2821, 28, 3061, 3080, 29
2822, 3061, 3062, 3081, 3080
2823, 3062, 3063, 3082, 3081
2824, 3063, 3064, 3083, 3082
2825, 3064, 3065, 3084, 3083
2826, 3065, 3066, 3085, 3084
2827, 3066, 3067, 3086, 3085
2828, 3067, 3068, 3087, 3086
2829, 3068, 3069, 3088, 3087
2830, 3069, 3070, 3089, 3088
2831, 3070, 3071, 3090, 3089
2832, 3071, 3072, 3091, 3090
2833, 3072, 3073, 3092, 3091
2834, 3073, 3074, 3093, 3092
2835, 3074, 3075, 3094, 3093
2836, 3075, 3076, 3095, 3094
2837, 3076, 3077, 3096, 3095
2838, 3077, 3078, 3097, 3096
2839, 3078, 3079, 3098, 3097
2840, 3079, 359, 360, 3098
2841, 29, 3080, 3099, 30
2842, 3080, 3081, 3100, 3099
2843, 3081, 3082, 3101, 3100
2844, 3082, 3083, 3102, 3101
2845, 3083, 3084, 3103, 3102
2846, 3084, 3085, 3104, 3103
2847, 3085, 3086, 3105, 3104
2848, 3086, 3087, 3106, 3105
2849, 3087, 3088, 3107, 3106
2850, 3088, 3089, 3108, 3107
2851, 3089, 3090, 3109, 3108
2852, 3090, 3091, 3110, 3109
2853, 3091, 3092, 3111, 3110
2854, 3092, 3093, 3112, 3111
2855, 3093, 3094, 3113, 3112
2856, 3094, 3095, 3114, 3113
2857, 3095, 3096, 3115, 3114
2858, 3096, 3097, 3116, 3115
2859, 3097, 3098, 3117, 3116
2860, 3098, 360, 361, 3117
2861, 30, 3099, 3118, 31
2862, 3099, 3100, 3119, 3118
2863, 3100, 3101, 3120, 3119
2864, 3101, 3102, 3121, 3120
2865, 3102, 3103, 3122, 3121
2866, 3103, 3104, 3123, 3122
2867, 3104, 3105, 3124, 3123
2868, 3105, 3106, 3125, 3124
2869, 3106, 3107, 3126, 3125
2870, 3107, 3108, 3127, 3126
2871, 3108, 3109, 3128, 3127
2872, 3109, 3110, 3129, 3128
2873, 3110, 3111, 3130, 3129
2874, 3111, 3112, 3131, 3130
2875, 3112, 3113, 3132, 3131
2876, 3113, 3114, 3133, 3132
2877, 3114, 3115, 3134, 3133
2878, 3115, 3116, 3135, 3134
2879, 3116, 3117, 3136, 3135
2880, 3117, 361, 362, 3136
2881, 31, 3118, 3137, 32
2882, 3118, 3119, 3138, 3137
2883, 3119, 3120, 3139, 3138
2884, 3120, 3121, 3140, 3139
2885, 3121, 3122, 3141, 3140
2886, 3122, 3123, 3142, 3141
2887, 3123, 3124, 3143, 3142
2888, 3124, 3125, 3144, 3143
2889, 3125, 3126, 3145, 3144
2890, 3126, 3127, 3146, 3145
2891, 3127, 3128, 3147, 3146
2892, 3128, 3129, 3148, 3147
2893, 3129, 3130, 3149, 3148
2894, 3130, 3131, 3150, 3149
2895, 3131, 3132, 3151, 3150
2896, 3132, 3133, 3152, 3151
2897, 3133, 3134, 3153, 3152
2898, 3134, 3135, 3154, 3153
2899, 3135, 3136, 3155, 3154
2900, 3136, 362, 363, 3155
2901, 32, 3137, 3156, 33
2902, 3137, 3138, 3157, 3156
2903, 3138, 3139, 3158, 3157
2904, 3139, 3140, 3159, 3158
2905, 3140, 3141, 3160, 3159
2906, 3141, 3142, 3161, 3160
2907, 3142, 3143, 3162, 3161
2908, 3143, 3144, 3163, 3162
2909, 3144, 3145, 3164, 3163
2910, 3145, 3146, 3165, 3164
2911, 3146, 3147, 3166, 3165
2912, 3147, 3148, 3167, 3166
2913, 3148, 3149, 3168, 3167
2914, 3149, 3150, 3169, 3168
2915, 3150, 3151, 3170, 3169
2916, 3151, 3152, 3171, 3170
2917, 3152, 3153, 3172, 3171
2918, 3153, 3154, 3173, 3172
2919, 3154, 3155, 3174, 3173
2920, 3155, 363, 364, 3174
2921, 33, 3156, 3175, 34
2922, 3156, 3157, 3176, 3175
2923, 3157, 3158, 3177, 3176
2924, 3158, 3159, 3178, 3177
2925, 3159, 3160, 3179, 3178
2926, 3160, 3161, 3180, 3179
2927, 3161, 3162, 3181, 3180
2928, 3162, 3163, 3182, 3181
2929, 3163, 3164, 3183, 3182
2930, 3164, 3165, 3184, 3183
2931, 3165, 3166, 3185, 3184
2932, 3166, 3167, 3186, 3185
2933, 3167, 3168, 3187, 3186
2934, 3168, 3169, 3188, 3187
2935, 3169, 3170, 3189, 3188
2936, 3170, 3171, 3190, 3189
2937, 3171, 3172, 3191, 3190
2938, 3172, 3173, 3192, 3191
2939, 3173, 3174, 3193, 3192
2940, 3174, 364, 365, 3193
2941, 34, 3175, 3194, 35
2942, 3175, 3176, 3195, 3194
2943, 3176, 3177, 3196, 3195
2944, 3177, 3178, 3197, 3196
2945, 3178, 3179, 3198, 3197
2946, 3179, 3180, 3199, 3198
2947, 3180, 3181, 3200, 3199
2948, 3181, 3182, 3201, 3200
2949, 3182, 3183, 3202, 3201
2950, 3183, 3184, 3203, 3202
2951, 3184, 3185, 3204, 3203
2952, 3185, 3186, 3205, 3204
2953, 3186, 3187, 3206, 3205
2954, 3187, 3188, 3207, 3206
2955, 3188, 3189, 3208, 3207
2956, 3189, 3190, 3209, 3208
2957, 3190, 3191, 3210, 3209
2958, 3191, 3192, 3211, 3210
2959, 3192, 3193, 3212, 3211
2960, 3193, 365, 366, 3212
2961, 35, 3194, 3213, 36
2962, 3194, 3195, 3214, 3213
2963, 3195, 3196, 3215, 3214
2964, 3196, 3197, 3216, 3215
2965, 3197, 3198, 3217, 3216
2966, 3198, 3199, 3218, 3217
2967, 3199, 3200, 3219, 3218
2968, 3200, 3201, 3220, 3219
2969, 3201, 3202, 3221, 3220
2970, 3202, 3203, 3222, 3221
2971, 3203, 3204, 3223, 3222
2972, 3204, 3205, 3224, 3223
2973, 3205, 3206, 3225, 3224
2974, 3206, 3207, 3226, 3225
2975, 3207, 3208, 3227, 3226
2976, 3208, 3209, 3228, 3227
2977, 3209, 3210, 3229, 3228
2978, 3210, 3211, 3230, 3229
2979, 3211, 3212, 3231, 3230
2980, 3212, 366, 367, 3231
2981, 36, 3213, 3232, 37
2982, 3213, 3214, 3233, 3232
2983, 3214, 3215, 3234, 3233
2984, 3215, 3216, 3235, 3234
2985, 3216, 3217, 3236, 3235
2986, 3217, 3218, 3237, 3236
2987, 3218, 3219, 3238, 3237
2988, 3219, 3220, 3239, 3238
2989, 3220, 3221, 3240, 3239
2990, 3221, 3222, 3241, 3240
2991, 3222, 3223, 3242, 3241
2992, 3223, 3224, 3243, 3242
2993, 3224, 3225, 3244, 3243
2994, 3225, 3226, 3245, 3244
2995, 3226, 3227, 3246, 3245
2996, 3227, 3228, 3247, 3246
2997, 3228, 3229, 3248, 3247
2998, 3229, 3230, 3249, 3248
2999, 3230, 3231, 3250, 3249
3000, 3231, 367, 368, 3250
3001, 37, 3232, 3251, 38
3002, 3232, 3233, 3252, 3251
3003, 3233, 3234, 3253, 3252
3004, 3234, 3235, 3254, 3253
3005, 3235, 3236, 3255, 3254
3006, 3236, 3237, 3256, 3255
3007, 3237, 3238, 3257, 3256
3008, 3238, 3239, 3258, 3257
3009, 3239, 3240, 3259, 3258
3010, 3240, 3241, 3260, 3259
3011, 3241, 3242, 3261, 3260
3012, 3242, 3243, 3262, 3261
3013, 3243, 3244, 3263, 3262
3014, 3244, 3245, 3264, 3263
3015, 3245, 3246, 3265, 3264
3016, 3246, 3247, 3266, 3265
3017, 3247, 3248, 3267, 3266
3018, 3248, 3249, 3268, 3267
3019, 3249, 3250, 3269, 3268
3020, 3250, 368, 369, 3269
3021, 38, 3251, 3270, 39
3022, 3251, 3252, 3271, 3270
3023, 3252, 3253, 3272, 3271
3024, 3253, 3254, 3273, 3272
3025, 3254, 3255, 3274, 3273
3026, 3255, 3256, 3275, 3274
3027, 3256, 3257, 3276, 3275
3028, 3257, 3258, 3277, 3276
3029, 3258, 3259, 3278, 3277
3030, 3259, 3260, 3279, 3278
3031, 3260, 3261, 3280, 3279
3032, 3261, 3262, 3281, 3280
3033, 3262, 3263, 3282, 3281
3034, 3263, 3264, 3283, 3282
3035, 3264, 3265, 3284, 3283
3036, 3265, 3266, 3285, 3284
3037, 3266, 3267, 3286, 3285
3038, 3267, 3268, 3287, 3286
3039, 3268, 3269, 3288, 3287
3040, 3269, 369, 370, 3288
3041, 39, 3270, 3289, 40
3042, 3270, 3271, 3290, 3289
3043, 3271, 3272, 3291, 3290
3044, 3272, 3273, 3292, 3291
3045, 3273, 3274, 3293, 3292
3046, 3274, 3275, 3294, 3293
3047, 3275, 3276, 3295, 3294
3048, 3276, 3277, 3296, 3295
3049, 3277, 3278, 3297, 3296
3050, 3278, 3279, 3298, 3297
3051, 3279, 3280, 3299, 3298
3052, 3280, 3281, 3300, 3299
3053, 3281, 3282, 3301, 3300
3054, 3282, 3283, 3302, 3301
3055, 3283, 3284, 3303, 3302
3056, 3284, 3285, 3304, 3303
3057, 3285, 3286, 3305, 3304
3058, 3286, 3287, 3306, 3305
3059, 3287, 3288, 3307, 3306
3060, 3288, 370, 371, 3307
3061, 40, 3289, 3308, 41
3062, 3289, 3290, 3309, 3308
3063, 3290, 3291, 3310, 3309
3064, 3291, 3292, 3311, 3310
3065, 3292, 3293, 3312, 3311
3066, 3293, 3294, 3313, 3312
3067, 3294, 3295, 3314, 3313
3068, 3295, 3296, 3315, 3314
3069, 3296, 3297, 3316, 3315
3070, 3297, 3298, 3317, 3316
3071, 3298, 3299, 3318, 3317
3072, 3299, 3300, 3319, 3318
3073, 3300, 3301, 3320, 3319
3074, 3301, 3302, 3321, 3320
3075, 3302, 3303, 3322, 3321
3076, 3303, 3304, 3323, 3322
3077, 3304, 3305, 3324, 3323
3078, 3305, 3306, 3325, 3324
3079, 3306, 3307, 3326, 3325
3080, 3307, 371, 372, 3326
3081, 41, 3308, 3327, 42
3082, 3308, 3309, 3328, 3327
3083, 3309, 3310, 3329, 3328
3084, 3310, 3311, 3330, 3329
3085, 3311, 3312, 3331, 3330
3086, 3312, 3313, 3332, 3331
3087, 3313, 3314, 3333, 3332
3088, 3314, 3315, 3334, 3333
3089, 3315, 3316, 3335, 3334
3090, 3316, 3317, 3336, 3335
3091, 3317, 3318, 3337, 3336
3092, 3318, 3319, 3338, 3337
3093, 3319, 3320, 3339, 3338
3094, 3320, 3321, 3340, 3339
3095, 3321, 3322, 3341, 3340
3096, 3322, 3323, 3342, 3341
3097, 3323, 3324, 3343, 3342
3098, 3324, 3325, 3344, 3343
3099, 3325, 3326, 3345, 3344
3100, 3326, 372, 373, 3345
3101, 42, 3327, 3346, 43
3102, 3327, 3328, 3347, 3346
3103, 3328, 3329, 3348, 3347
3104, 3329, 3330, 3349, 3348
3105, 3330, 3331, 3350, 3349
3106, 3331, 3332, 3351, 3350
3107, 3332, 3333, 3352, 3351
3108, 3333, 3334, 3353, 3352
3109, 3334, 3335, 3354, 3353
3110, 3335, 3336, 3355, 3354
3111, 3336, 3337, 3356, 3355
3112, 3337, 3338, 3357, 3356
3113, 3338, 3339, 3358, 3357
3114, 3339, 3340, 3359, 3358
3115, 3340, 3341, 3360, 3359
3116, 3341, 3342, 3361, 3360
3117, 3342, 3343, 3362, 3361
3118, 3343, 3344, 3363, 3362
3119, 3344, 3345, 3364, 3363
3120, 3345, 373, 374, 3364
3121, 43, 3346, 3365, 44
3122, 3346, 3347, 3366, 3365
3123, 3347, 3348, 3367, 3366
3124, 3348, 3349, 3368, 3367
3125, 3349, 3350, 3369, 3368
3126, 3350, 3351, 3370, 3369
3127, 3351, 3352, 3371, 3370
3128, 3352, 3353, 3372, 3371
3129, 3353, 3354, 3373, 3372
3130, 3354, 3355, 3374, 3373
3131, 3355, 3356, 3375, 3374
3132, 3356, 3357, 3376, 3375
3133, 3357, 3358, 3377, 3376
3134, 3358, 3359, 3378, 3377
3135, 3359, 3360, 3379, 3378
3136, 3360, 3361, 3380, 3379
3137, 3361, 3362, 3381, 3380
3138, 3362, 3363, 3382, 3381
3139, 3363, 3364, 3383, 3382
3140, 3364, 374, 375, 3383
3141, 44, 3365, 3384, 45
3142, 3365, 3366, 3385, 3384
3143, 3366, 3367, 3386, 3385
3144, 3367, 3368, 3387, 3386
3145, 3368, 3369, 3388, 3387
3146, 3369, 3370, 3389, 3388
3147, 3370, 3371, 3390, 3389
3148, 3371, 3372, 3391, 3390
3149, 3372, 3373, 3392, 3391
3150, 3373, 3374, 3393, 3392
3151, 3374, 3375, 3394, 3393
3152, 3375, 3376, 3395, 3394
3153, 3376, 3377, 3396, 3395
3154, 3377, 3378, 3397, 3396
3155, 3378, 3379, 3398, 3397
3156, 3379, 3380, 3399, 3398
3157, 3380, 3381, 3400, 3399
3158, 3381, 3382, 3401, 3400
3159, 3382, 3383, 3402, 3401
3160, 3383, 375, 376, 3402
3161, 45, 3384, 3403, 46
3162, 3384, 3385, 3404, 3403
3163, 3385, 3386, 3405, 3404
3164, 3386, 3387, 3406, 3405
3165, 3387, 3388, 3407, 3406
3166, 3388, 3389, 3408, 3407
3167, 3389, 3390, 3409, 3408
3168, 3390, 3391, 3410, 3409
3169, 3391, 3392, 3411, 3410
3170, 3392, 3393, 3412, 3411
3171, 3393, 3394, 3413, 3412
3172, 3394, 3395, 3414, 3413
3173, 3395, 3396, 3415, 3414
3174, 3396, 3397, 3416, 3415
3175, 3397, 3398, 3417, 3416
3176, 3398, 3399, 3418, 3417
3177, 3399, 3400, 3419, 3418
3178, 3400, 3401, 3420, 3419
3179, 3401, 3402, 3421, 3420
3180, 3402, 376, 377, 3421
3181, 46, 3403, 3422, 47
3182, 3403, 3404, 3423, 3422
3183, 3404, 3405, 3424, 3423
3184, 3405, 3406, 3425, 3424
3185, 3406, 3407, 3426, 3425
3186, 3407, 3408, 3427, 3426
3187, 3408, 3409, 3428, 3427
3188, 3409, 3410, 3429, 3428
3189, 3410, 3411, 3430, 3429
3190, 3411, 3412, 3431, 3430
3191, 3412, 3413, 3432, 3431
3192, 3413, 3414, 3433, 3432
3193, 3414, 3415, 3434, 3433
3194, 3415, 3416, 3435, 3434
3195, 3416, 3417, 3436, 3435
3196, 3417, 3418, 3437, 3436
3197, 3418, 3419, 3438, 3437
3198, 3419, 3420, 3439, 3438
3199, 3420, 3421, 3440, 3439
3200, 3421, 377, 378, 3440
3201, 47, 3422, 3441, 48
3202, 3422, 3423, 3442, 3441
3203, 3423, 3424, 3443, 3442
3204, 3424, 3425, 3444, 3443
3205, 3425, 3426, 3445, 3444
3206, 3426, 3427, 3446, 3445
3207, 3427, 3428, 3447, 3446
3208, 3428, 3429, 3448, 3447
3209, 3429, 3430, 3449, 3448
3210, 3430, 3431, 3450, 3449
3211, 3431, 3432, 3451, 3450
3212, 3432, 3433, 3452, 3451
3213, 3433, 3434, 3453, 3452
3214, 3434, 3435, 3454, 3453
3215, 3435, 3436, 3455, 3454
3216, 3436, 3437, 3456, 3455
3217, 3437, 3438, 3457, 3456
3218, 3438, 3439, 3458, 3457
3219, 3439, 3440, 3459, 3458
3220, 3440, 378, 379, 3459
3221, 48, 3441, 3460, 49
3222, 3441, 3442, 3461, 3460
3223, 3442, 3443, 3462, 3461
3224, 3443, 3444, 3463, 3462
3225, 3444, 3445, 3464, 3463
3226, 3445, 3446, 3465, 3464
3227, 3446, 3447, 3466, 3465
3228, 3447, 3448, 3467, 3466
3229, 3448, 3449, 3468, 3467
3230, 3449, 3450, 3469, 3468
3231, 3450, 3451, 3470, 3469
3232, 3451, 3452, 3471, 3470
3233, 3452, 3453, 3472, 3471
3234, 3453, 3454, 3473, 3472
3235, 3454, 3455, 3474, 3473
3236, 3455, 3456, 3475, 3474
3237, 3456, 3457, 3476, 3475
3238, 3457, 3458, 3477, 3476
3239, 3458, 3459, 3478, 3477
3240, 3459, 379, 380, 3478
3241, 49, 3460, 3479, 50
3242, 3460, 3461, 3480, 3479
3243, 3461, 3462, 3481, 3480
3244, 3462, 3463, 3482, 3481
3245, 3463, 3464, 3483, 3482
3246, 3464, 3465, 3484, 3483
3247, 3465, 3466, 3485, 3484
3248, 3466, 3467, 3486, 3485
3249, 3467, 3468, 3487, 3486
3250, 3468, 3469, 3488, 3487
3251, 3469, 3470, 3489, 3488
3252, 3470, 3471, 3490, 3489
3253, 3471, 3472, 3491, 3490
3254, 3472, 3473, 3492, 3491
3255, 3473, 3474, 3493, 3492
3256, 3474, 3475, 3494, 3493
3257, 3475, 3476, 3495, 3494
3258, 3476, 3477, 3496, 3495
3259, 3477, 3478, 3497, 3496
3260, 3478, 380, 381, 3497
3261, 50, 3479, 3498, 51
3262, 3479, 3480, 3499, 3498
3263, 3480, 3481, 3500, 3499
3264, 3481, 3482, 3501, 3500
3265, 3482, 3483, 3502, 3501
3266, 3483, 3484, 3503, 3502
3267, 3484, 3485, 3504, 3503
3268, 3485, 3486, 3505, 3504
3269, 3486, 3487, 3506, 3505
3270, 3487, 3488, 3507, 3506
3271, 3488, 3489, 3508, 3507
3272, 3489, 3490, 3509, 3508
3273, 3490, 3491, 3510, 3509
3274, 3491, 3492, 3511, 3510
3275, 3492, 3493, 3512, 3511
3276, 3493, 3494, 3513, 3512
3277, 3494, 3495, 3514, 3513
3278, 3495, 3496, 3515, 3514
3279, 3496, 3497, 3516, 3515
3280, 3497, 381, 382, 3516
3281, 51, 3498, 3517, 52
3282, 3498, 3499, 3518, 3517
3283, 3499, 3500, 3519, 3518
3284, 3500, 3501, 3520, 3519
3285, 3501, 3502, 3521, 3520
3286, 3502, 3503, 3522, 3521
3287, 3503, 3504, 3523, 3522
3288, 3504, 3505, 3524, 3523
3289, 3505, 3506, 3525, 3524
3290, 3506, 3507, 3526, 3525
3291, 3507, 3508, 3527, 3526
3292, 3508, 3509, 3528, 3527
3293, 3509, 3510, 3529, 3528
3294, 3510, 3511, 3530, 3529
3295, 3511, 3512, 3531, 3530
3296, 3512, 3513, 3532, 3531
3297, 3513, 3514, 3533, 3532
3298, 3514, 3515, 3534, 3533
3299, 3515, 3516, 3535, 3534
3300, 3516, 382, 383, 3535
3301, 52, 3517, 3536, 53
3302, 3517, 3518, 3537, 3536
3303, 3518, 3519, 3538, 3537
3304, 3519, 3520, 3539, 3538
3305, 3520, 3521, 3540, 3539
3306, 3521, 3522, 3541, 3540
3307, 3522, 3523, 3542, 3541
3308, 3523, 3524, 3543, 3542
3309, 3524, 3525, 3544, 3543
3310, 3525, 3526, 3545, 3544
3311, 3526, 3527, 3546, 3545
3312, 3527, 3528, 3547, 3546
3313, 3528, 3529, 3548, 3547
3314, 3529, 3530, 3549, 3548
3315, 3530, 3531, 3550, 3549
3316, 3531, 3532, 3551, 3550
3317, 3532, 3533, 3552, 3551
3318, 3533, 3534, 3553, 3552
3319, 3534, 3535, 3554, 3553
3320, 3535, 383, 384, 3554
3321, 53, 3536, 3555, 54
3322, 3536, 3537, 3556, 3555
3323, 3537, 3538, 3557, 3556
3324, 3538, 3539, 3558, 3557
3325, 3539, 3540, 3559, 3558
3326, 3540, 3541, 3560, 3559
3327, 3541, 3542, 3561, 3560
3328, 3542, 3543, 3562, 3561
3329, 3543, 3544, 3563, 3562
3330, 3544, 3545, 3564, 3563
3331, 3545, 3546, 3565, 3564
3332, 3546, 3547, 3566, 3565
3333, 3547, 3548, 3567, 3566
3334, 3548, 3549, 3568, 3567
3335, 3549, 3550, 3569, 3568
3336, 3550, 3551, 3570, 3569
3337, 3551, 3552, 3571, 3570
3338, 3552, 3553, 3572, 3571
3339, 3553, 3554, 3573, 3572
3340, 3554, 384, 385, 3573
3341, 54, 3555, 3574, 55
3342, 3555, 3556, 3575, 3574
3343, 3556, 3557, 3576, 3575
3344, 3557, 3558, 3577, 3576
3345, 3558, 3559, 3578, 3577
3346, 3559, 3560, 3579, 3578
3347, 3560, 3561, 3580, 3579
3348, 3561, 3562, 3581, 3580
3349, 3562, 3563, 3582, 3581
3350, 3563, 3564, 3583, 3582
3351, 3564, 3565, 3584, 3583
3352, 3565, 3566, 3585, 3584
3353, 3566, 3567, 3586, 3585
3354, 3567, 3568, 3587, 3586
3355, 3568, 3569, 3588, 3587
3356, 3569, 3570, 3589, 3588
3357, 3570, 3571, 3590, 3589
3358, 3571, 3572, 3591, 3590
3359, 3572, 3573, 3592, 3591
3360, 3573, 385, 386, 3592
3361, 55, 3574, 3593, 56
3362, 3574, 3575, 3594, 3593
3363, 3575, 3576, 3595, 3594
3364, 3576, 3577, 3596, 3595
3365, 3577, 3578, 3597, 3596
3366, 3578, 3579, 3598, 3597
3367, 3579, 3580, 3599, 3598
3368, 3580, 3581, 3600, 3599
3369, 3581, 3582, 3601, 3600
3370, 3582, 3583, 3602, 3601
3371, 3583, 3584, 3603, 3602
3372, 3584, 3585, 3604, 3603
3373, 3585, 3586, 3605, 3604
3374, 3586, 3587, 3606, 3605
3375, 3587, 3588, 3607, 3606
3376, 3588, 3589, 3608, 3607
3377, 3589, 3590, 3609, 3608
3378, 3590, 3591, 3610, 3609
3379, 3591, 3592, 3611, 3610
3380, 3592, 386, 387, 3611
3381, 56, 3593, 3612, 57
3382, 3593, 3594, 3613, 3612
3383, 3594, 3595, 3614, 3613
3384, 3595, 3596, 3615, 3614
3385, 3596, 3597, 3616, 3615
3386, 3597, 3598, 3617, 3616
3387, 3598, 3599, 3618, 3617
3388, 3599, 3600, 3619, 3618
3389, 3600, 3601, 3620, 3619
3390, 3601, 3602, 3621, 3620
3391, 3602, 3603, 3622, 3621
3392, 3603, 3604, 3623, 3622
3393, 3604, 3605, 3624, 3623
3394, 3605, 3606, 3625, 3624
3395, 3606, 3607, 3626, 3625
3396, 3607, 3608, 3627, 3626
3397, 3608, 3609, 3628, 3627
3398, 3609, 3610, 3629, 3628
3399, 3610, 3611, 3630, 3629
3400, 3611, 387, 388, 3630
3401, 57, 3612, 3631, 58
3402, 3612, 3613, 3632, 3631
3403, 3613, 3614, 3633, 3632
3404, 3614, 3615, 3634, 3633
3405, 3615, 3616, 3635, 3634
3406, 3616, 3617, 3636, 3635
3407, 3617, 3618, 3637, 3636
3408, 3618, 3619, 3638, 3637
3409, 3619, 3620, 3639, 3638
3410, 3620, 3621, 3640, 3639
3411, 3621, 3622, 3641, 3640
3412, 3622, 3623, 3642, 3641
3413, 3623, 3624, 3643, 3642
3414, 3624, 3625, 3644, 3643
3415, 3625, 3626, 3645, 3644
3416, 3626, 3627, 3646, 3645
3417, 3627, 3628, 3647, 3646
3418, 3628, 3629, 3648, 3647
3419, 3629, 3630, 3649, 3648
3420, 3630, 388, 389, 3649
3421, 58, 3631, 3650, 59
3422, 3631, 3632, 3651, 3650
3423, 3632, 3633, 3652, 3651
3424, 3633, 3634, 3653, 3652
3425, 3634, 3635, 3654, 3653
3426, 3635, 3636, 3655, 3654
3427, 3636, 3637, 3656, 3655
3428, 3637, 3638, 3657, 3656
3429, 3638, 3639, 3658, 3657
3430, 3639, 3640, 3659, 3658
3431, 3640, 3641, 3660, 3659
3432, 3641, 3642, 3661, 3660
3433, 3642, 3643, 3662, 3661
3434, 3643, 3644, 3663, 3662
3435, 3644, 3645, 3664, 3663
3436, 3645, 3646, 3665, 3664
3437, 3646, 3647, 3666, 3665
3438, 3647, 3648, 3667, 3666
3439, 3648, 3649, 3668, 3667
3440, 3649, 389, 390, 3668
3441, 59, 3650, 3669, 60
3442, 3650, 3651, 3670, 3669
3443, 3651, 3652, 3671, 3670
3444, 3652, 3653, 3672, 3671
3445, 3653, 3654, 3673, 3672
3446, 3654, 3655, 3674, 3673
3447, 3655, 3656, 3675, 3674
3448, 3656, 3657, 3676, 3675
3449, 3657, 3658, 3677, 3676
3450, 3658, 3659, 3678, 3677
3451, 3659, 3660, 3679, 3678
3452, 3660, 3661, 3680, 3679
3453, 3661, 3662, 3681, 3680
3454, 3662, 3663, 3682, 3681
3455, 3663, 3664, 3683, 3682
3456, 3664, 3665, 3684, 3683
3457, 3665, 3666, 3685, 3684
3458, 3666, 3667, 3686, 3685
3459, 3667, 3668, 3687, 3686
3460, 3668, 390, 391, 3687
3461, 60, 3669, 3688, 61
3462, 3669, 3670, 3689, 3688
3463, 3670, 3671, 3690, 3689
3464, 3671, 3672, 3691, 3690
3465, 3672, 3673, 3692, 3691
3466, 3673, 3674, 3693, 3692
3467, 3674, 3675, 3694, 3693
3468, 3675, 3676, 3695, 3694
3469, 3676, 3677, 3696, 3695
3470, 3677, 3678, 3697, 3696
3471, 3678, 3679, 3698, 3697
3472, 3679, 3680, 3699, 3698
3473, 3680, 3681, 3700, 3699
3474, 3681, 3682, 3701, 3700
3475, 3682, 3683, 3702, 3701
3476, 3683, 3684, 3703, 3702
3477, 3684, 3685, 3704, 3703
3478, 3685, 3686, 3705, 3704
3479, 3686, 3687, 3706, 3705
3480, 3687, 391, 392, 3706
3481, 61, 3688, 3707, 62
3482, 3688, 3689, 3708, 3707
3483, 3689, 3690, 3709, 3708
3484, 3690, 3691, 3710, 3709
3485, 3691, 3692, 3711, 3710
3486, 3692, 3693, 3712, 3711
3487, 3693, 3694, 3713, 3712
3488, 3694, 3695, 3714, 3713
3489, 3695, 3696, 3715, 3714
3490, 3696, 3697, 3716, 3715
3491, 3697, 3698, 3717, 3716
3492, 3698, 3699, 3718, 3717
3493, 3699, 3700, 3719, 3718
3494, 3700, 3701, 3720, 3719
3495, 3701, 3702, 3721, 3720
3496, 3702, 3703, 3722, 3721
3497, 3703, 3704, 3723, 3722
3498, 3704, 3705, 3724, 3723
3499, 3705, 3706, 3725, 3724
3500, 3706, 392, 393, 3725
3501, 62, 3707, 3726, 63
3502, 3707, 3708, 3727, 3726
3503, 3708, 3709, 3728, 3727
3504, 3709, 3710, 3729, 3728
3505, 3710, 3711, 3730, 3729
3506, 3711, 3712, 3731, 3730
3507, 3712, 3713, 3732, 3731
3508, 3713, 3714, 3733, 3732
3509, 3714, 3715, 3734, 3733
3510, 3715, 3716, 3735, 3734
3511, 3716, 3717, 3736, 3735
3512, 3717, 3718, 3737, 3736
3513, 3718, 3719, 3738, 3737
3514, 3719, 3720, 3739, 3738
3515, 3720, 3721, 3740, 3739
3516, 3721, 3722, 3741, 3740
3517, 3722, 3723, 3742, 3741
3518, 3723, 3724, 3743, 3742
3519, 3724, 3725, 3744, 3743
3520, 3725, 393, 394, 3744
3521, 63, 3726, 3745, 64
3522, 3726, 3727, 3746, 3745
3523, 3727, 3728, 3747, 3746
3524, 3728, 3729, 3748, 3747
3525, 3729, 3730, 3749, 3748
3526, 3730, 3731, 3750, 3749
3527, 3731, 3732, 3751, 3750
3528, 3732, 3733, 3752, 3751
3529, 3733, 3734, 3753, 3752
3530, 3734, 3735, 3754, 3753
3531, 3735, 3736, 3755, 3754
3532, 3736, 3737, 3756, 3755
3533, 3737, 3738, 3757, 3756
3534, 3738, 3739, 3758, 3757
3535, 3739, 3740, 3759, 3758
3536, 3740, 3741, 3760, 3759
3537, 3741, 3742, 3761, 3760
3538, 3742, 3743, 3762, 3761
3539, 3743, 3744, 3763, 3762
3540, 3744, 394, 395, 3763
3541, 64, 3745, 3764, 65
3542, 3745, 3746, 3765, 3764
3543, 3746, 3747, 3766, 3765
3544, 3747, 3748, 3767, 3766
3545, 3748, 3749, 3768, 3767
3546, 3749, 3750, 3769, 3768
3547, 3750, 3751, 3770, 3769
3548, 3751, 3752, 3771, 3770
3549, 3752, 3753, 3772, 3771
3550, 3753, 3754, 3773, 3772
3551, 3754, 3755, 3774, 3773
3552, 3755, 3756, 3775, 3774
3553, 3756, 3757, 3776, 3775
3554, 3757, 3758, 3777, 3776
3555, 3758, 3759, 3778, 3777
3556, 3759, 3760, 3779, 3778
3557, 3760, 3761, 3780, 3779
3558, 3761, 3762, 3781, 3780
3559, 3762, 3763, 3782, 3781
3560, 3763, 395, 396, 3782
3561, 65, 3764, 3783, 66
3562, 3764, 3765, 3784, 3783
3563, 3765, 3766, 3785, 3784
3564, 3766, 3767, 3786, 3785
3565, 3767, 3768, 3787, 3786
3566, 3768, 3769, 3788, 3787
3567, 3769, 3770, 3789, 3788
3568, 3770, 3771, 3790, 3789
3569, 3771, 3772, 3791, 3790
3570, 3772, 3773, 3792, 3791
3571, 3773, 3774, 3793, 3792
3572, 3774, 3775, 3794, 3793
3573, 3775, 3776, 3795, 3794
3574, 3776, 3777, 3796, 3795
3575, 3777, 3778, 3797, 3796
3576, 3778, 3779, 3798, 3797
3577, 3779, 3780, 3799, 3798
3578, 3780, 3781, 3800, 3799
3579, 3781, 3782, 3801, 3800
3580, 3782, 396, 397, 3801
3581, 66, 3783, 3802, 67
3582, 3783, 3784, 3803, 3802
3583, 3784, 3785, 3804, 3803
3584, 3785, 3786, 3805, 3804
3585, 3786, 3787, 3806, 3805
3586, 3787, 3788, 3807, 3806
3587, 3788, 3789, 3808, 3807
3588, 3789, 3790, 3809, 3808
3589, 3790, 3791, 3810, 3809
3590, 3791, 3792, 3811, 3810
3591, 3792, 3793, 3812, 3811
3592, 3793, 3794, 3813, 3812
3593, 3794, 3795, 3814, 3813
3594, 3795, 3796, 3815, 3814
3595, 3796, 3797, 3816, 3815
3596, 3797, 3798, 3817, 3816
3597, 3798, 3799, 3818, 3817
3598, 3799, 3800, 3819, 3818
3599, 3800, 3801, 3820, 3819
3600, 3801, 397, 398, 3820
3601, 67, 3802, 3821, 68
3602, 3802, 3803, 3822, 3821
3603, 3803, 3804, 3823, 3822
3604, 3804, 3805, 3824, 3823
3605, 3805, 3806, 3825, 3824
3606, 3806, 3807, 3826, 3825
3607, 3807, 3808, 3827, 3826
3608, 3808, 3809, 3828, 3827
3609, 3809, 3810, 3829, 3828
3610, 3810, 3811, 3830, 3829
3611, 3811, 3812, 3831, 3830
3612, 3812, 3813, 3832, 3831
3613, 3813, 3814, 3833, 3832
3614, 3814, 3815, 3834, 3833
3615, 3815, 3816, 3835, 3834
3616, 3816, 3817, 3836, 3835
3617, 3817, 3818, 3837, 3836
3618, 3818, 3819, 3838, 3837
3619, 3819, 3820, 3839, 3838
3620, 3820, 398, 399, 3839
3621, 68, 3821, 3840, 69
3622, 3821, 3822, 3841, 3840
3623, 3822, 3823, 3842, 3841
3624, 3823, 3824, 3843, 3842
3625, 3824, 3825, 3844, 3843
3626, 3825, 3826, 3845, 3844
3627, 3826, 3827, 3846, 3845
3628, 3827, 3828, 3847, 3846
3629, 3828, 3829, 3848, 3847
3630, 3829, 3830, 3849, 3848
3631, 3830, 3831, 3850, 3849
3632, 3831, 3832, 3851, 3850
3633, 3832, 3833, 3852, 3851
3634, 3833, 3834, 3853, 3852
3635, 3834, 3835, 3854, 3853
3636, 3835, 3836, 3855, 3854
3637, 3836, 3837, 3856, 3855
3638, 3837, 3838, 3857, 3856
3639, 3838, 3839, 3858, 3857
3640, 3839, 399, 400, 3858
3641, 69, 3840, 3859, 70
3642, 3840, 3841, 3860, 3859
3643, 3841, 3842, 3861, 3860
3644, 3842, 3843, 3862, 3861
3645, 3843, 3844, 3863, 3862
3646, 3844, 3845, 3864, 3863
3647, 3845, 3846, 3865, 3864
3648, 3846, 3847, 3866, 3865
3649, 3847, 3848, 3867, 3866
3650, 3848, 3849, 3868, 3867
3651, 3849, 3850, 3869, 3868
3652, 3850, 3851, 3870, 3869
3653, 3851, 3852, 3871, 3870
3654, 3852, 3853, 3872, 3871
3655, 3853, 3854, 3873, 3872
3656, 3854, 3855, 3874, 3873
3657, 3855, 3856, 3875, 3874
3658, 3856, 3857, 3876, 3875
3659, 3857, 3858, 3877, 3876
3660, 3858, 400, 401, 3877
3661, 70, 3859, 3878, 71
3662, 3859, 3860, 3879, 3878
3663, 3860, 3861, 3880, 3879
3664, 3861, 3862, 3881, 3880
3665, 3862, 3863, 3882, 3881
3666, 3863, 3864, 3883, 3882
3667, 3864, 3865, 3884, 3883
3668, 3865, 3866, 3885, 3884
3669, 3866, 3867, 3886, 3885
3670, 3867, 3868, 3887, 3886
3671, 3868, 3869, 3888, 3887
3672, 3869, 3870, 3889, 3888
3673, 3870, 3871, 3890, 3889
3674, 3871, 3872, 3891, 3890
3675, 3872, 3873, 3892, 3891
3676, 3873, 3874, 3893, 3892
3677, 3874, 3875, 3894, 3893
3678, 3875, 3876, 3895, 3894
3679, 3876, 3877, 3896, 3895
3680, 3877, 401, 402, 3896
3681, 71, 3878, 3897, 72
3682, 3878, 3879, 3898, 3897
3683, 3879, 3880, 3899, 3898
3684, 3880, 3881, 3900, 3899
3685, 3881, 3882, 3901, 3900
3686, 3882, 3883, 3902, 3901
3687, 3883, 3884, 3903, 3902
3688, 3884, 3885, 3904, 3903
3689, 3885, 3886, 3905, 3904
3690, 3886, 3887, 3906, 3905
3691, 3887, 3888, 3907, 3906
3692, 3888, 3889, 3908, 3907
3693, 3889, 3890, 3909, 3908
3694, 3890, 3891, 3910, 3909
3695, 3891, 3892, 3911, 3910
3696, 3892, 3893, 3912, 3911
3697, 3893, 3894, 3913, 3912
3698, 3894, 3895, 3914, 3913
3699, 3895, 3896, 3915, 3914
3700, 3896, 402, 403, 3915
3701, 72, 3897, 3916, 73
3702, 3897, 3898, 3917, 3916
3703, 3898, 3899, 3918, 3917
3704, 3899, 3900, 3919, 3918
3705, 3900, 3901, 3920, 3919
3706, 3901, 3902, 3921, 3920
3707, 3902, 3903, 3922, 3921
3708, 3903, 3904, 3923, 3922
3709, 3904, 3905, 3924, 3923
3710, 3905, 3906, 3925, 3924
3711, 3906, 3907, 3926, 3925
3712, 3907, 3908, 3927, 3926
3713, 3908, 3909, 3928, 3927
3714, 3909, 3910, 3929, 3928
3715, 3910, 3911, 3930, 3929
3716, 3911, 3912, 3931, 3930
3717, 3912, 3913, 3932, 3931
3718, 3913, 3914, 3933, 3932
3719, 3914, 3915, 3934, 3933
3720, 3915, 403, 404, 3934
3721, 73, 3916, 3935, 74
3722, 3916, 3917, 3936, 3935
3723, 3917, 3918, 3937, 3936
3724, 3918, 3919, 3938, 3937
3725, 3919, 3920, 3939, 3938
3726, 3920, 3921, 3940, 3939
3727, 3921, 3922, 3941, 3940
3728, 3922, 3923, 3942, 3941
3729, 3923, 3924, 3943, 3942
3730, 3924, 3925, 3944, 3943
3731, 3925, 3926, 3945, 3944
3732, 3926, 3927, 3946, 3945
3733, 3927, 3928, 3947, 3946
3734, 3928, 3929, 3948, 3947
3735, 3929, 3930, 3949, 3948
3736, 3930, 3931, 3950, 3949
3737, 3931, 3932, 3951, 3950
3738, 3932, 3933, 3952, 3951
3739, 3933, 3934, 3953, 3952
3740, 3934, 404, 405, 3953
3741, 74, 3935, 3954, 75
3742, 3935, 3936, 3955, 3954
3743, 3936, 3937, 3956, 3955
3744, 3937, 3938, 3957, 3956
3745, 3938, 3939, 3958, 3957
3746, 3939, 3940, 3959, 3958
3747, 3940, 3941, 3960, 3959
3748, 3941, 3942, 3961, 3960
3749, 3942, 3943, 3962, 3961
3750, 3943, 3944, 3963, 3962
3751, 3944, 3945, 3964, 3963
3752, 3945, 3946, 3965, 3964
3753, 3946, 3947, 3966, 3965
3754, 3947, 3948, 3967, 3966
3755, 3948, 3949, 3968, 3967
3756, 3949, 3950, 3969, 3968
3757, 3950, 3951, 3970, 3969
3758, 3951, 3952, 3971, 3970
3759, 3952, 3953, 3972, 3971
3760, 3953, 405, 406, 3972
3761, 75, 3954, 3973, 76
3762, 3954, 3955, 3974, 3973
3763, 3955, 3956, 3975, 3974
3764, 3956, 3957, 3976, 3975
3765, 3957, 3958, 3977, 3976
3766, 3958, 3959, 3978, 3977
3767, 3959, 3960, 3979, 3978
3768, 3960, 3961, 3980, 3979
3769, 3961, 3962, 3981, 3980
3770, 3962, 3963, 3982, 3981
3771, 3963, 3964, 3983, 3982
3772, 3964, 3965, 3984, 3983
3773, 3965, 3966, 3985, 3984
3774, 3966, 3967, 3986, 3985
3775, 3967, 3968, 3987, 3986
3776, 3968, 3969, 3988, 3987
3777, 3969, 3970, 3989, 3988
3778, 3970, 3971, 3990, 3989
3779, 3971, 3972, 3991, 3990
3780, 3972, 406, 407, 3991
3781, 76, 3973, 3992, 77
3782, 3973, 3974, 3993, 3992
3783, 3974, 3975, 3994, 3993
3784, 3975, 3976, 3995, 3994
3785, 3976, 3977, 3996, 3995
3786, 3977, 3978, 3997, 3996
3787, 3978, 3979, 3998, 3997
3788, 3979, 3980, 3999, 3998
3789, 3980, 3981, 4000, 3999
3790, 3981, 3982, 4001, 4000
3791, 3982, 3983, 4002, 4001
3792, 3983, 3984, 4003, 4002
3793, 3984, 3985, 4004, 4003
3794, 3985, 3986, 4005, 4004
3795, 3986, 3987, 4006, 4005
3796, 3987, 3988, 4007, 4006
3797, 3988, 3989, 4008, 4007
3798, 3989, 3990, 4009, 4008
3799, 3990, 3991, 4010, 4009
3800, 3991, 407, 408, 4010
3801, 77, 3992, 4011, 78
3802, 3992, 3993, 4012, 4011
3803, 3993, 3994, 4013, 4012
3804, 3994, 3995, 4014, 4013
3805, 3995, 3996, 4015, 4014
3806, 3996, 3997, 4016, 4015
3807, 3997, 3998, 4017, 4016
3808, 3998, 3999, 4018, 4017
3809, 3999, 4000, 4019, 4018
3810, 4000, 4001, 4020, 4019
3811, 4001, 4002, 4021, 4020
3812, 4002, 4003, 4022, 4021
3813, 4003, 4004, 4023, 4022
3814, 4004, 4005, 4024, 4023
3815, 4005, 4006, 4025, 4024
3816, 4006, 4007, 4026, 4025
3817, 4007, 4008, 4027, 4026
3818, 4008, 4009, 4028, 4027
3819, 4009, 4010, 4029, 4028
3820, 4010, 408, 409, 4029
3821, 78, 4011, 4030, 79
3822, 4011, 4012, 4031, 4030
3823, 4012, 4013, 4032, 4031
3824, 4013, 4014, 4033, 4032
3825, 4014, 4015, 4034, 4033
3826, 4015, 4016, 4035, 4034
3827, 4016, 4017, 4036, 4035
3828, 4017, 4018, 4037, 4036
3829, 4018, 4019, 4038, 4037
3830, 4019, 4020, 4039, 4038
3831, 4020, 4021, 4040, 4039
3832, 4021, 4022, 4041, 4040
3833, 4022, 4023, 4042, 4041
3834, 4023, 4024, 4043, 4042
3835, 4024, 4025, 4044, 4043
3836, 4025, 4026, 4045, 4044
3837, 4026, 4027, 4046, 4045
3838, 4027, 4028, 4047, 4046
3839, 4028, 4029, 4048, 4047
3840, 4029, 409, 410, 4048
3841, 79, 4030, 4049, 80
3842, 4030, 4031, 4050, 4049
3843, 4031, 4032, 4051, 4050
3844, 4032, 4033, 4052, 4051
3845, 4033, 4034, 4053, 4052
3846, 4034, 4035, 4054, 4053
3847, 4035, 4036, 4055, 4054
3848, 4036, 4037, 4056, 4055
3849, 4037, 4038, 4057, 4056
3850, 4038, 4039, 4058, 4057
3851, 4039, 4040, 4059, 4058
3852, 4040, 4041, 4060, 4059
3853, 4041, 4042, 4061, 4060
3854, 4042, 4043, 4062, 4061
3855, 4043, 4044, 4063, 4062
3856, 4044, 4045, 4064, 4063
3857, 4045, 4046, 4065, 4064
3858, 4046, 4047, 4066, 4065
3859, 4047, 4048, 4067, 4066
3860, 4048, 410, 411, 4067
3861, 80, 4049, 4068, 81
3862, 4049, 4050, 4069, 4068
3863, 4050, 4051, 4070, 4069
3864, 4051, 4052, 4071, 4070
3865, 4052, 4053, 4072, 4071
3866, 4053, 4054, 4073, 4072
3867, 4054, 4055, 4074, 4073
3868, 4055, 4056, 4075, 4074
3869, 4056, 4057, 4076, 4075
3870, 4057, 4058, 4077, 4076
3871, 4058, 4059, 4078, 4077
3872, 4059, 4060, 4079, 4078
3873, 4060, 4061, 4080, 4079
3874, 4061, 4062, 4081, 4080
3875, 4062, 4063, 4082, 4081
3876, 4063, 4064, 4083, 4082
3877, 4064, 4065, 4084, 4083
3878, 4065, 4066, 4085, 4084
3879, 4066, 4067, 4086, 4085
3880, 4067, 411, 412, 4086
3881, 81, 4068, 4087, 82
3882, 4068, 4069, 4088, 4087
3883, 4069, 4070, 4089, 4088
3884, 4070, 4071, 4090, 4089
3885, 4071, 4072, 4091, 4090
3886, 4072, 4073, 4092, 4091
3887, 4073, 4074, 4093, 4092
3888, 4074, 4075, 4094, 4093
3889, 4075, 4076, 4095, 4094
3890, 4076, 4077, 4096, 4095
3891, 4077, 4078, 4097, 4096
3892, 4078, 4079, 4098, 4097
3893, 4079, 4080, 4099, 4098
3894, 4080, 4081, 4100, 4099
3895, 4081, 4082, 4101, 4100
3896, 4082, 4083, 4102, 4101
3897, 4083, 4084, 4103, 4102
3898, 4084, 4085, 4104, 4103
3899, 4085, 4086, 4105, 4104
3900, 4086, 412, 413, 4105
3901, 82, 4087, 4106, 83
3902, 4087, 4088, 4107, 4106
3903, 4088, 4089, 4108, 4107
3904, 4089, 4090, 4109, 4108
3905, 4090, 4091, 4110, 4109
3906, 4091, 4092, 4111, 4110
3907, 4092, 4093, 4112, 4111
3908, 4093, 4094, 4113, 4112
3909, 4094, 4095, 4114, 4113
3910, 4095, 4096, 4115, 4114
3911, 4096, 4097, 4116, 4115
3912, 4097, 4098, 4117, 4116
3913, 4098, 4099, 4118, 4117
3914, 4099, 4100, 4119, 4118
3915, 4100, 4101, 4120, 4119
3916, 4101, 4102, 4121, 4120
3917, 4102, 4103, 4122, 4121
3918, 4103, 4104, 4123, 4122
3919, 4104, 4105, 4124, 4123
3920, 4105, 413, 414, 4124
3921, 83, 4106, 4125, 84
3922, 4106, 4107, 4126, 4125
3923, 4107, 4108, 4127, 4126
3924, 4108, 4109, 4128, 4127
3925, 4109, 4110, 4129, 4128
3926, 4110, 4111, 4130, 4129
3927, 4111, 4112, 4131, 4130
3928, 4112, 4113, 4132, 4131
3929, 4113, 4114, 4133, 4132
3930, 4114, 4115, 4134, 4133
3931, 4115, 4116, 4135, 4134
3932, 4116, 4117, 4136, 4135
3933, 4117, 4118, 4137, 4136
3934, 4118, 4119, 4138, 4137
3935, 4119, 4120, 4139, 4138
3936, 4120, 4121, 4140, 4139
3937, 4121, 4122, 4141, 4140
3938, 4122, 4123, 4142, 4141
3939, 4123, 4124, 4143, 4142
3940, 4124, 414, 415, 4143
3941, 84, 4125, 4144, 85
3942, 4125, 4126, 4145, 4144
3943, 4126, 4127, 4146, 4145
3944, 4127, 4128, 4147, 4146
3945, 4128, 4129, 4148, 4147
3946, 4129, 4130, 4149, 4148
3947, 4130, 4131, 4150, 4149
3948, 4131, 4132, 4151, 4150
3949, 4132, 4133, 4152, 4151
3950, 4133, 4134, 4153, 4152
3951, 4134, 4135, 4154, 4153
3952, 4135, 4136, 4155, 4154
3953, 4136, 4137, 4156, 4155
3954, 4137, 4138, 4157, 4156
3955, 4138, 4139, 4158, 4157
3956, 4139, 4140, 4159, 4158
3957, 4140, 4141, 4160, 4159
3958, 4141, 4142, 4161, 4160
3959, 4142, 4143, 4162, 4161
3960, 4143, 415, 416, 4162
3961, 85, 4144, 4163, 86
3962, 4144, 4145, 4164, 4163
3963, 4145, 4146, 4165, 4164
3964, 4146, 4147, 4166, 4165
3965, 4147, 4148, 4167, 4166
3966, 4148, 4149, 4168, 4167
3967, 4149, 4150, 4169, 4168
3968, 4150, 4151, 4170, 4169
3969, 4151, 4152, 4171, 4170
3970, 4152, 4153, 4172, 4171
3971, 4153, 4154, 4173, 4172
3972, 4154, 4155, 4174, 4173
3973, 4155, 4156, 4175, 4174
3974, 4156, 4157, 4176, 4175
3975, 4157, 4158, 4177, 4176
3976, 4158, 4159, 4178, 4177
3977, 4159, 4160, 4179, 4178
3978, 4160, 4161, 4180, 4179
3979, 4161, 4162, 4181, 4180
3980, 4162, 416, 417, 4181
3981, 86, 4163, 4182, 87
3982, 4163, 4164, 4183, 4182
3983, 4164, 4165, 4184, 4183
3984, 4165, 4166, 4185, 4184
3985, 4166, 4167, 4186, 4185
3986, 4167, 4168, 4187, 4186
3987, 4168, 4169, 4188, 4187
3988, 4169, 4170, 4189, 4188
3989, 4170, 4171, 4190, 4189
3990, 4171, 4172, 4191, 4190
3991, 4172, 4173, 4192, 4191
3992, 4173, 4174, 4193, 4192
3993, 4174, 4175, 4194, 4193
3994, 4175, 4176, 4195, 4194
3995, 4176, 4177, 4196, 4195
3996, 4177, 4178, 4197, 4196
3997, 4178, 4179, 4198, 4197
3998, 4179, 4180, 4199, 4198
3999, 4180, 4181, 4200, 4199
4000, 4181, 417, 418, 4200
4001, 87, 4182, 4201, 88
4002, 4182, 4183, 4202, 4201
4003, 4183, 4184, 4203, 4202
4004, 4184, 4185, 4204, 4203
4005, 4185, 4186, 4205, 4204
4006, 4186, 4187, 4206, 4205
4007, 4187, 4188, 4207, 4206
4008, 4188, 4189, 4208, 4207
4009, 4189, 4190, 4209, 4208
4010, 4190, 4191, 4210, 4209
4011, 4191, 4192, 4211, 4210
4012, 4192, 4193, 4212, 4211
4013, 4193, 4194, 4213, 4212
4014, 4194, 4195, 4214, 4213
4015, 4195, 4196, 4215, 4214
4016, 4196, 4197, 4216, 4215
4017, 4197, 4198, 4217, 4216
4018, 4198, 4199, 4218, 4217
4019, 4199, 4200, 4219, 4218
4020, 4200, 418, 419, 4219
4021, 88, 4201, 4220, 89
4022, 4201, 4202, 4221, 4220
4023, 4202, 4203, 4222, 4221
4024, 4203, 4204, 4223, 4222
4025, 4204, 4205, 4224, 4223
4026, 4205, 4206, 4225, 4224
4027, 4206, 4207, 4226, 4225
4028, 4207, 4208, 4227, 4226
4029, 4208, 4209, 4228, 4227
4030, 4209, 4210, 4229, 4228
4031, 4210, 4211, 4230, 4229
4032, 4211, 4212, 4231, 4230
4033, 4212, 4213, 4232, 4231
4034, 4213, 4214, 4233, 4232
4035, 4214, 4215, 4234, 4233
4036, 4215, 4216, 4235, 4234
4037, 4216, 4217, 4236, 4235
4038, 4217, 4218, 4237, 4236
4039, 4218, 4219, 4238, 4237
4040, 4219, 419, 420, 4238
4041, 89, 4220, 4239, 90
4042, 4220, 4221, 4240, 4239
4043, 4221, 4222, 4241, 4240
4044, 4222, 4223, 4242, 4241
4045, 4223, 4224, 4243, 4242
4046, 4224, 4225, 4244, 4243
4047, 4225, 4226, 4245, 4244
4048, 4226, 4227, 4246, 4245
4049, 4227, 4228, 4247, 4246
4050, 4228, 4229, 4248, 4247
4051, 4229, 4230, 4249, 4248
4052, 4230, 4231, 4250, 4249
4053, 4231, 4232, 4251, 4250
4054, 4232, 4233, 4252, 4251
4055, 4233, 4234, 4253, 4252
4056, 4234, 4235, 4254, 4253
4057, 4235, 4236, 4255, 4254
4058, 4236, 4237, 4256, 4255
4059, 4237, 4238, 4257, 4256
4060, 4238, 420, 421, 4257
4061, 90, 4239, 4258, 91
4062, 4239, 4240, 4259, 4258
4063, 4240, 4241, 4260, 4259
4064, 4241, 4242, 4261, 4260
4065, 4242, 4243, 4262, 4261
4066, 4243, 4244, 4263, 4262
4067, 4244, 4245, 4264, 4263
4068, 4245, 4246, 4265, 4264
4069, 4246, 4247, 4266, 4265
4070, 4247, 4248, 4267, 4266
4071, 4248, 4249, 4268, 4267
4072, 4249, 4250, 4269, 4268
4073, 4250, 4251, 4270, 4269
4074, 4251, 4252, 4271, 4270
4075, 4252, 4253, 4272, 4271
4076, 4253, 4254, 4273, 4272
4077, 4254, 4255, 4274, 4273
4078, 4255, 4256, 4275, 4274
4079, 4256, 4257, 4276, 4275
4080, 4257, 421, 422, 4276
4081, 91, 4258, 4277, 92
4082, 4258, 4259, 4278, 4277
4083, 4259, 4260, 4279, 4278
4084, 4260, 4261, 4280, 4279
4085, 4261, 4262, 4281, 4280
4086, 4262, 4263, 4282, 4281
4087, 4263, 4264, 4283, 4282
4088, 4264, 4265, 4284, 4283
4089, 4265, 4266, 4285, 4284
4090, 4266, 4267, 4286, 4285
4091, 4267, 4268, 4287, 4286
4092, 4268, 4269, 4288, 4287
4093, 4269, 4270, 4289, 4288
4094, 4270, 4271, 4290, 4289
4095, 4271, 4272, 4291, 4290
4096, 4272, 4273, 4292, 4291
4097, 4273, 4274, 4293, 4292
4098, 4274, 4275, 4294, 4293
4099, 4275, 4276, 4295, 4294
4100, 4276, 422, 423, 4295
4101, 92, 4277, 4296, 93
4102, 4277, 4278, 4297, 4296
4103, 4278, 4279, 4298, 4297
4104, 4279, 4280, 4299, 4298
4105, 4280, 4281, 4300, 4299
4106, 4281, 4282, 4301, 4300
4107, 4282, 4283, 4302, 4301
4108, 4283, 4284, 4303, 4302
4109, 4284, 4285, 4304, 4303
4110, 4285, 4286, 4305, 4304
4111, 4286, 4287, 4306, 4305
4112, 4287, 4288, 4307, 4306
4113, 4288, 4289, 4308, 4307
4114, 4289, 4290, 4309, 4308
4115, 4290, 4291, 4310, 4309
4116, 4291, 4292, 4311, 4310
4117, 4292, 4293, 4312, 4311
4118, 4293, 4294, 4313, 4312
4119, 4294, 4295, 4314, 4313
4120, 4295, 423, 424, 4314
4121, 93, 4296, 4315, 94
4122, 4296, 4297, 4316, 4315
4123, 4297, 4298, 4317, 4316
4124, 4298, 4299, 4318, 4317
4125, 4299, 4300, 4319, 4318
4126, 4300, 4301, 4320, 4319
4127, 4301, 4302, 4321, 4320
4128, 4302, 4303, 4322, 4321
4129, 4303, 4304, 4323, 4322
4130, 4304, 4305, 4324, 4323
4131, 4305, 4306, 4325, 4324
4132, 4306, 4307, 4326, 4325
4133, 4307, 4308, 4327, 4326
4134, 4308, 4309, 4328, 4327
4135, 4309, 4310, 4329, 4328
4136, 4310, 4311, 4330, 4329
4137, 4311, 4312, 4331, 4330
4138, 4312, 4313, 4332, 4331
4139, 4313, 4314, 4333, 4332
4140, 4314, 424, 425, 4333
4141, 94, 4315, 4334, 95
4142, 4315, 4316, 4335, 4334
4143, 4316, 4317, 4336, 4335
4144, 4317, 4318, 4337, 4336
4145, 4318, 4319, 4338, 4337
4146, 4319, 4320, 4339, 4338
4147, 4320, 4321, 4340, 4339
4148, 4321, 4322, 4341, 4340
4149, 4322, 4323, 4342, 4341
4150, 4323, 4324, 4343, 4342
4151, 4324, 4325, 4344, 4343
4152, 4325, 4326, 4345, 4344
4153, 4326, 4327, 4346, 4345
4154, 4327, 4328, 4347, 4346
4155, 4328, 4329, 4348, 4347
4156, 4329, 4330, 4349, 4348
4157, 4330, 4331, 4350, 4349
4158, 4331, 4332, 4351, 4350
4159, 4332, 4333, 4352, 4351
4160, 4333, 425, 426, 4352
4161, 95, 4334, 4353, 96
4162, 4334, 4335, 4354, 4353
4163, 4335, 4336, 4355, 4354
4164, 4336, 4337, 4356, 4355
4165, 4337, 4338, 4357, 4356
4166, 4338, 4339, 4358, 4357
4167, 4339, 4340, 4359, 4358
4168, 4340, 4341, 4360, 4359
4169, 4341, 4342, 4361, 4360
4170, 4342, 4343, 4362, 4361
4171, 4343, 4344, 4363, 4362
4172, 4344, 4345, 4364, 4363
4173, 4345, 4346, 4365, 4364
4174, 4346, 4347, 4366, 4365
4175, 4347, 4348, 4367, 4366
4176, 4348, 4349, 4368, 4367
4177, 4349, 4350, 4369, 4368
4178, 4350, 4351, 4370, 4369
4179, 4351, 4352, 4371, 4370
4180, 4352, 426, 427, 4371
4181, 96, 4353, 4372, 97
4182, 4353, 4354, 4373, 4372
4183, 4354, 4355, 4374, 4373
4184, 4355, 4356, 4375, 4374
4185, 4356, 4357, 4376, 4375
4186, 4357, 4358, 4377, 4376
4187, 4358, 4359, 4378, 4377
4188, 4359, 4360, 4379, 4378
4189, 4360, 4361, 4380, 4379
4190, 4361, 4362, 4381, 4380
4191, 4362, 4363, 4382, 4381
4192, 4363, 4364, 4383, 4382
4193, 4364, 4365, 4384, 4383
4194, 4365, 4366, 4385, 4384
4195, 4366, 4367, 4386, 4385
4196, 4367, 4368, 4387, 4386
4197, 4368, 4369, 4388, 4387
4198, 4369, 4370, 4389, 4388
4199, 4370, 4371, 4390, 4389
4200, 4371, 427, 428, 4390
4201, 97, 4372, 4391, 98
4202, 4372, 4373, 4392, 4391
4203, 4373, 4374, 4393, 4392
4204, 4374, 4375, 4394, 4393
4205, 4375, 4376, 4395, 4394
4206, 4376, 4377, 4396, 4395
4207, 4377, 4378, 4397, 4396
4208, 4378, 4379, 4398, 4397
4209, 4379, 4380, 4399, 4398
4210, 4380, 4381, 4400, 4399
4211, 4381, 4382, 4401, 4400
4212, 4382, 4383, 4402, 4401
4213, 4383, 4384, 4403, 4402
4214, 4384, 4385, 4404, 4403
4215, 4385, 4386, 4405, 4404
4216, 4386, 4387, 4406, 4405
4217, 4387, 4388, 4407, 4406
4218, 4388, 4389, 4408, 4407
4219, 4389, 4390, 4409, 4408
4220, 4390, 428, 429, 4409
4221, 98, 4391, 4410, 99
4222, 4391, 4392, 4411, 4410
4223, 4392, 4393, 4412, 4411
4224, 4393, 4394, 4413, 4412
4225, 4394, 4395, 4414, 4413
4226, 4395, 4396, 4415, 4414
4227, 4396, 4397, 4416, 4415
4228, 4397, 4398, 4417, 4416
4229, 4398, 4399, 4418, 4417
4230, 4399, 4400, 4419, 4418
4231, 4400, 4401, 4420, 4419
4232, 4401, 4402, 4421, 4420
4233, 4402, 4403, 4422, 4421
4234, 4403, 4404, 4423, 4422
4235, 4404, 4405, 4424, 4423
4236, 4405, 4406, 4425, 4424
4237, 4406, 4407, 4426, 4425
4238, 4407, 4408, 4427, 4426
4239, 4408, 4409, 4428, 4427
4240, 4409, 429, 430, 4428
4241, 99, 4410, 4429, 100
4242, 4410, 4411, 4430, 4429
4243, 4411, 4412, 4431, 4430
4244, 4412, 4413, 4432, 4431
4245, 4413, 4414, 4433, 4432
4246, 4414, 4415, 4434, 4433
4247, 4415, 4416, 4435, 4434
4248, 4416, 4417, 4436, 4435
4249, 4417, 4418, 4437, 4436
4250, 4418, 4419, 4438, 4437
4251, 4419, 4420, 4439, 4438
4252, 4420, 4421, 4440, 4439
4253, 4421, 4422, 4441, 4440
4254, 4422, 4423, 4442, 4441
4255, 4423, 4424, 4443, 4442
4256, 4424, 4425, 4444, 4443
4257, 4425, 4426, 4445, 4444
4258, 4426, 4427, 4446, 4445
4259, 4427, 4428, 4447, 4446
4260, 4428, 430, 431, 4447
4261, 100, 4429, 4448, 101
4262, 4429, 4430, 4449, 4448
4263, 4430, 4431, 4450, 4449
4264, 4431, 4432, 4451, 4450
4265, 4432, 4433, 4452, 4451
4266, 4433, 4434, 4453, 4452
4267, 4434, 4435, 4454, 4453
4268, 4435, 4436, 4455, 4454
4269, 4436, 4437, 4456, 4455
4270, 4437, 4438, 4457, 4456
4271, 4438, 4439, 4458, 4457
4272, 4439, 4440, 4459, 4458
4273, 4440, 4441, 4460, 4459
4274, 4441, 4442, 4461, 4460
4275, 4442, 4443, 4462, 4461
4276, 4443, 4444, 4463, 4462
4277, 4444, 4445, 4464, 4463
4278, 4445, 4446, 4465, 4464
4279, 4446, 4447, 4466, 4465
4280, 4447, 431, 432, 4466
4281, 101, 4448, 4467, 102
4282, 4448, 4449, 4468, 4467
4283, 4449, 4450, 4469, 4468
4284, 4450, 4451, 4470, 4469
4285, 4451, 4452, 4471, 4470
4286, 4452, 4453, 4472, 4471
4287, 4453, 4454, 4473, 4472
4288, 4454, 4455, 4474, 4473
4289, 4455, 4456, 4475, 4474
4290, 4456, 4457, 4476, 4475
4291, 4457, 4458, 4477, 4476
4292, 4458, 4459, 4478, 4477
4293, 4459, 4460, 4479, 4478
4294, 4460, 4461, 4480, 4479
4295, 4461, 4462, 4481, 4480
4296, 4462, 4463, 4482, 4481
4297, 4463, 4464, 4483, 4482
4298, 4464, 4465, 4484, 4483
4299, 4465, 4466, 4485, 4484
4300, 4466, 432, 433, 4485
4301, 102, 4467, 4486, 103
4302, 4467, 4468, 4487, 4486
4303, 4468, 4469, 4488, 4487
4304, 4469, 4470, 4489, 4488
4305, 4470, 4471, 4490, 4489
4306, 4471, 4472, 4491, 4490
4307, 4472, 4473, 4492, 4491
4308, 4473, 4474, 4493, 4492
4309, 4474, 4475, 4494, 4493
4310, 4475, 4476, 4495, 4494
4311, 4476, 4477, 4496, 4495
4312, 4477, 4478, 4497, 4496
4313, 4478, 4479, 4498, 4497
4314, 4479, 4480, 4499, 4498
4315, 4480, 4481, 4500, 4499
4316, 4481, 4482, 4501, 4500
4317, 4482, 4483, 4502, 4501
4318, 4483, 4484, 4503, 4502
4319, 4484, 4485, 4504, 4503
4320, 4485, 433, 434, 4504
4321, 103, 4486, 4505, 104
4322, 4486, 4487, 4506, 4505
4323, 4487, 4488, 4507, 4506
4324, 4488, 4489, 4508, 4507
4325, 4489, 4490, 4509, 4508
4326, 4490, 4491, 4510, 4509
4327, 4491, 4492, 4511, 4510
4328, 4492, 4493, 4512, 4511
4329, 4493, 4494, 4513, 4512
4330, 4494, 4495, 4514, 4513
4331, 4495, 4496, 4515, 4514
4332, 4496, 4497, 4516, 4515
4333, 4497, 4498, 4517, 4516
4334, 4498, 4499, 4518, 4517
4335, 4499, 4500, 4519, 4518
4336, 4500, 4501, 4520, 4519
4337, 4501, 4502, 4521, 4520
4338, 4502, 4503, 4522, 4521
4339, 4503, 4504, 4523, 4522
4340, 4504, 434, 435, 4523
4341, 104, 4505, 4524, 105
4342, 4505, 4506, 4525, 4524
4343, 4506, 4507, 4526, 4525
4344, 4507, 4508, 4527, 4526
4345, 4508, 4509, 4528, 4527
4346, 4509, 4510, 4529, 4528
4347, 4510, 4511, 4530, 4529
4348, 4511, 4512, 4531, 4530
4349, 4512, 4513, 4532, 4531
4350, 4513, 4514, 4533, 4532
4351, 4514, 4515, 4534, 4533
4352, 4515, 4516, 4535, 4534
4353, 4516, 4517, 4536, 4535
4354, 4517, 4518, 4537, 4536
4355, 4518, 4519, 4538, 4537
4356, 4519, 4520, 4539, 4538
4357, 4520, 4521, 4540, 4539
4358, 4521, 4522, 4541, 4540
4359, 4522, 4523, 4542, 4541
4360, 4523, 435, 436, 4542
4361, 105, 4524, 4543, 106
4362, 4524, 4525, 4544, 4543
4363, 4525, 4526, 4545, 4544
4364, 4526, 4527, 4546, 4545
4365, 4527, 4528, 4547, 4546
4366, 4528, 4529, 4548, 4547
4367, 4529, 4530, 4549, 4548
4368, 4530, 4531, 4550, 4549
4369, 4531, 4532, 4551, 4550
4370, 4532, 4533, 4552, 4551
4371, 4533, 4534, 4553, 4552
4372, 4534, 4535, 4554, 4553
4373, 4535, 4536, 4555, 4554
4374, 4536, 4537, 4556, 4555
4375, 4537, 4538, 4557, 4556
4376, 4538, 4539, 4558, 4557
4377, 4539, 4540, 4559, 4558
4378, 4540, 4541, 4560, 4559
4379, 4541, 4542, 4561, 4560
4380, 4542, 436, 437, 4561
4381, 106, 4543, 4562, 107
4382, 4543, 4544, 4563, 4562
4383, 4544, 4545, 4564, 4563
4384, 4545, 4546, 4565, 4564
4385, 4546, 4547, 4566, 4565
4386, 4547, 4548, 4567, 4566
4387, 4548, 4549, 4568, 4567
4388, 4549, 4550, 4569, 4568
4389, 4550, 4551, 4570, 4569
4390, 4551, 4552, 4571, 4570
4391, 4552, 4553, 4572, 4571
4392, 4553, 4554, 4573, 4572
4393, 4554, 4555, 4574, 4573
4394, 4555, 4556, 4575, 4574
4395, 4556, 4557, 4576, 4575
4396, 4557, 4558, 4577, 4576
4397, 4558, 4559, 4578, 4577
4398, 4559, 4560, 4579, 4578
4399, 4560, 4561, 4580, 4579
4400, 4561, 437, 438, 4580
4401, 107, 4562, 4581, 108
4402, 4562, 4563, 4582, 4581
4403, 4563, 4564, 4583, 4582
4404, 4564, 4565, 4584, 4583
4405, 4565, 4566, 4585, 4584
4406, 4566, 4567, 4586, 4585
4407, 4567, 4568, 4587, 4586
4408, 4568, 4569, 4588, 4587
4409, 4569, 4570, 4589, 4588
4410, 4570, 4571, 4590, 4589
4411, 4571, 4572, 4591, 4590
4412, 4572, 4573, 4592, 4591
4413, 4573, 4574, 4593, 4592
4414, 4574, 4575, 4594, 4593
4415, 4575, 4576, 4595, 4594
4416, 4576, 4577, 4596, 4595
4417, 4577, 4578, 4597, 4596
4418, 4578, 4579, 4598, 4597
4419, 4579, 4580, 4599, 4598
4420, 4580, 438, 439, 4599
4421, 108, 4581, 4600, 109
4422, 4581, 4582, 4601, 4600
4423, 4582, 4583, 4602, 4601
4424, 4583, 4584, 4603, 4602
4425, 4584, 4585, 4604, 4603
4426, 4585, 4586, 4605, 4604
4427, 4586, 4587, 4606, 4605
4428, 4587, 4588, 4607, 4606
4429, 4588, 4589, 4608, 4607
4430, 4589, 4590, 4609, 4608
4431, 4590, 4591, 4610, 4609
4432, 4591, 4592, 4611, 4610
4433, 4592, 4593, 4612, 4611
4434, 4593, 4594, 4613, 4612
4435, 4594, 4595, 4614, 4613
4436, 4595, 4596, 4615, 4614
4437, 4596, 4597, 4616, 4615
4438, 4597, 4598, 4617, 4616
4439, 4598, 4599, 4618, 4617
4440, 4599, 439, 440, 4618
4441, 109, 4600, 4619, 110
4442, 4600, 4601, 4620, 4619
4443, 4601, 4602, 4621, 4620
4444, 4602, 4603, 4622, 4621
4445, 4603, 4604, 4623, 4622
4446, 4604, 4605, 4624, 4623
4447, 4605, 4606, 4625, 4624
4448, 4606, 4607, 4626, 4625
4449, 4607, 4608, 4627, 4626
4450, 4608, 4609, 4628, 4627
4451, 4609, 4610, 4629, 4628
4452, 4610, 4611, 4630, 4629
4453, 4611, 4612, 4631, 4630
4454, 4612, 4613, 4632, 4631
4455, 4613, 4614, 4633, 4632
4456, 4614, 4615, 4634, 4633
4457, 4615, 4616, 4635, 4634
4458, 4616, 4617, 4636, 4635
4459, 4617, 4618, 4637, 4636
4460, 4618, 440, 441, 4637
4461, 110, 4619, 4638, 111
4462, 4619, 4620, 4639, 4638
4463, 4620, 4621, 4640, 4639
4464, 4621, 4622, 4641, 4640
4465, 4622, 4623, 4642, 4641
4466, 4623, 4624, 4643, 4642
4467, 4624, 4625, 4644, 4643
4468, 4625, 4626, 4645, 4644
4469, 4626, 4627, 4646, 4645
4470, 4627, 4628, 4647, 4646
4471, 4628, 4629, 4648, 4647
4472, 4629, 4630, 4649, 4648
4473, 4630, 4631, 4650, 4649
4474, 4631, 4632, 4651, 4650
4475, 4632, 4633, 4652, 4651
4476, 4633, 4634, 4653, 4652
4477, 4634, 4635, 4654, 4653
4478, 4635, 4636, 4655, 4654
4479, 4636, 4637, 4656, 4655
4480, 4637, 441, 442, 4656
4481, 111, 4638, 4657, 112
4482, 4638, 4639, 4658, 4657
4483, 4639, 4640, 4659, 4658
4484, 4640, 4641, 4660, 4659
4485, 4641, 4642, 4661, 4660
4486, 4642, 4643, 4662, 4661
4487, 4643, 4644, 4663, 4662
4488, 4644, 4645, 4664, 4663
4489, 4645, 4646, 4665, 4664
4490, 4646, 4647, 4666, 4665
4491, 4647, 4648, 4667, 4666
4492, 4648, 4649, 4668, 4667
4493, 4649, 4650, 4669, 4668
4494, 4650, 4651, 4670, 4669
4495, 4651, 4652, 4671, 4670
4496, 4652, 4653, 4672, 4671
4497, 4653, 4654, 4673, 4672
4498, 4654, 4655, 4674, 4673
4499, 4655, 4656, 4675, 4674
4500, 4656, 442, 443, 4675
4501, 112, 4657, 4676, 113
4502, 4657, 4658, 4677, 4676
4503, 4658, 4659, 4678, 4677
4504, 4659, 4660, 4679, 4678
4505, 4660, 4661, 4680, 4679
4506, 4661, 4662, 4681, 4680
4507, 4662, 4663, 4682, 4681
4508, 4663, 4664, 4683, 4682
4509, 4664, 4665, 4684, 4683
4510, 4665, 4666, 4685, 4684
4511, 4666, 4667, 4686, 4685
4512, 4667, 4668, 4687, 4686
4513, 4668, 4669, 4688, 4687
4514, 4669, 4670, 4689, 4688
4515, 4670, 4671, 4690, 4689
4516, 4671, 4672, 4691, 4690
4517, 4672, 4673, 4692, 4691
4518, 4673, 4674, 4693, 4692
4519, 4674, 4675, 4694, 4693
4520, 4675, 443, 444, 4694
4521, 113, 4676, 4695, 114
4522, 4676, 4677, 4696, 4695
4523, 4677, 4678, 4697, 4696
4524, 4678, 4679, 4698, 4697
4525, 4679, 4680, 4699, 4698
4526, 4680, 4681, 4700, 4699
4527, 4681, 4682, 4701, 4700
4528, 4682, 4683, 4702, 4701
4529, 4683, 4684, 4703, 4702
4530, 4684, 4685, 4704, 4703
4531, 4685, 4686, 4705, 4704
4532, 4686, 4687, 4706, 4705
4533, 4687, 4688, 4707, 4706
4534, 4688, 4689, 4708, 4707
4535, 4689, 4690, 4709, 4708
4536, 4690, 4691, 4710, 4709
4537, 4691, 4692, 4711, 4710
4538, 4692, 4693, 4712, 4711
4539, 4693, 4694, 4713, 4712
4540, 4694, 444, 445, 4713
4541, 114, 4695, 4714, 115
4542, 4695, 4696, 4715, 4714
4543, 4696, 4697, 4716, 4715
4544, 4697, 4698, 4717, 4716
4545, 4698, 4699, 4718, 4717
4546, 4699, 4700, 4719, 4718
4547, 4700, 4701, 4720, 4719
4548, 4701, 4702, 4721, 4720
4549, 4702, 4703, 4722, 4721
4550, 4703, 4704, 4723, 4722
4551, 4704, 4705, 4724, 4723
4552, 4705, 4706, 4725, 4724
4553, 4706, 4707, 4726, 4725
4554, 4707, 4708, 4727, 4726
4555, 4708, 4709, 4728, 4727
4556, 4709, 4710, 4729, 4728
4557, 4710, 4711, 4730, 4729
4558, 4711, 4712, 4731, 4730
4559, 4712, 4713, 4732, 4731
4560, 4713, 445, 446, 4732
4561, 115, 4714, 4733, 116
4562, 4714, 4715, 4734, 4733
4563, 4715, 4716, 4735, 4734
4564, 4716, 4717, 4736, 4735
4565, 4717, 4718, 4737, 4736
4566, 4718, 4719, 4738, 4737
4567, 4719, 4720, 4739, 4738
4568, 4720, 4721, 4740, 4739
4569, 4721, 4722, 4741, 4740
4570, 4722, 4723, 4742, 4741
4571, 4723, 4724, 4743, 4742
4572, 4724, 4725, 4744, 4743
4573, 4725, 4726, 4745, 4744
4574, 4726, 4727, 4746, 4745
4575, 4727, 4728, 4747, 4746
4576, 4728, 4729, 4748, 4747
4577, 4729, 4730, 4749, 4748
4578, 4730, 4731, 4750, 4749
4579, 4731, 4732, 4751, 4750
4580, 4732, 446, 447, 4751
4581, 116, 4733, 4752, 117
4582, 4733, 4734, 4753, 4752
4583, 4734, 4735, 4754, 4753
4584, 4735, 4736, 4755, 4754
4585, 4736, 4737, 4756, 4755
4586, 4737, 4738, 4757, 4756
4587, 4738, 4739, 4758, 4757
4588, 4739, 4740, 4759, 4758
4589, 4740, 4741, 4760, 4759
4590, 4741, 4742, 4761, 4760
4591, 4742, 4743, 4762, 4761
4592, 4743, 4744, 4763, 4762
4593, 4744, 4745, 4764, 4763
4594, 4745, 4746, 4765, 4764
4595, 4746, 4747, 4766, 4765
4596, 4747, 4748, 4767, 4766
4597, 4748, 4749, 4768, 4767
4598, 4749, 4750, 4769, 4768
4599, 4750, 4751, 4770, 4769
4600, 4751, 447, 448, 4770
4601, 117, 4752, 4771, 118
4602, 4752, 4753, 4772, 4771
4603, 4753, 4754, 4773, 4772
4604, 4754, 4755, 4774, 4773
4605, 4755, 4756, 4775, 4774
4606, 4756, 4757, 4776, 4775
4607, 4757, 4758, 4777, 4776
4608, 4758, 4759, 4778, 4777
4609, 4759, 4760, 4779, 4778
4610, 4760, 4761, 4780, 4779
4611, 4761, 4762, 4781, 4780
4612, 4762, 4763, 4782, 4781
4613, 4763, 4764, 4783, 4782
4614, 4764, 4765, 4784, 4783
4615, 4765, 4766, 4785, 4784
4616, 4766, 4767, 4786, 4785
4617, 4767, 4768, 4787, 4786
4618, 4768, 4769, 4788, 4787
4619, 4769, 4770, 4789, 4788
4620, 4770, 448, 449, 4789
4621, 118, 4771, 4790, 119
4622, 4771, 4772, 4791, 4790
4623, 4772, 4773, 4792, 4791
4624, 4773, 4774, 4793, 4792
4625, 4774, 4775, 4794, 4793
4626, 4775, 4776, 4795, 4794
4627, 4776, 4777, 4796, 4795
4628, 4777, 4778, 4797, 4796
4629, 4778, 4779, 4798, 4797
4630, 4779, 4780, 4799, 4798
4631, 4780, 4781, 4800, 4799
4632, 4781, 4782, 4801, 4800
4633, 4782, 4783, 4802, 4801
4634, 4783, 4784, 4803, 4802
4635, 4784, 4785, 4804, 4803
4636, 4785, 4786, 4805, 4804
4637, 4786, 4787, 4806, 4805
4638, 4787, 4788, 4807, 4806
4639, 4788, 4789, 4808, 4807
4640, 4789, 449, 450, 4808
4641, 119, 4790, 4809, 120
4642, 4790, 4791, 4810, 4809
4643, 4791, 4792, 4811, 4810
4644, 4792, 4793, 4812, 4811
4645, 4793, 4794, 4813, 4812
4646, 4794, 4795, 4814, 4813
4647, 4795, 4796, 4815, 4814
4648, 4796, 4797, 4816, 4815
4649, 4797, 4798, 4817, 4816
4650, 4798, 4799, 4818, 4817
4651, 4799, 4800, 4819, 4818
4652, 4800, 4801, 4820, 4819
4653, 4801, 4802, 4821, 4820
4654, 4802, 4803, 4822, 4821
4655, 4803, 4804, 4823, 4822
4656, 4804, 4805, 4824, 4823
4657, 4805, 4806, 4825, 4824
4658, 4806, 4807, 4826, 4825
4659, 4807, 4808, 4827, 4826
4660, 4808, 450, 451, 4827
4661, 120, 4809, 4828, 121
4662, 4809, 4810, 4829, 4828
4663, 4810, 4811, 4830, 4829
4664, 4811, 4812, 4831, 4830
4665, 4812, 4813, 4832, 4831
4666, 4813, 4814, 4833, 4832
4667, 4814, 4815, 4834, 4833
4668, 4815, 4816, 4835, 4834
4669, 4816, 4817, 4836, 4835
4670, 4817, 4818, 4837, 4836
4671, 4818, 4819, 4838, 4837
4672, 4819, 4820, 4839, 4838
4673, 4820, 4821, 4840, 4839
4674, 4821, 4822, 4841, 4840
4675, 4822, 4823, 4842, 4841
4676, 4823, 4824, 4843, 4842
4677, 4824, 4825, 4844, 4843
4678, 4825, 4826, 4845, 4844
4679, 4826, 4827, 4846, 4845
4680, 4827, 451, 452, 4846
4681, 121, 4828, 4847, 122
4682, 4828, 4829, 4848, 4847
4683, 4829, 4830, 4849, 4848
4684, 4830, 4831, 4850, 4849
4685, 4831, 4832, 4851, 4850
4686, 4832, 4833, 4852, 4851
4687, 4833, 4834, 4853, 4852
4688, 4834, 4835, 4854, 4853
4689, 4835, 4836, 4855, 4854
4690, 4836, 4837, 4856, 4855
4691, 4837, 4838, 4857, 4856
4692, 4838, 4839, 4858, 4857
4693, 4839, 4840, 4859, 4858
4694, 4840, 4841, 4860, 4859
4695, 4841, 4842, 4861, 4860
4696, 4842, 4843, 4862, 4861
4697, 4843, 4844, 4863, 4862
4698, 4844, 4845, 4864, 4863
4699, 4845, 4846, 4865, 4864
4700, 4846, 452, 453, 4865
4701, 122, 4847, 4866, 123
4702, 4847, 4848, 4867, 4866
4703, 4848, 4849, 4868, 4867
4704, 4849, 4850, 4869, 4868
4705, 4850, 4851, 4870, 4869
4706, 4851, 4852, 4871, 4870
4707, 4852, 4853, 4872, 4871
4708, 4853, 4854, 4873, 4872
4709, 4854, 4855, 4874, 4873
4710, 4855, 4856, 4875, 4874
4711, 4856, 4857, 4876, 4875
4712, 4857, 4858, 4877, 4876
4713, 4858, 4859, 4878, 4877
4714, 4859, 4860, 4879, 4878
4715, 4860, 4861, 4880, 4879
4716, 4861, 4862, 4881, 4880
4717, 4862, 4863, 4882, 4881
4718, 4863, 4864, 4883, 4882
4719, 4864, 4865, 4884, 4883
4720, 4865, 453, 454, 4884
4721, 123, 4866, 4885, 124
4722, 4866, 4867, 4886, 4885
4723, 4867, 4868, 4887, 4886
4724, 4868, 4869, 4888, 4887
4725, 4869, 4870, 4889, 4888
4726, 4870, 4871, 4890, 4889
4727, 4871, 4872, 4891, 4890
4728, 4872, 4873, 4892, 4891
4729, 4873, 4874, 4893, 4892
4730, 4874, 4875, 4894, 4893
4731, 4875, 4876, 4895, 4894
4732, 4876, 4877, 4896, 4895
4733, 4877, 4878, 4897, 4896
4734, 4878, 4879, 4898, 4897
4735, 4879, 4880, 4899, 4898
4736, 4880, 4881, 4900, 4899
4737, 4881, 4882, 4901, 4900
4738, 4882, 4883, 4902, 4901
4739, 4883, 4884, 4903, 4902
4740, 4884, 454, 455, 4903
4741, 124, 4885, 4904, 125
4742, 4885, 4886, 4905, 4904
4743, 4886, 4887, 4906, 4905
4744, 4887, 4888, 4907, 4906
4745, 4888, 4889, 4908, 4907
4746, 4889, 4890, 4909, 4908
4747, 4890, 4891, 4910, 4909
4748, 4891, 4892, 4911, 4910
4749, 4892, 4893, 4912, 4911
4750, 4893, 4894, 4913, 4912
4751, 4894, 4895, 4914, 4913
4752, 4895, 4896, 4915, 4914
4753, 4896, 4897, 4916, 4915
4754, 4897, 4898, 4917, 4916
4755, 4898, 4899, 4918, 4917
4756, 4899, 4900, 4919, 4918
4757, 4900, 4901, 4920, 4919
4758, 4901, 4902, 4921, 4920
4759, 4902, 4903, 4922, 4921
4760, 4903, 455, 456, 4922
4761, 125, 4904, 4923, 126
4762, 4904, 4905, 4924, 4923
4763, 4905, 4906, 4925, 4924
4764, 4906, 4907, 4926, 4925
4765, 4907, 4908, 4927, 4926
4766, 4908, 4909, 4928, 4927
4767, 4909, 4910, 4929, 4928
4768, 4910, 4911, 4930, 4929
4769, 4911, 4912, 4931, 4930
4770, 4912, 4913, 4932, 4931
4771, 4913, 4914, 4933, 4932
4772, 4914, 4915, 4934, 4933
4773, 4915, 4916, 4935, 4934
4774, 4916, 4917, 4936, 4935
4775, 4917, 4918, 4937, 4936
4776, 4918, 4919, 4938, 4937
4777, 4919, 4920, 4939, 4938
4778, 4920, 4921, 4940, 4939
4779, 4921, 4922, 4941, 4940
4780, 4922, 456, 457, 4941
4781, 126, 4923, 245, 3
4782, 4923, 4924, 246, 245
4783, 4924, 4925, 247, 246
4784, 4925, 4926, 248, 247
4785, 4926, 4927, 249, 248
4786, 4927, 4928, 250, 249
4787, 4928, 4929, 251, 250
4788, 4929, 4930, 252, 251
4789, 4930, 4931, 253, 252
4790, 4931, 4932, 254, 253
4791, 4932, 4933, 255, 254
4792, 4933, 4934, 256, 255
4793, 4934, 4935, 257, 256
4794, 4935, 4936, 258, 257
4795, 4936, 4937, 259, 258
4796, 4937, 4938, 260, 259
4797, 4938, 4939, 261, 260
4798, 4939, 4940, 262, 261
4799, 4940, 4941, 263, 262
4800, 4941, 457, 5, 263
*UEL PROPERTY, ELSET=UELF
200000, 0.3, 1., 1., 1e-06, 4
*UEL PROPERTY, ELSET=UELC
200000, 0.3, -1., 2., 1e-06, 4
*ELEMENT, TYPE=U2, ELSET=CONTACT
300001, 60005, 60457, 60456, 60263, 64941, 64922, 60262, 64940, 64921, 60261, 64939, 64920, 7, 302,
303, 304, 359, 3079, 3078, 3077, 360, 3098, 3097, 3096, 361, 3117, 3116, 3115, 362,
3136, 3135, 3134, 363, 3155, 3154, 3153, 364, 3174, 3173, 3172, 365, 3193, 3192, 3191,
366, 3212, 3211, 3210
300002, 60457, 60456, 60455, 64941, 64922, 64903, 64940, 64921, 64902, 64939, 64920, 64901, 7, 302,
303, 304, 359, 3079, 3078, 3077, 360, 3098, 3097, 3096, 361, 3117, 3116, 3115, 362,
3136, 3135, 3134, 363, 3155, 3154, 3153, 364, 3174, 3173, 3172, 365, 3193, 3192, 3191,
366, 3212, 3211, 3210
300003, 60456, 60455, 60454, 64922, 64903, 64884, 64921, 64902, 64883, 64920, 64901, 64882, 7, 302,
303, 304, 359, 3079, 3078, 3077, 360, 3098, 3097, 3096, 361, 3117, 3116, 3115, 362,
3136, 3135, 3134, 363, 3155, 3154, 3153, 364, 3174, 3173, 3172, 365, 3193, 3192, 3191,
366, 3212, 3211, 3210
300004, 60455, 60454, 60453, 64903, 64884, 64865, 64902, 64883, 64864, 64901, 64882, 64863, 7, 302,
303, 304, 359, 3079, 3078, 3077, 360, 3098, 3097, 3096, 361, 3117, 3116, 3115, 362,
3136, 3135, 3134, 363, 3155, 3154, 3153, 364, 3174, 3173, 3172, 365, 3193, 3192, 3191,
366, 3212, 3211, 3210
300005, 60454, 60453, 60452, 64884, 64865, 64846, 64883, 64864, 64845, 64882, 64863, 64844, 359, 3079,
3078, 3077, 360, 3098, 3097, 3096, 361, 3117, 3116, 3115, 362, 3136, 3135, 3134, 363,
3155, 3154, 3153, 364, 3174, 3173, 3172, 365, 3193, 3192, 3191, 366, 3212, 3211, 3210,
367, 3231, 3230, 3229
300006, 60453, 60452, 60451, 64865, 64846, 64827, 64864, 64845, 64826, 64863, 64844, 64825, 360, 3098,
3097, 3096, 361, 3117, 3116, 3115, 362, 3136, 3135, 3134, 363, 3155, 3154, 3153, 364,
3174, 3173, 3172, 365, 3193, 3192, 3191, 366, 3212, 3211, 3210, 367, 3231, 3230, 3229,
368, 3250, 3249, 3248
300007, 60452, 60451, 60450, 64846, 64827, 64808, 64845, 64826, 64807, 64844, 64825, 64806, 361, 3117,
3116, 3115, 362, 3136, 3135, 3134, 363, 3155, 3154, 3153, 364, 3174, 3173, 3172, 365,
3193, 3192, 3191, 366, 3212, 3211, 3210, 367, 3231, 3230, 3229, 368, 3250, 3249, 3248,
369, 3269, 3268, 3267
300008, 60451, 60450, 60449, 64827, 64808, 64789, 64826, 64807, 64788, 64825, 64806, 64787, 362, 3136,
3135, 3134, 363, 3155, 3154, 3153, 364, 3174, 3173, 3172, 365, 3193, 3192, 3191, 366,
3212, 3211, 3210, 367, 3231, 3230, 3229, 368, 3250, 3249, 3248, 369, 3269, 3268, 3267,
370, 3288, 3287, 3286
300009, 60450, 60449, 60448, 64808, 64789, 64770, 64807, 64788, 64769, 64806, 64787, 64768, 363, 3155,
3154, 3153, 364, 3174, 3173, 3172, 365, 3193, 3192, 3191, 366, 3212, 3211, 3210, 367,
3231, 3230, 3229, 368, 3250, 3249, 3248, 369, 3269, 3268, 3267, 370, 3288, 3287, 3286,
371, 3307, 3306, 3305
300010, 60449, 60448, 60447, 64789, 64770, 64751, 64788, 64769, 64750, 64787, 64768, 64749, 364, 3174,
3173, 3172, 365, 3193, 3192, 3191, 366, 3212, 3211, 3210, 367, 3231, 3230, 3229, 368,
3250, 3249, 3248, 369, 3269, 3268, 3267, 370, 3288, 3287, 3286, 371, 3307, 3306, 3305,
372, 3326, 3325, 3324
300011, 60448, 60447, 60446, 64770, 64751, 64732, 64769, 64750, 64731, 64768, 64749, 64730, 365, 3193,
3192, 3191, 366, 3212, 3211, 3210, 367, 3231, 3230, 3229, 368, 3250, 3249, 3248, 369,
3269, 3268, 3267, 370, 3288, 3287, 3286, 371, 3307, 3306, 3305, 372, 3326, 3325, 3324,
373, 3345, 3344, 3343
300012, 60447, 60446, 60445, 64751, 64732, 64713, 64750, 64731, 64712, 64749, 64730, 64711, 366, 3212,
3211, 3210, 367, 3231, 3230, 3229, 368, 3250, 3249, 3248, 369, 3269, 3268, 3267, 370,
3288, 3287, 3286, 371, 3307, 3306, 3305, 372, 3326, 3325, 3324, 373, 3345, 3344, 3343,
374, 3364, 3363, 3362
300013, 60446, 60445, 60444, 64732, 64713, 64694, 64731, 64712, 64693, 64730, 64711, 64692, 367, 3231,
3230, 3229, 368, 3250, 3249, 3248, 369, 3269, 3268, 3267, 370, 3288, 3287, 3286, 371,
3307, 3306, 3305, 372, 3326, 3325, 3324, 373, 3345, 3344, 3343, 374, 3364, 3363, 3362,
375, 3383, 3382, 3381
300014, 60445, 60444, 60443, 64713, 64694, 64675, 64712, 64693, 64674, 64711, 64692, 64673, 368, 3250,
3249, 3248, 369, 3269, 3268, 3267, 370, 3288, 3287, 3286, 371, 3307, 3306, 3305, 372,
3326, 3325, 3324, 373, 3345, 3344, 3343, 374, 3364, 3363, 3362, 375, 3383, 3382, 3381,
376, 3402, 3401, 3400
300015, 60444, 60443, 60442, 64694, 64675, 64656, 64693, 64674, 64655, 64692, 64673, 64654, 369, 3269,
3268, 3267, 370, 3288, 3287, 3286, 371, 3307, 3306, 3305, 372, 3326, 3325, 3324, 373,
3345, 3344, 3343, 374, 3364, 3363, 3362, 375, 3383, 3382, 3381, 376, 3402, 3401, 3400,
377, 3421, 3420, 3419
300016, 60443, 60442, 60441, 64675, 64656, 64637, 64674, 64655, 64636, 64673, 64654, 64635, 370, 3288,
3287, 3286, 371, 3307, 3306, 3305, 372, 3326, 3325, 3324, 373, 3345, 3344, 3343, 374,
3364, 3363, 3362, 375, 3383, 3382, 3381, 376, 3402, 3401, 3400, 377, 3421, 3420, 3419,
378, 3440, 3439, 3438
300017, 60442, 60441, 60440, 64656, 64637, 64618, 64655, 64636, 64617, 64654, 64635, 64616, 371, 3307,
3306, 3305, 372, 3326, 3325, 3324, 373, 3345, 3344, 3343, 374, 3364, 3363, 3362, 375,
3383, 3382, 3381, 376, 3402, 3401, 3400, 377, 3421, 3420, 3419, 378, 3440, 3439, 3438,
379, 3459, 3458, 3457
300018, 60441, 60440, 60439, 64637, 64618, 64599, 64636, 64617, 64598, 64635, 64616, 64597, 372, 3326,
3325, 3324, 373, 3345, 3344, 3343, 374, 3364, 3363, 3362, 375, 3383, 3382, 3381, 376,
3402, 3401, 3400, 377, 3421, 3420, 3419, 378, 3440, 3439, 3438, 379, 3459, 3458, 3457,
380, 3478, 3477, 3476
300019, 60440, 60439, 60438, 64618, 64599, 64580, 64617, 64598, 64579, 64616, 64597, 64578, 373, 3345,
3344, 3343, 374, 3364, 3363, 3362, 375, 3383, 3382, 3381, 376, 3402, 3401, 3400, 377,
3421, 3420, 3419, 378, 3440, 3439, 3438, 379, 3459, 3458, 3457, 380, 3478, 3477, 3476,
381, 3497, 3496, 3495
300020, 60439, 60438, 60437, 64599, 64580, 64561, 64598, 64579, 64560, 64597, 64578, 64559, 374, 3364,
3363, 3362, 375, 3383, 3382, 3381, 376, 3402, 3401, 3400, 377, 3421, 3420, 3419, 378,
3440, 3439, 3438, 379, 3459, 3458, 3457, 380, 3478, 3477, 3476, 381, 3497, 3496, 3495,
382, 3516, 3515, 3514
300021, 60438, 60437, 60436, 64580, 64561, 64542, 64579, 64560, 64541, 64578, 64559, 64540, 375, 3383,
3382, 3381, 376, 3402, 3401, 3400, 377, 3421, 3420, 3419, 378, 3440, 3439, 3438, 379,
3459, 3458, 3457, 380, 3478, 3477, 3476, 381, 3497, 3496, 3495, 382, 3516, 3515, 3514,
383, 3535, 3534, 3533
300022, 60437, 60436, 60435, 64561, 64542, 64523, 64560, 64541, 64522, 64559, 64540, 64521, 376, 3402,
3401, 3400, 377, 3421, 3420, 3419, 378, 3440, 3439, 3438, 379, 3459, 3458, 3457, 380,
3478, 3477, 3476, 381, 3497, 3496, 3495, 382, 3516, 3515, 3514, 383, 3535, 3534, 3533,
384, 3554, 3553, 3552
300023, 60436, 60435, 60434, 64542, 64523, 64504, 64541, 64522, 64503, 64540, 64521, 64502, 377, 3421,
3420, 3419, 378, 3440, 3439, 3438, 379, 3459, 3458, 3457, 380, 3478, 3477, 3476, 381,
3497, 3496, 3495, 382, 3516, 3515, 3514, 383, 3535, 3534, 3533, 384, 3554, 3553, 3552,
385, 3573, 3572, 3571
300024, 60435, 60434, 60433, 64523, 64504, 64485, 64522, 64503, 64484, 64521, 64502, 64483, 378, 3440,
3439, 3438, 379, 3459, 3458, 3457, 380, 3478, 3477, 3476, 381, 3497, 3496, 3495, 382,
3516, 3515, 3514, 383, 3535, 3534, 3533, 384, 3554, 3553, 3552, 385, 3573, 3572, 3571,
386, 3592, 3591, 3590
300025, 60434, 60433, 60432, 64504, 64485, 64466, 64503, 64484, 64465, 64502, 64483, 64464, 379, 3459,
3458, 3457, 380, 3478, 3477, 3476, 381, 3497, 3496, 3495, 382, 3516, 3515, 3514, 383,
3535, 3534, 3533, 384, 3554, 3553, 3552, 385, 3573, 3572, 3571, 386, 3592, 3591, 3590,
387, 3611, 3610, 3609
300026, 60433, 60432, 60431, 64485, 64466, 64447, 64484, 64465, 64446, 64483, 64464, 64445, 380, 3478,
3477, 3476, 381, 3497, 3496, 3495, 382, 3516, 3515, 3514, 383, 3535, 3534, 3533, 384,
3554, 3553, 3552, 385, 3573, 3572, 3571, 386, 3592, 3591, 3590, 387, 3611, 3610, 3609,
388, 3630, 3629, 3628
300027, 60432, 60431, 60430, 64466, 64447, 64428, 64465, 64446, 64427, 64464, 64445, 64426, 381, 3497,
3496, 3495, 382, 3516, 3515, 3514, 383, 3535, 3534, 3533, 384, 3554, 3553, 3552, 385,
3573, 3572, 3571, 386, 3592, 3591, 3590, 387, 3611, 3610, 3609, 388, 3630, 3629, 3628,
389, 3649, 3648, 3647
300028, 60431, 60430, 60429, 64447, 64428, 64409, 64446, 64427, 64408, 64445, 64426, 64407, 382, 3516,
3515, 3514, 383, 3535, 3534, 3533, 384, 3554, 3553, 3552, 385, 3573, 3572, 3571, 386,
3592, 3591, 3590, 387, 3611, 3610, 3609, 388, 3630, 3629, 3628, 389, 3649, 3648, 3647,
390, 3668, 3667, 3666
300029, 60430, 60429, 60428, 64428, 64409, 64390, 64427, 64408, 64389, 64426, 64407, 64388, 383, 3535,
3534, 3533, 384, 3554, 3553, 3552, 385, 3573, 3572, 3571, 386, 3592, 3591, 3590, 387,
3611, 3610, 3609, 388, 3630, 3629, 3628, 389, 3649, 3648, 3647, 390, 3668, 3667, 3666,
391, 3687, 3686, 3685
300030, 60429, 60428, 60427, 64409, 64390, 64371, 64408, 64389, 64370, 64407, 64388, 64369, 384, 3554,
3553, 3552, 385, 3573, 3572, 3571, 386, 3592, 3591, 3590, 387, 3611, 3610, 3609, 388,
3630, 3629, 3628, 389, 3649, 3648, 3647, 390, 3668, 3667, 3666, 391, 3687, 3686, 3685,
392, 3706, 3705, 3704
300031, 60428, 60427, 60426, 64390, 64371, 64352, 64389, 64370, 64351, 64388, 64369, 64350, 385, 3573,
3572, 3571, 386, 3592, 3591, 3590, 387, 3611, 3610, 3609, 388, 3630, 3629, 3628, 389,
3649, 3648, 3647, 390, 3668, 3667, 3666, 391, 3687, 3686, 3685, 392, 3706, 3705, 3704,
393, 3725, 3724, 3723
300032, 60427, 60426, 60425, 64371, 64352, 64333, 64370, 64351, 64332, 64369, 64350, 64331, 386, 3592,
3591, 3590, 387, 3611, 3610, 3609, 388, 3630, 3629, 3628, 389, 3649, 3648, 3647, 390,
3668, 3667, 3666, 391, 3687, 3686, 3685, 392, 3706, 3705, 3704, 393, 3725, 3724, 3723,
394, 3744, 3743, 3742
300033, 60426, 60425, 60424, 64352, 64333, 64314, 64351, 64332, 64313, 64350, 64331, 64312, 387, 3611,
3610, 3609, 388, 3630, 3629, 3628, 389, 3649, 3648, 3647, 390, 3668, 3667, 3666, 391,
3687, 3686, 3685, 392, 3706, 3705, 3704, 393, 3725, 3724, 3723, 394, 3744, 3743, 3742,
395, 3763, 3762, 3761
300034, 60425, 60424, 60423, 64333, 64314, 64295, 64332, 64313, 64294, 64331, 64312, 64293, 388, 3630,
3629, 3628, 389, 3649, 3648, 3647, 390, 3668, 3667, 3666, 391, 3687, 3686, 3685, 392,
3706, 3705, 3704, 393, 3725, 3724, 3723, 394, 3744, 3743, 3742, 395, 3763, 3762, 3761,
396, 3782, 3781, 3780
300035, 60424, 60423, 60422, 64314, 64295, 64276, 64313, 64294, 64275, 64312, 64293, 64274, 389, 3649,
3648, 3647, 390, 3668, 3667, 3666, 391, 3687, 3686, 3685, 392, 3706, 3705, 3704, 393,
3725, 3724, 3723, 394, 3744, 3743, 3742, 395, 3763, 3762, 3761, 396, 3782, 3781, 3780,
397, 3801, 3800, 3799
300036, 60423, 60422, 60421, 64295, 64276, 64257, 64294, 64275, 64256, 64293, 64274, 64255, 390, 3668,
3667, 3666, 391, 3687, 3686, 3685, 392, 3706, 3705, 3704, 393, 3725, 3724, 3723, 394,
3744, 3743, 3742, 395, 3763, 3762, 3761, 396, 3782, 3781, 3780, 397, 3801, 3800, 3799,
398, 3820, 3819, 3818
300037, 60422, 60421, 60420, 64276, 64257, 64238, 64275, 64256, 64237, 64274, 64255, 64236, 391, 3687,
3686, 3685, 392, 3706, 3705, 3704, 393, 3725, 3724, 3723, 394, 3744, 3743, 3742, 395,
3763, 3762, 3761, 396, 3782, 3781, 3780, 397, 3801, 3800, 3799, 398, 3820, 3819, 3818,
399, 3839, 3838, 3837
300038, 60421, 60420, 60419, 64257, 64238, 64219, 64256, 64237, 64218, 64255, 64236, 64217, 392, 3706,
3705, 3704, 393, 3725, 3724, 3723, 394, 3744, 3743, 3742, 395, 3763, 3762, 3761, 396,
3782, 3781, 3780, 397, 3801, 3800, 3799, 398, 3820, 3819, 3818, 399, 3839, 3838, 3837,
400, 3858, 3857, 3856
300039, 60420, 60419, 60418, 64238, 64219, 64200, 64237, 64218, 64199, 64236, 64217, 64198, 393, 3725,
3724, 3723, 394, 3744, 3743, 3742, 395, 3763, 3762, 3761, 396, 3782, 3781, 3780, 397,
3801, 3800, 3799, 398, 3820, 3819, 3818, 399, 3839, 3838, 3837, 400, 3858, 3857, 3856,
401, 3877, 3876, 3875
300040, 60419, 60418, 60417, 64219, 64200, 64181, 64218, 64199, 64180, 64217, 64198, 64179, 394, 3744,
3743, 3742, 395, 3763, 3762, 3761, 396, 3782, 3781, 3780, 397, 3801, 3800, 3799, 398,
3820, 3819, 3818, 399, 3839, 3838, 3837, 400, 3858, 3857, 3856, 401, 3877, 3876, 3875,
402, 3896, 3895, 3894
300041, 60418, 60417, 60416, 64200, 64181, 64162, 64199, 64180, 64161, 64198, 64179, 64160, 395, 3763,
3762, 3761, 396, 3782, 3781, 3780, 397, 3801, 3800, 3799, 398, 3820, 3819, 3818, 399,
3839, 3838, 3837, 400, 3858, 3857, 3856, 401, 3877, 3876, 3875, 402, 3896, 3895, 3894,
403, 3915, 3914, 3913
300042, 60417, 60416, 60415, 64181, 64162, 64143, 64180, 64161, 64142, 64179, 64160, 64141, 396, 3782,
3781, 3780, 397, 3801, 3800, 3799, 398, 3820, 3819, 3818, 399, 3839, 3838, 3837, 400,
3858, 3857, 3856, 401, 3877, 3876, 3875, 402, 3896, 3895, 3894, 403, 3915, 3914, 3913,
404, 3934, 3933, 3932
300043, 60416, 60415, 60414, 64162, 64143, 64124, 64161, 64142, 64123, 64160, 64141, 64122, 397, 3801,
3800, 3799, 398, 3820, 3819, 3818, 399, 3839, 3838, 3837, 400, 3858, 3857, 3856, 401,
3877, 3876, 3875, 402, 3896, 3895, 3894, 403, 3915, 3914, 3913, 404, 3934, 3933, 3932,
405, 3953, 3952, 3951
300044, 60415, 60414, 60413, 64143, 64124, 64105, 64142, 64123, 64104, 64141, 64122, 64103, 398, 3820,
3819, 3818, 399, 3839, 3838, 3837, 400, 3858, 3857, 3856, 401, 3877, 3876, 3875, 402,
3896, 3895, 3894, 403, 3915, 3914, 3913, 404, 3934, 3933, 3932, 405, 3953, 3952, 3951,
406, 3972, 3971, 3970
300045, 60414, 60413, 60412, 64124, 64105, 64086, 64123, 64104, 64085, 64122, 64103, 64084, 399, 3839,
3838, 3837, 400, 3858, 3857, 3856, 401, 3877, 3876, 3875, 402, 3896, 3895, 3894, 403,
3915, 3914, 3913, 404, 3934, 3933, 3932, 405, 3953, 3952, 3951, 406, 3972, 3971, 3970,
407, 3991, 3990, 3989
300046, 60413, 60412, 60411, 64105, 64086, 64067, 64104, 64085, 64066, 64103, 64084, 64065, 400, 3858,
3857, 3856, 401, 3877, 3876, 3875, 402, 3896, 3895, 3894, 403, 3915, 3914, 3913, 404,
3934, 3933, 3932, 405, 3953, 3952, 3951, 406, 3972, 3971, 3970, 407, 3991, 3990, 3989,
408, 4010, 4009, 4008
300047, 60412, 60411, 60410, 64086, 64067, 64048, 64085, 64066, 64047, 64084, 64065, 64046, 401, 3877,
3876, 3875, 402, 3896, 3895, 3894, 403, 3915, 3914, 3913, 404, 3934, 3933, 3932, 405,
3953, 3952, 3951, 406, 3972, 3971, 3970, 407, 3991, 3990, 3989, 408, 4010, 4009, 4008,
409, 4029, 4028, 4027
300048, 60411, 60410, 60409, 64067, 64048, 64029, 64066, 64047, 64028, 64065, 64046, 64027, 402, 3896,
3895, 3894, 403, 3915, 3914, 3913, 404, 3934, 3933, 3932, 405, 3953, 3952, 3951, 406,
3972, 3971, 3970, 407, 3991, 3990, 3989, 408, 4010, 4009, 4008, 409, 4029, 4028, 4027,
410, 4048, 4047, 4046
300049, 60410, 60409, 60408, 64048, 64029, 64010, 64047, 64028, 64009, 64046, 64027, 64008, 403, 3915,
3914, 3913, 404, 3934, 3933, 3932, 405, 3953, 3952, 3951, 406, 3972, 3971, 3970, 407,
3991, 3990, 3989, 408, 4010, 4009, 4008, 409, 4029, 4028, 4027, 410, 4048, 4047, 4046,
411, 4067, 4066, 4065
300050, 60409, 60408, 60407, 64029, 64010, 63991, 64028, 64009, 63990, 64027, 64008, 63989, 404, 3934,
3933, 3932, 405, 3953, 3952, 3951, 406, 3972, 3971, 3970, 407, 3991, 3990, 3989, 408,
4010, 4009, 4008, 409, 4029, 4028, 4027, 410, 4048, 4047, 4046, 411, 4067, 4066, 4065,
412, 4086, 4085, 4084
300051, 60408, 60407, 60406, 64010, 63991, 63972, 64009, 63990, 63971, 64008, 63989, 63970, 405, 3953,
3952, 3951, 406, 3972, 3971, 3970, 407, 3991, 3990, 3989, 408, 4010, 4009, 4008, 409,
4029, 4028, 4027, 410, 4048, 4047, 4046, 411, 4067, 4066, 4065, 412, 4086, 4085, 4084,
413, 4105, 4104, 4103
300052, 60407, 60406, 60405, 63991, 63972, 63953, 63990, 63971, 63952, 63989, 63970, 63951, 406, 3972,
3971, 3970, 407, 3991, 3990, 3989, 408, 4010, 4009, 4008, 409, 4029, 4028, 4027, 410,
4048, 4047, 4046, 411, 4067, 4066, 4065, 412, 4086, 4085, 4084, 413, 4105, 4104, 4103,
414, 4124, 4123, 4122
300053, 60406, 60405, 60404, 63972, 63953, 63934, 63971, 63952, 63933, 63970, 63951, 63932, 407, 3991,
3990, 3989, 408, 4010, 4009, 4008, 409, 4029, 4028, 4027, 410, 4048, 4047, 4046, 411,
4067, 4066, 4065, 412, 4086, 4085, 4084, 413, 4105, 4104, 4103, 414, 4124, 4123, 4122,
415, 4143, 4142, 4141
300054, 60405, 60404, 60403, 63953, 63934, 63915, 63952, 63933, 63914, 63951, 63932, 63913, 408, 4010,
4009, 4008, 409, 4029, 4028, 4027, 410, 4048, 4047, 4046, 411, 4067, 4066, 4065, 412,
4086, 4085, 4084, 413, 4105, 4104, 4103, 414, 4124, 4123, 4122, 415, 4143, 4142, 4141,
416, 4162, 4161, 4160
300055, 60404, 60403, 60402, 63934, 63915, 63896, 63933, 63914, 63895, 63932, 63913, 63894, 409, 4029,
4028, 4027, 410, 4048, 4047, 4046, 411, 4067, 4066, 4065, 412, 4086, 4085, 4084, 413,
4105, 4104, 4103, 414, 4124, 4123, 4122, 415, 4143, 4142, 4141, 416, 4162, 4161, 4160,
417, 4181, 4180, 4179
300056, 60403, 60402, 60401, 63915, 63896, 63877, 63914, 63895, 63876, 63913, 63894, 63875, 410, 4048,
4047, 4046, 411, 4067, 4066, 4065, 412, 4086, 4085, 4084, 413, 4105, 4104, 4103, 414,
4124, 4123, 4122, 415, 4143, 4142, 4141, 416, 4162, 4161, 4160, 417, 4181, 4180, 4179,
418, 4200, 4199, 4198
300057, 60402, 60401, 60400, 63896, 63877, 63858, 63895, 63876, 63857, 63894, 63875, 63856, 411, 4067,
4066, 4065, 412, 4086, 4085, 4084, 413, 4105, 4104, 4103, 414, 4124, 4123, 4122, 415,
4143, 4142, 4141, 416, 4162, 4161, 4160, 417, 4181, 4180, 4179, 418, 4200, 4199, 4198,
419, 4219, 4218, 4217
300058, 60401, 60400, 60399, 63877, 63858, 63839, 63876, 63857, 63838, 63875, 63856, 63837, 412, 4086,
4085, 4084, 413, 4105, 4104, 4103, 414, 4124, 4123, 4122, 415, 4143, 4142, 4141, 416,
4162, 4161, 4160, 417, 4181, 4180, 4179, 418, 4200, 4199, 4198, 419, 4219, 4218, 4217,
420, 4238, 4237, 4236
300059, 60400, 60399, 60398, 63858, 63839, 63820, 63857, 63838, 63819, 63856, 63837, 63818, 413, 4105,
4104, 4103, 414, 4124, 4123, 4122, 415, 4143, 4142, 4141, 416, 4162, 4161, 4160, 417,
4181, 4180, 4179, 418, 4200, 4199, 4198, 419, 4219, 4218, 4217, 420, 4238, 4237, 4236,
421, 4257, 4256, 4255
300060, 60399, 60398, 60397, 63839, 63820, 63801, 63838, 63819, 63800, 63837, 63818, 63799, 414, 4124,
4123, 4122, 415, 4143, 4142, 4141, 416, 4162, 4161, 4160, 417, 4181, 4180, 4179, 418,
4200, 4199, 4198, 419, 4219, 4218, 4217, 420, 4238, 4237, 4236, 421, 4257, 4256, 4255,
422, 4276, 4275, 4274
300061, 60398, 60397, 60396, 63820, 63801, 63782, 63819, 63800, 63781, 63818, 63799, 63780, 415, 4143,
4142, 4141, 416, 4162, 4161, 4160, 417, 4181, 4180, 4179, 418, 4200, 4199, 4198, 419,
4219, 4218, 4217, 420, 4238, 4237, 4236, 421, 4257, 4256, 4255, 422, 4276, 4275, 4274,
423, 4295, 4294, 4293
300062, 60397, 60396, 60395, 63801, 63782, 63763, 63800, 63781, 63762, 63799, 63780, 63761, 416, 4162,
4161, 4160, 417, 4181, 4180, 4179, 418, 4200, 4199, 4198, 419, 4219, 4218, 4217, 420,
4238, 4237, 4236, 421, 4257, 4256, 4255, 422, 4276, 4275, 4274, 423, 4295, 4294, 4293,
424, 4314, 4313, 4312
300063, 60396, 60395, 60394, 63782, 63763, 63744, 63781, 63762, 63743, 63780, 63761, 63742, 417, 4181,
4180, 4179, 418, 4200, 4199, 4198, 419, 4219, 4218, 4217, 420, 4238, 4237, 4236, 421,
4257, 4256, 4255, 422, 4276, 4275, 4274, 423, 4295, 4294, 4293, 424, 4314, 4313, 4312,
425, 4333, 4332, 4331
300064, 60395, 60394, 60393, 63763, 63744, 63725, 63762, 63743, 63724, 63761, 63742, 63723, 418, 4200,
4199, 4198, 419, 4219, 4218, 4217, 420, 4238, 4237, 4236, 421, 4257, 4256, 4255, 422,
4276, 4275, 4274, 423, 4295, 4294, 4293, 424, 4314, 4313, 4312, 425, 4333, 4332, 4331,
426, 4352, 4351, 4350
300065, 60394, 60393, 60392, 63744, 63725, 63706, 63743, 63724, 63705, 63742, 63723, 63704, 419, 4219,
4218, 4217, 420, 4238, 4237, 4236, 421, 4257, 4256, 4255, 422, 4276, 4275, 4274, 423,
4295, 4294, 4293, 424, 4314, 4313, 4312, 425, 4333, 4332, 4331, 426, 4352, 4351, 4350,
427, 4371, 4370, 4369
300066, 60393, 60392, 60391, 63725, 63706, 63687, 63724, 63705, 63686, 63723, 63704, 63685, 420, 4238,
4237, 4236, 421, 4257, 4256, 4255, 422, 4276, 4275, 4274, 423, 4295, 4294, 4293, 424,
4314, 4313, 4312, 425, 4333, 4332, 4331, 426, 4352, 4351, 4350, 427, 4371, 4370, 4369,
428, 4390, 4389, 4388
300067, 60392, 60391, 60390, 63706, 63687, 63668, 63705, 63686, 63667, 63704, 63685, 63666, 421, 4257,
4256, 4255, 422, 4276, 4275, 4274, 423, 4295, 4294, 4293, 424, 4314, 4313, 4312, 425,
4333, 4332, 4331, 426, 4352, 4351, 4350, 427, 4371, 4370, 4369, 428, 4390, 4389, 4388,
429, 4409, 4408, 4407
300068, 60391, 60390, 60389, 63687, 63668, 63649, 63686, 63667, 63648, 63685, 63666, 63647, 422, 4276,
4275, 4274, 423, 4295, 4294, 4293, 424, 4314, 4313, 4312, 425, 4333, 4332, 4331, 426,
4352, 4351, 4350, 427, 4371, 4370, 4369, 428, 4390, 4389, 4388, 429, 4409, 4408, 4407,
430, 4428, 4427, 4426
300069, 60390, 60389, 60388, 63668, 63649, 63630, 63667, 63648, 63629, 63666, 63647, 63628, 423, 4295,
4294, 4293, 424, 4314, 4313, 4312, 425, 4333, 4332, 4331, 426, 4352, 4351, 4350, 427,
4371, 4370, 4369, 428, 4390, 4389, 4388, 429, 4409, 4408, 4407, 430, 4428, 4427, 4426,
431, 4447, 4446, 4445
300070, 60389, 60388, 60387, 63649, 63630, 63611, 63648, 63629, 63610, 63647, 63628, 63609, 424, 4314,
4313, 4312, 425, 4333, 4332, 4331, 426, 4352, 4351, 4350, 427, 4371, 4370, 4369, 428,
4390, 4389, 4388, 429, 4409, 4408, 4407, 430, 4428, 4427, 4426, 431, 4447, 4446, 4445,
432, 4466, 4465, 4464
300071, 60388, 60387, 60386, 63630, 63611, 63592, 63629, 63610, 63591, 63628, 63609, 63590, 425, 4333,
4332, 4331, 426, 4352, 4351, 4350, 427, 4371, 4370, 4369, 428, 4390, 4389, 4388, 429,
4409, 4408, 4407, 430, 4428, 4427, 4426, 431, 4447, 4446, 4445, 432, 4466, 4465, 4464,
433, 4485, 4484, 4483
300072, 60387, 60386, 60385, 63611, 63592, 63573, 63610, 63591, 63572, 63609, 63590, 63571, 426, 4352,
4351, 4350, 427, 4371, 4370, 4369, 428, 4390, 4389, 4388, 429, 4409, 4408, 4407, 430,
4428, 4427, 4426, 431, 4447, 4446, 4445, 432, 4466, 4465, 4464, 433, 4485, 4484, 4483,
434, 4504, 4503, 4502
300073, 60386, 60385, 60384, 63592, 63573, 63554, 63591, 63572, 63553, 63590, 63571, 63552, 427, 4371,
4370, 4369, 428, 4390, 4389, 4388, 429, 4409, 4408, 4407, 430, 4428, 4427, 4426, 431,
4447, 4446, 4445, 432, 4466, 4465, 4464, 433, 4485, 4484, 4483, 434, 4504, 4503, 4502,
435, 4523, 4522, 4521
300074, 60385, 60384, 60383, 63573, 63554, 63535, 63572, 63553, 63534, 63571, 63552, 63533, 428, 4390,
4389, 4388, 429, 4409, 4408, 4407, 430, 4428, 4427, 4426, 431, 4447, 4446, 4445, 432,
4466, 4465, 4464, 433, 4485, 4484, 4483, 434, 4504, 4503, 4502, 435, 4523, 4522, 4521,
436, 4542, 4541, 4540
300075, 60384, 60383, 60382, 63554, 63535, 63516, 63553, 63534, 63515, 63552, 63533, 63514, 429, 4409,
4408, 4407, 430, 4428, 4427, 4426, 431, 4447, 4446, 4445, 432, 4466, 4465, 4464, 433,
4485, 4484, 4483, 434, 4504, 4503, 4502, 435, 4523, 4522, 4521, 436, 4542, 4541, 4540,
437, 4561, 4560, 4559
300076, 60383, 60382, 60381, 63535, 63516, 63497, 63534, 63515, 63496, 63533, 63514, 63495, 430, 4428,
4427, 4426, 431, 4447, 4446, 4445, 432, 4466, 4465, 4464, 433, 4485, 4484, 4483, 434,
4504, 4503, 4502, 435, 4523, 4522, 4521, 436, 4542, 4541, 4540, 437, 4561, 4560, 4559,
438, 4580, 4579, 4578
300077, 60382, 60381, 60380, 63516, 63497, 63478, 63515, 63496, 63477, 63514, 63495, 63476, 431, 4447,
4446, 4445, 432, 4466, 4465, 4464, 433, 4485, 4484, 4483, 434, 4504, 4503, 4502, 435,
4523, 4522, 4521, 436, 4542, 4541, 4540, 437, 4561, 4560, 4559, 438, 4580, 4579, 4578,
439, 4599, 4598, 4597
300078, 60381, 60380, 60379, 63497, 63478, 63459, 63496, 63477, 63458, 63495, 63476, 63457, 432, 4466,
4465, 4464, 433, 4485, 4484, 4483, 434, 4504, 4503, 4502, 435, 4523, 4522, 4521, 436,
4542, 4541, 4540, 437, 4561, 4560, 4559, 438, 4580, 4579, 4578, 439, 4599, 4598, 4597,
440, 4618, 4617, 4616
300079, 60380, 60379, 60378, 63478, 63459, 63440, 63477, 63458, 63439, 63476, 63457, 63438, 433, 4485,
4484, 4483, 434, 4504, 4503, 4502, 435, 4523, 4522, 4521, 436, 4542, 4541, 4540, 437,
4561, 4560, 4559, 438, 4580, 4579, 4578, 439, 4599, 4598, 4597, 440, 4618, 4617, 4616,
441, 4637, 4636, 4635
300080, 60379, 60378, 60377, 63459, 63440, 63421, 63458, 63439, 63420, 63457, 63438, 63419, 434, 4504,
4503, 4502, 435, 4523, 4522, 4521, 436, 4542, 4541, 4540, 437, 4561, 4560, 4559, 438,
4580, 4579, 4578, 439, 4599, 4598, 4597, 440, 4618, 4617, 4616, 441, 4637, 4636, 4635,
442, 4656, 4655, 4654
300081, 60378, 60377, 60376, 63440, 63421, 63402, 63439, 63420, 63401, 63438, 63419, 63400, 435, 4523,
4522, 4521, 436, 4542, 4541, 4540, 437, 4561, 4560, 4559, 438, 4580, 4579, 4578, 439,
4599, 4598, 4597, 440, 4618, 4617, 4616, 441, 4637, 4636, 4635, 442, 4656, 4655, 4654,
443, 4675, 4674, 4673
300082, 60377, 60376, 60375, 63421, 63402, 63383, 63420, 63401, 63382, 63419, 63400, 63381, 436, 4542,
4541, 4540, 437, 4561, 4560, 4559, 438, 4580, 4579, 4578, 439, 4599, 4598, 4597, 440,
4618, 4617, 4616, 441, 4637, 4636, 4635, 442, 4656, 4655, 4654, 443, 4675, 4674, 4673,
444, 4694, 4693, 4692
300083, 60376, 60375, 60374, 63402, 63383, 63364, 63401, 63382, 63363, 63400, 63381, 63362, 437, 4561,
4560, 4559, 438, 4580, 4579, 4578, 439, 4599, 4598, 4597, 440, 4618, 4617, 4616, 441,
4637, 4636, 4635, 442, 4656, 4655, 4654, 443, 4675, 4674, 4673, 444, 4694, 4693, 4692,
445, 4713, 4712, 4711
300084, 60375, 60374, 60373, 63383, 63364, 63345, 63382, 63363, 63344, 63381, 63362, 63343, 438, 4580,
4579, 4578, 439, 4599, 4598, 4597, 440, 4618, 4617, 4616, 441, 4637, 4636, 4635, 442,
4656, 4655, 4654, 443, 4675, 4674, 4673, 444, 4694, 4693, 4692, 445, 4713, 4712, 4711,
446, 4732, 4731, 4730
300085, 60374, 60373, 60372, 63364, 63345, 63326, 63363, 63344, 63325, 63362, 63343, 63324, 439, 4599,
4598, 4597, 440, 4618, 4617, 4616, 441, 4637, 4636, 4635, 442, 4656, 4655, 4654, 443,
4675, 4674, 4673, 444, 4694, 4693, 4692, 445, 4713, 4712, 4711, 446, 4732, 4731, 4730,
447, 4751, 4750, 4749
300086, 60373, 60372, 60371, 63345, 63326, 63307, 63344, 63325, 63306, 63343, 63324, 63305, 440, 4618,
4617, 4616, 441, 4637, 4636, 4635, 442, 4656, 4655, 4654, 443, 4675, 4674, 4673, 444,
4694, 4693, 4692, 445, 4713, 4712, 4711, 446, 4732, 4731, 4730, 447, 4751, 4750, 4749,
448, 4770, 4769, 4768
300087, 60372, 60371, 60370, 63326, 63307, 63288, 63325, 63306, 63287, 63324, 63305, 63286, 441, 4637,
4636, 4635, 442, 4656, 4655, 4654, 443, 4675, 4674, 4673, 444, 4694, 4693, 4692, 445,
4713, 4712, 4711, 446, 4732, 4731, 4730, 447, 4751, 4750, 4749, 448, 4770, 4769, 4768,
449, 4789, 4788, 4787
300088, 60371, 60370, 60369, 63307, 63288, 63269, 63306, 63287, 63268, 63305, 63286, 63267, 442, 4656,
4655, 4654, 443, 4675, 4674, 4673, 444, 4694, 4693, 4692, 445, 4713, 4712, 4711, 446,
4732, 4731, 4730, 447, 4751, 4750, 4749, 448, 4770, 4769, 4768, 449, 4789, 4788, 4787,
450, 4808, 4807, 4806
300089, 60370, 60369, 60368, 63288, 63269, 63250, 63287, 63268, 63249, 63286, 63267, 63248, 443, 4675,
4674, 4673, 444, 4694, 4693, 4692, 445, 4713, 4712, 4711, 446, 4732, 4731, 4730, 447,
4751, 4750, 4749, 448, 4770, 4769, 4768, 449, 4789, 4788, 4787, 450, 4808, 4807, 4806,
451, 4827, 4826, 4825
300090, 60369, 60368, 60367, 63269, 63250, 63231, 63268, 63249, 63230, 63267, 63248, 63229, 444, 4694,
4693, 4692, 445, 4713, 4712, 4711, 446, 4732, 4731, 4730, 447, 4751, 4750, 4749, 448,
4770, 4769, 4768, 449, 4789, 4788, 4787, 450, 4808, 4807, 4806, 451, 4827, 4826, 4825,
452, 4846, 4845, 4844
300091, 60368, 60367, 60366, 63250, 63231, 63212, 63249, 63230, 63211, 63248, 63229, 63210, 445, 4713,
4712, 4711, 446, 4732, 4731, 4730, 447, 4751, 4750, 4749, 448, 4770, 4769, 4768, 449,
4789, 4788, 4787, 450, 4808, 4807, 4806, 451, 4827, 4826, 4825, 452, 4846, 4845, 4844,
453, 4865, 4864, 4863
300092, 60367, 60366, 60365, 63231, 63212, 63193, 63230, 63211, 63192, 63229, 63210, 63191, 446, 4732,
4731, 4730, 447, 4751, 4750, 4749, 448, 4770, 4769, 4768, 449, 4789, 4788, 4787, 450,
4808, 4807, 4806, 451, 4827, 4826, 4825, 452, 4846, 4845, 4844, 453, 4865, 4864, 4863,
454, 4884, 4883, 4882
300093, 60366, 60365, 60364, 63212, 63193, 63174, 63211, 63192, 63173, 63210, 63191, 63172, 447, 4751,
4750, 4749, 448, 4770, 4769, 4768, 449, 4789, 4788, 4787, 450, 4808, 4807, 4806, 451,
4827, 4826, 4825, 452, 4846, 4845, 4844, 453, 4865, 4864, 4863, 454, 4884, 4883, 4882,
455, 4903, 4902, 4901
300094, 60365, 60364, 60363, 63193, 63174, 63155, 63192, 63173, 63154, 63191, 63172, 63153, 448, 4770,
4769, 4768, 449, 4789, 4788, 4787, 450, 4808, 4807, 4806, 451, 4827, 4826, 4825, 452,
4846, 4845, 4844, 453, 4865, 4864, 4863, 454, 4884, 4883, 4882, 455, 4903, 4902, 4901,
456, 4922, 4921, 4920
300095, 60364, 60363, 60362, 63174, 63155, 63136, 63173, 63154, 63135, 63172, 63153, 63134, 449, 4789,
4788, 4787, 450, 4808, 4807, 4806, 451, 4827, 4826, 4825, 452, 4846, 4845, 4844, 453,
4865, 4864, 4863, 454, 4884, 4883, 4882, 455, 4903, 4902, 4901, 456, 4922, 4921, 4920,
457, 4941, 4940, 4939
300096, 60363, 60362, 60361, 63155, 63136, 63117, 63154, 63135, 63116, 63153, 63134, 63115, 450, 4808,
4807, 4806, 451, 4827, 4826, 4825, 452, 4846, 4845, 4844, 453, 4865, 4864, 4863, 454,
4884, 4883, 4882, 455, 4903, 4902, 4901, 456, 4922, 4921, 4920, 457, 4941, 4940, 4939,
5, 263, 262, 261
300097, 60362, 60361, 60360, 63136, 63117, 63098, 63135, 63116, 63097, 63134, 63115, 63096, 450, 4808,
4807, 4806, 451, 4827, 4826, 4825, 452, 4846, 4845, 4844, 453, 4865, 4864, 4863, 454,
4884, 4883, 4882, 455, 4903, 4902, 4901, 456, 4922, 4921, 4920, 457, 4941, 4940, 4939,
5, 263, 262, 261
300098, 60361, 60360, 60359, 63117, 63098, 63079, 63116, 63097, 63078, 63115, 63096, 63077, 450, 4808,
4807, 4806, 451, 4827, 4826, 4825, 452, 4846, 4845, 4844, 453, 4865, 4864, 4863, 454,
4884, 4883, 4882, 455, 4903, 4902, 4901, 456, 4922, 4921, 4920, 457, 4941, 4940, 4939,
5, 263, 262, 261
300099, 60360, 60359, 60007, 63098, 63079, 60302, 63097, 63078, 60303, 63096, 63077, 60304, 450, 4808,
4807, 4806, 451, 4827, 4826, 4825, 452, 4846, 4845, 4844, 453, 4865, 4864, 4863, 454,
4884, 4883, 4882, 455, 4903, 4902, 4901, 456, 4922, 4921, 4920, 457, 4941, 4940, 4939,
5, 263, 262, 261
*UEL PROPERTY, ELSET=CONTACT
200000000, 20000000, 0.9, 3, 9, 300000, 2.9e-08, 1.9e-08,
100, 4, 0.001
*ELEMENT, TYPE=CPE4, ELSET=GHOST
182801, 60002, 60320, 63061, 60028
182802, 60320, 60319, 63062, 63061
182803, 60319, 60318, 63063, 63062
182804, 60318, 60317, 63064, 63063
182805, 60317, 60316, 63065, 63064
182806, 60316, 60315, 63066, 63065
182807, 60315, 60314, 63067, 63066
182808, 60314, 60313, 63068, 63067
182809, 60313, 60312, 63069, 63068
182810, 60312, 60311, 63070, 63069
182811, 60311, 60310, 63071, 63070
182812, 60310, 60309, 63072, 63071
182813, 60309, 60308, 63073, 63072
182814, 60308, 60307, 63074, 63073
182815, 60307, 60306, 63075, 63074
182816, 60306, 60305, 63076, 63075
182817, 60305, 60304, 63077, 63076
182818, 60304, 60303, 63078, 63077
182819, 60303, 60302, 63079, 63078
182820, 60302, 60007, 60359, 63079
182821, 60028, 63061, 63080, 60029
182822, 63061, 63062, 63081, 63080
182823, 63062, 63063, 63082, 63081
182824, 63063, 63064, 63083, 63082
182825, 63064, 63065, 63084, 63083
182826, 63065, 63066, 63085, 63084
182827, 63066, 63067, 63086, 63085
182828, 63067, 63068, 63087, 63086
182829, 63068, 63069, 63088, 63087
182830, 63069, 63070, 63089, 63088
182831, 63070, 63071, 63090, 63089
182832, 63071, 63072, 63091, 63090
182833, 63072, 63073, 63092, 63091
182834, 63073, 63074, 63093, 63092
182835, 63074, 63075, 63094, 63093
182836, 63075, 63076, 63095, 63094
182837, 63076, 63077, 63096, 63095
182838, 63077, 63078, 63097, 63096
182839, 63078, 63079, 63098, 63097
182840, 63079, 60359, 60360, 63098
182841, 60029, 63080, 63099, 60030
182842, 63080, 63081, 63100, 63099
182843, 63081, 63082, 63101, 63100
182844, 63082, 63083, 63102, 63101
182845, 63083, 63084, 63103, 63102
182846, 63084, 63085, 63104, 63103
182847, 63085, 63086, 63105, 63104
182848, 63086, 63087, 63106, 63105
182849, 63087, 63088, 63107, 63106
182850, 63088, 63089, 63108, 63107
182851, 63089, 63090, 63109, 63108
182852, 63090, 63091, 63110, 63109
182853, 63091, 63092, 63111, 63110
182854, 63092, 63093, 63112, 63111
182855, 63093, 63094, 63113, 63112
182856, 63094, 63095, 63114, 63113
182857, 63095, 63096, 63115, 63114
182858, 63096, 63097, 63116, 63115
182859, 63097, 63098, 63117, 63116
182860, 63098, 60360, 60361, 63117
182861, 60030, 63099, 63118, 60031
182862, 63099, 63100, 63119, 63118
182863, 63100, 63101, 63120, 63119
182864, 63101, 63102, 63121, 63120
182865, 63102, 63103, 63122, 63121
182866, 63103, 63104, 63123, 63122
182867, 63104, 63105, 63124, 63123
182868, 63105, 63106, 63125, 63124
182869, 63106, 63107, 63126, 63125
182870, 63107, 63108, 63127, 63126
182871, 63108, 63109, 63128, 63127
182872, 63109, 63110, 63129, 63128
182873, 63110, 63111, 63130, 63129
182874, 63111, 63112, 63131, 63130
182875, 63112, 63113, 63132, 63131
182876, 63113, 63114, 63133, 63132
182877, 63114, 63115, 63134, 63133
182878, 63115, 63116, 63135, 63134
182879, 63116, 63117, 63136, 63135
182880, 63117, 60361, 60362, 63136
182881, 60031, 63118, 63137, 60032
182882, 63118, 63119, 63138, 63137
182883, 63119, 63120, 63139, 63138
182884, 63120, 63121, 63140, 63139
182885, 63121, 63122, 63141, 63140
182886, 63122, 63123, 63142, 63141
182887, 63123, 63124, 63143, 63142
182888, 63124, 63125, 63144, 63143
182889, 63125, 63126, 63145, 63144
182890, 63126, 63127, 63146, 63145
182891, 63127, 63128, 63147, 63146
182892, 63128, 63129, 63148, 63147
182893, 63129, 63130, 63149, 63148
182894, 63130, 63131, 63150, 63149
182895, 63131, 63132, 63151, 63150
182896, 63132, 63133, 63152, 63151
182897, 63133, 63134, 63153, 63152
182898, 63134, 63135, 63154, 63153
182899, 63135, 63136, 63155, 63154
182900, 63136, 60362, 60363, 63155
182901, 60032, 63137, 63156, 60033
182902, 63137, 63138, 63157, 63156
182903, 63138, 63139, 63158, 63157
182904, 63139, 63140, 63159, 63158
182905, 63140, 63141, 63160, 63159
182906, 63141, 63142, 63161, 63160
182907, 63142, 63143, 63162, 63161
182908, 63143, 63144, 63163, 63162
182909, 63144, 63145, 63164, 63163
182910, 63145, 63146, 63165, 63164
182911, 63146, 63147, 63166, 63165
182912, 63147, 63148, 63167, 63166
182913, 63148, 63149, 63168, 63167
182914, 63149, 63150, 63169, 63168
182915, 63150, 63151, 63170, 63169
182916, 63151, 63152, 63171, 63170
182917, 63152, 63153, 63172, 63171
182918, 63153, 63154, 63173, 63172
182919, 63154, 63155, 63174, 63173
182920, 63155, 60363, 60364, 63174
182921, 60033, 63156, 63175, 60034
182922, 63156, 63157, 63176, 63175
182923, 63157, 63158, 63177, 63176
182924, 63158, 63159, 63178, 63177
182925, 63159, 63160, 63179, 63178
182926, 63160, 63161, 63180, 63179
182927, 63161, 63162, 63181, 63180
182928, 63162, 63163, 63182, 63181
182929, 63163, 63164, 63183, 63182
182930, 63164, 63165, 63184, 63183
182931, 63165, 63166, 63185, 63184
182932, 63166, 63167, 63186, 63185
182933, 63167, 63168, 63187, 63186
182934, 63168, 63169, 63188, 63187
182935, 63169, 63170, 63189, 63188
182936, 63170, 63171, 63190, 63189
182937, 63171, 63172, 63191, 63190
182938, 63172, 63173, 63192, 63191
182939, 63173, 63174, 63193, 63192
182940, 63174, 60364, 60365, 63193
182941, 60034, 63175, 63194, 60035
182942, 63175, 63176, 63195, 63194
182943, 63176, 63177, 63196, 63195
182944, 63177, 63178, 63197, 63196
182945, 63178, 63179, 63198, 63197
182946, 63179, 63180, 63199, 63198
182947, 63180, 63181, 63200, 63199
182948, 63181, 63182, 63201, 63200
182949, 63182, 63183, 63202, 63201
182950, 63183, 63184, 63203, 63202
182951, 63184, 63185, 63204, 63203
182952, 63185, 63186, 63205, 63204
182953, 63186, 63187, 63206, 63205
182954, 63187, 63188, 63207, 63206
182955, 63188, 63189, 63208, 63207
182956, 63189, 63190, 63209, 63208
182957, 63190, 63191, 63210, 63209
182958, 63191, 63192, 63211, 63210
182959, 63192, 63193, 63212, 63211
182960, 63193, 60365, 60366, 63212
182961, 60035, 63194, 63213, 60036
182962, 63194, 63195, 63214, 63213
182963, 63195, 63196, 63215, 63214
182964, 63196, 63197, 63216, 63215
182965, 63197, 63198, 63217, 63216
182966, 63198, 63199, 63218, 63217
182967, 63199, 63200, 63219, 63218
182968, 63200, 63201, 63220, 63219
182969, 63201, 63202, 63221, 63220
182970, 63202, 63203, 63222, 63221
182971, 63203, 63204, 63223, 63222
182972, 63204, 63205, 63224, 63223
182973, 63205, 63206, 63225, 63224
182974, 63206, 63207, 63226, 63225
182975, 63207, 63208, 63227, 63226
182976, 63208, 63209, 63228, 63227
182977, 63209, 63210, 63229, 63228
182978, 63210, 63211, 63230, 63229
182979, 63211, 63212, 63231, 63230
182980, 63212, 60366, 60367, 63231
182981, 60036, 63213, 63232, 60037
182982, 63213, 63214, 63233, 63232
182983, 63214, 63215, 63234, 63233
182984, 63215, 63216, 63235, 63234
182985, 63216, 63217, 63236, 63235
182986, 63217, 63218, 63237, 63236
182987, 63218, 63219, 63238, 63237
182988, 63219, 63220, 63239, 63238
182989, 63220, 63221, 63240, 63239
182990, 63221, 63222, 63241, 63240
182991, 63222, 63223, 63242, 63241
182992, 63223, 63224, 63243, 63242
182993, 63224, 63225, 63244, 63243
182994, 63225, 63226, 63245, 63244
182995, 63226, 63227, 63246, 63245
182996, 63227, 63228, 63247, 63246
182997, 63228, 63229, 63248, 63247
182998, 63229, 63230, 63249, 63248
182999, 63230, 63231, 63250, 63249
183000, 63231, 60367, 60368, 63250
183001, 60037, 63232, 63251, 60038
183002, 63232, 63233, 63252, 63251
183003, 63233, 63234, 63253, 63252
183004, 63234, 63235, 63254, 63253
183005, 63235, 63236, 63255, 63254
183006, 63236, 63237, 63256, 63255
183007, 63237, 63238, 63257, 63256
183008, 63238, 63239, 63258, 63257
183009, 63239, 63240, 63259, 63258
183010, 63240, 63241, 63260, 63259
183011, 63241, 63242, 63261, 63260
183012, 63242, 63243, 63262, 63261
183013, 63243, 63244, 63263, 63262
183014, 63244, 63245, 63264, 63263
183015, 63245, 63246, 63265, 63264
183016, 63246, 63247, 63266, 63265
183017, 63247, 63248, 63267, 63266
183018, 63248, 63249, 63268, 63267
183019, 63249, 63250, 63269, 63268
183020, 63250, 60368, 60369, 63269
183021, 60038, 63251, 63270, 60039
183022, 63251, 63252, 63271, 63270
183023, 63252, 63253, 63272, 63271
183024, 63253, 63254, 63273, 63272
183025, 63254, 63255, 63274, 63273
183026, 63255, 63256, 63275, 63274
183027, 63256, 63257, 63276, 63275
183028, 63257, 63258, 63277, 63276
183029, 63258, 63259, 63278, 63277
183030, 63259, 63260, 63279, 63278
183031, 63260, 63261, 63280, 63279
183032, 63261, 63262, 63281, 63280
183033, 63262, 63263, 63282, 63281
183034, 63263, 63264, 63283, 63282
183035, 63264, 63265, 63284, 63283
183036, 63265, 63266, 63285, 63284
183037, 63266, 63267, 63286, 63285
183038, 63267, 63268, 63287, 63286
183039, 63268, 63269, 63288, 63287
183040, 63269, 60369, 60370, 63288
183041, 60039, 63270, 63289, 60040
183042, 63270, 63271, 63290, 63289
183043, 63271, 63272, 63291, 63290
183044, 63272, 63273, 63292, 63291
183045, 63273, 63274, 63293, 63292
183046, 63274, 63275, 63294, 63293
183047, 63275, 63276, 63295, 63294
183048, 63276, 63277, 63296, 63295
183049, 63277, 63278, 63297, 63296
183050, 63278, 63279, 63298, 63297
183051, 63279, 63280, 63299, 63298
183052, 63280, 63281, 63300, 63299
183053, 63281, 63282, 63301, 63300
183054, 63282, 63283, 63302, 63301
183055, 63283, 63284, 63303, 63302
183056, 63284, 63285, 63304, 63303
183057, 63285, 63286, 63305, 63304
183058, 63286, 63287, 63306, 63305
183059, 63287, 63288, 63307, 63306
183060, 63288, 60370, 60371, 63307
183061, 60040, 63289, 63308, 60041
183062, 63289, 63290, 63309, 63308
183063, 63290, 63291, 63310, 63309
183064, 63291, 63292, 63311, 63310
183065, 63292, 63293, 63312, 63311
183066, 63293, 63294, 63313, 63312
183067, 63294, 63295, 63314, 63313
183068, 63295, 63296, 63315, 63314
183069, 63296, 63297, 63316, 63315
183070, 63297, 63298, 63317, 63316
183071, 63298, 63299, 63318, 63317
183072, 63299, 63300, 63319, 63318
183073, 63300, 63301, 63320, 63319
183074, 63301, 63302, 63321, 63320
183075, 63302, 63303, 63322, 63321
183076, 63303, 63304, 63323, 63322
183077, 63304, 63305, 63324, 63323
183078, 63305, 63306, 63325, 63324
183079, 63306, 63307, 63326, 63325
183080, 63307, 60371, 60372, 63326
183081, 60041, 63308, 63327, 60042
183082, 63308, 63309, 63328, 63327
183083, 63309, 63310, 63329, 63328
183084, 63310, 63311, 63330, 63329
183085, 63311, 63312, 63331, 63330
183086, 63312, 63313, 63332, 63331
183087, 63313, 63314, 63333, 63332
183088, 63314, 63315, 63334, 63333
183089, 63315, 63316, 63335, 63334
183090, 63316, 63317, 63336, 63335
183091, 63317, 63318, 63337, 63336
183092, 63318, 63319, 63338, 63337
183093, 63319, 63320, 63339, 63338
183094, 63320, 63321, 63340, 63339
183095, 63321, 63322, 63341, 63340
183096, 63322, 63323, 63342, 63341
183097, 63323, 63324, 63343, 63342
183098, 63324, 63325, 63344, 63343
183099, 63325, 63326, 63345, 63344
183100, 63326, 60372, 60373, 63345
183101, 60042, 63327, 63346, 60043
183102, 63327, 63328, 63347, 63346
183103, 63328, 63329, 63348, 63347
183104, 63329, 63330, 63349, 63348
183105, 63330, 63331, 63350, 63349
183106, 63331, 63332, 63351, 63350
183107, 63332, 63333, 63352, 63351
183108, 63333, 63334, 63353, 63352
183109, 63334, 63335, 63354, 63353
183110, 63335, 63336, 63355, 63354
183111, 63336, 63337, 63356, 63355
183112, 63337, 63338, 63357, 63356
183113, 63338, 63339, 63358, 63357
183114, 63339, 63340, 63359, 63358
183115, 63340, 63341, 63360, 63359
183116, 63341, 63342, 63361, 63360
183117, 63342, 63343, 63362, 63361
183118, 63343, 63344, 63363, 63362
183119, 63344, 63345, 63364, 63363
183120, 63345, 60373, 60374, 63364
183121, 60043, 63346, 63365, 60044
183122, 63346, 63347, 63366, 63365
183123, 63347, 63348, 63367, 63366
183124, 63348, 63349, 63368, 63367
183125, 63349, 63350, 63369, 63368
183126, 63350, 63351, 63370, 63369
183127, 63351, 63352, 63371, 63370
183128, 63352, 63353, 63372, 63371
183129, 63353, 63354, 63373, 63372
183130, 63354, 63355, 63374, 63373
183131, 63355, 63356, 63375, 63374
183132, 63356, 63357, 63376, 63375
183133, 63357, 63358, 63377, 63376
183134, 63358, 63359, 63378, 63377
183135, 63359, 63360, 63379, 63378
183136, 63360, 63361, 63380, 63379
183137, 63361, 63362, 63381, 63380
183138, 63362, 63363, 63382, 63381
183139, 63363, 63364, 63383, 63382
183140, 63364, 60374, 60375, 63383
183141, 60044, 63365, 63384, 60045
183142, 63365, 63366, 63385, 63384
183143, 63366, 63367, 63386, 63385
183144, 63367, 63368, 63387, 63386
183145, 63368, 63369, 63388, 63387
183146, 63369, 63370, 63389, 63388
183147, 63370, 63371, 63390, 63389
183148, 63371, 63372, 63391, 63390
183149, 63372, 63373, 63392, 63391
183150, 63373, 63374, 63393, 63392
183151, 63374, 63375, 63394, 63393
183152, 63375, 63376, 63395, 63394
183153, 63376, 63377, 63396, 63395
183154, 63377, 63378, 63397, 63396
183155, 63378, 63379, 63398, 63397
183156, 63379, 63380, 63399, 63398
183157, 63380, 63381, 63400, 63399
183158, 63381, 63382, 63401, 63400
183159, 63382, 63383, 63402, 63401
183160, 63383, 60375, 60376, 63402
183161, 60045, 63384, 63403, 60046
183162, 63384, 63385, 63404, 63403
183163, 63385, 63386, 63405, 63404
183164, 63386, 63387, 63406, 63405
183165, 63387, 63388, 63407, 63406
183166, 63388, 63389, 63408, 63407
183167, 63389, 63390, 63409, 63408
183168, 63390, 63391, 63410, 63409
183169, 63391, 63392, 63411, 63410
183170, 63392, 63393, 63412, 63411
183171, 63393, 63394, 63413, 63412
183172, 63394, 63395, 63414, 63413
183173, 63395, 63396, 63415, 63414
183174, 63396, 63397, 63416, 63415
183175, 63397, 63398, 63417, 63416
183176, 63398, 63399, 63418, 63417
183177, 63399, 63400, 63419, 63418
183178, 63400, 63401, 63420, 63419
183179, 63401, 63402, 63421, 63420
183180, 63402, 60376, 60377, 63421
183181, 60046, 63403, 63422, 60047
183182, 63403, 63404, 63423, 63422
183183, 63404, 63405, 63424, 63423
183184, 63405, 63406, 63425, 63424
183185, 63406, 63407, 63426, 63425
183186, 63407, 63408, 63427, 63426
183187, 63408, 63409, 63428, 63427
183188, 63409, 63410, 63429, 63428
183189, 63410, 63411, 63430, 63429
183190, 63411, 63412, 63431, 63430
183191, 63412, 63413, 63432, 63431
183192, 63413, 63414, 63433, 63432
183193, 63414, 63415, 63434, 63433
183194, 63415, 63416, 63435, 63434
183195, 63416, 63417, 63436, 63435
183196, 63417, 63418, 63437, 63436
183197, 63418, 63419, 63438, 63437
183198, 63419, 63420, 63439, 63438
183199, 63420, 63421, 63440, 63439
183200, 63421, 60377, 60378, 63440
183201, 60047, 63422, 63441, 60048
183202, 63422, 63423, 63442, 63441
183203, 63423, 63424, 63443, 63442
183204, 63424, 63425, 63444, 63443
183205, 63425, 63426, 63445, 63444
183206, 63426, 63427, 63446, 63445
183207, 63427, 63428, 63447, 63446
183208, 63428, 63429, 63448, 63447
183209, 63429, 63430, 63449, 63448
183210, 63430, 63431, 63450, 63449
183211, 63431, 63432, 63451, 63450
183212, 63432, 63433, 63452, 63451
183213, 63433, 63434, 63453, 63452
183214, 63434, 63435, 63454, 63453
183215, 63435, 63436, 63455, 63454
183216, 63436, 63437, 63456, 63455
183217, 63437, 63438, 63457, 63456
183218, 63438, 63439, 63458, 63457
183219, 63439, 63440, 63459, 63458
183220, 63440, 60378, 60379, 63459
183221, 60048, 63441, 63460, 60049
183222, 63441, 63442, 63461, 63460
183223, 63442, 63443, 63462, 63461
183224, 63443, 63444, 63463, 63462
183225, 63444, 63445, 63464, 63463
183226, 63445, 63446, 63465, 63464
183227, 63446, 63447, 63466, 63465
183228, 63447, 63448, 63467, 63466
183229, 63448, 63449, 63468, 63467
183230, 63449, 63450, 63469, 63468
183231, 63450, 63451, 63470, 63469
183232, 63451, 63452, 63471, 63470
183233, 63452, 63453, 63472, 63471
183234, 63453, 63454, 63473, 63472
183235, 63454, 63455, 63474, 63473
183236, 63455, 63456, 63475, 63474
183237, 63456, 63457, 63476, 63475
183238, 63457, 63458, 63477, 63476
183239, 63458, 63459, 63478, 63477
183240, 63459, 60379, 60380, 63478
183241, 60049, 63460, 63479, 60050
183242, 63460, 63461, 63480, 63479
183243, 63461, 63462, 63481, 63480
183244, 63462, 63463, 63482, 63481
183245, 63463, 63464, 63483, 63482
183246, 63464, 63465, 63484, 63483
183247, 63465, 63466, 63485, 63484
183248, 63466, 63467, 63486, 63485
183249, 63467, 63468, 63487, 63486
183250, 63468, 63469, 63488, 63487
183251, 63469, 63470, 63489, 63488
183252, 63470, 63471, 63490, 63489
183253, 63471, 63472, 63491, 63490
183254, 63472, 63473, 63492, 63491
183255, 63473, 63474, 63493, 63492
183256, 63474, 63475, 63494, 63493
183257, 63475, 63476, 63495, 63494
183258, 63476, 63477, 63496, 63495
183259, 63477, 63478, 63497, 63496
183260, 63478, 60380, 60381, 63497
183261, 60050, 63479, 63498, 60051
183262, 63479, 63480, 63499, 63498
183263, 63480, 63481, 63500, 63499
183264, 63481, 63482, 63501, 63500
183265, 63482, 63483, 63502, 63501
183266, 63483, 63484, 63503, 63502
183267, 63484, 63485, 63504, 63503
183268, 63485, 63486, 63505, 63504
183269, 63486, 63487, 63506, 63505
183270, 63487, 63488, 63507, 63506
183271, 63488, 63489, 63508, 63507
183272, 63489, 63490, 63509, 63508
183273, 63490, 63491, 63510, 63509
183274, 63491, 63492, 63511, 63510
183275, 63492, 63493, 63512, 63511
183276, 63493, 63494, 63513, 63512
183277, 63494, 63495, 63514, 63513
183278, 63495, 63496, 63515, 63514
183279, 63496, 63497, 63516, 63515
183280, 63497, 60381, 60382, 63516
183281, 60051, 63498, 63517, 60052
183282, 63498, 63499, 63518, 63517
183283, 63499, 63500, 63519, 63518
183284, 63500, 63501, 63520, 63519
183285, 63501, 63502, 63521, 63520
183286, 63502, 63503, 63522, 63521
183287, 63503, 63504, 63523, 63522
183288, 63504, 63505, 63524, 63523
183289, 63505, 63506, 63525, 63524
183290, 63506, 63507, 63526, 63525
183291, 63507, 63508, 63527, 63526
183292, 63508, 63509, 63528, 63527
183293, 63509, 63510, 63529, 63528
183294, 63510, 63511, 63530, 63529
183295, 63511, 63512, 63531, 63530
183296, 63512, 63513, 63532, 63531
183297, 63513, 63514, 63533, 63532
183298, 63514, 63515, 63534, 63533
183299, 63515, 63516, 63535, 63534
183300, 63516, 60382, 60383, 63535
183301, 60052, 63517, 63536, 60053
183302, 63517, 63518, 63537, 63536
183303, 63518, 63519, 63538, 63537
183304, 63519, 63520, 63539, 63538
183305, 63520, 63521, 63540, 63539
183306, 63521, 63522, 63541, 63540
183307, 63522, 63523, 63542, 63541
183308, 63523, 63524, 63543, 63542
183309, 63524, 63525, 63544, 63543
183310, 63525, 63526, 63545, 63544
183311, 63526, 63527, 63546, 63545
183312, 63527, 63528, 63547, 63546
183313, 63528, 63529, 63548, 63547
183314, 63529, 63530, 63549, 63548
183315, 63530, 63531, 63550, 63549
183316, 63531, 63532, 63551, 63550
183317, 63532, 63533, 63552, 63551
183318, 63533, 63534, 63553, 63552
183319, 63534, 63535, 63554, 63553
183320, 63535, 60383, 60384, 63554
183321, 60053, 63536, 63555, 60054
183322, 63536, 63537, 63556, 63555
183323, 63537, 63538, 63557, 63556
183324, 63538, 63539, 63558, 63557
183325, 63539, 63540, 63559, 63558
183326, 63540, 63541, 63560, 63559
183327, 63541, 63542, 63561, 63560
183328, 63542, 63543, 63562, 63561
183329, 63543, 63544, 63563, 63562
183330, 63544, 63545, 63564, 63563
183331, 63545, 63546, 63565, 63564
183332, 63546, 63547, 63566, 63565
183333, 63547, 63548, 63567, 63566
183334, 63548, 63549, 63568, 63567
183335, 63549, 63550, 63569, 63568
183336, 63550, 63551, 63570, 63569
183337, 63551, 63552, 63571, 63570
183338, 63552, 63553, 63572, 63571
183339, 63553, 63554, 63573, 63572
183340, 63554, 60384, 60385, 63573
183341, 60054, 63555, 63574, 60055
183342, 63555, 63556, 63575, 63574
183343, 63556, 63557, 63576, 63575
183344, 63557, 63558, 63577, 63576
183345, 63558, 63559, 63578, 63577
183346, 63559, 63560, 63579, 63578
183347, 63560, 63561, 63580, 63579
183348, 63561, 63562, 63581, 63580
183349, 63562, 63563, 63582, 63581
183350, 63563, 63564, 63583, 63582
183351, 63564, 63565, 63584, 63583
183352, 63565, 63566, 63585, 63584
183353, 63566, 63567, 63586, 63585
183354, 63567, 63568, 63587, 63586
183355, 63568, 63569, 63588, 63587
183356, 63569, 63570, 63589, 63588
183357, 63570, 63571, 63590, 63589
183358, 63571, 63572, 63591, 63590
183359, 63572, 63573, 63592, 63591
183360, 63573, 60385, 60386, 63592
183361, 60055, 63574, 63593, 60056
183362, 63574, 63575, 63594, 63593
183363, 63575, 63576, 63595, 63594
183364, 63576, 63577, 63596, 63595
183365, 63577, 63578, 63597, 63596
183366, 63578, 63579, 63598, 63597
183367, 63579, 63580, 63599, 63598
183368, 63580, 63581, 63600, 63599
183369, 63581, 63582, 63601, 63600
183370, 63582, 63583, 63602, 63601
183371, 63583, 63584, 63603, 63602
183372, 63584, 63585, 63604, 63603
183373, 63585, 63586, 63605, 63604
183374, 63586, 63587, 63606, 63605
183375, 63587, 63588, 63607, 63606
183376, 63588, 63589, 63608, 63607
183377, 63589, 63590, 63609, 63608
183378, 63590, 63591, 63610, 63609
183379, 63591, 63592, 63611, 63610
183380, 63592, 60386, 60387, 63611
183381, 60056, 63593, 63612, 60057
183382, 63593, 63594, 63613, 63612
183383, 63594, 63595, 63614, 63613
183384, 63595, 63596, 63615, 63614
183385, 63596, 63597, 63616, 63615
183386, 63597, 63598, 63617, 63616
183387, 63598, 63599, 63618, 63617
183388, 63599, 63600, 63619, 63618
183389, 63600, 63601, 63620, 63619
183390, 63601, 63602, 63621, 63620
183391, 63602, 63603, 63622, 63621
183392, 63603, 63604, 63623, 63622
183393, 63604, 63605, 63624, 63623
183394, 63605, 63606, 63625, 63624
183395, 63606, 63607, 63626, 63625
183396, 63607, 63608, 63627, 63626
183397, 63608, 63609, 63628, 63627
183398, 63609, 63610, 63629, 63628
183399, 63610, 63611, 63630, 63629
183400, 63611, 60387, 60388, 63630
183401, 60057, 63612, 63631, 60058
183402, 63612, 63613, 63632, 63631
183403, 63613, 63614, 63633, 63632
183404, 63614, 63615, 63634, 63633
183405, 63615, 63616, 63635, 63634
183406, 63616, 63617, 63636, 63635
183407, 63617, 63618, 63637, 63636
183408, 63618, 63619, 63638, 63637
183409, 63619, 63620, 63639, 63638
183410, 63620, 63621, 63640, 63639
183411, 63621, 63622, 63641, 63640
183412, 63622, 63623, 63642, 63641
183413, 63623, 63624, 63643, 63642
183414, 63624, 63625, 63644, 63643
183415, 63625, 63626, 63645, 63644
183416, 63626, 63627, 63646, 63645
183417, 63627, 63628, 63647, 63646
183418, 63628, 63629, 63648, 63647
183419, 63629, 63630, 63649, 63648
183420, 63630, 60388, 60389, 63649
183421, 60058, 63631, 63650, 60059
183422, 63631, 63632, 63651, 63650
183423, 63632, 63633, 63652, 63651
183424, 63633, 63634, 63653, 63652
183425, 63634, 63635, 63654, 63653
183426, 63635, 63636, 63655, 63654
183427, 63636, 63637, 63656, 63655
183428, 63637, 63638, 63657, 63656
183429, 63638, 63639, 63658, 63657
183430, 63639, 63640, 63659, 63658
183431, 63640, 63641, 63660, 63659
183432, 63641, 63642, 63661, 63660
183433, 63642, 63643, 63662, 63661
183434, 63643, 63644, 63663, 63662
183435, 63644, 63645, 63664, 63663
183436, 63645, 63646, 63665, 63664
183437, 63646, 63647, 63666, 63665
183438, 63647, 63648, 63667, 63666
183439, 63648, 63649, 63668, 63667
183440, 63649, 60389, 60390, 63668
183441, 60059, 63650, 63669, 60060
183442, 63650, 63651, 63670, 63669
183443, 63651, 63652, 63671, 63670
183444, 63652, 63653, 63672, 63671
183445, 63653, 63654, 63673, 63672
183446, 63654, 63655, 63674, 63673
183447, 63655, 63656, 63675, 63674
183448, 63656, 63657, 63676, 63675
183449, 63657, 63658, 63677, 63676
183450, 63658, 63659, 63678, 63677
183451, 63659, 63660, 63679, 63678
183452, 63660, 63661, 63680, 63679
183453, 63661, 63662, 63681, 63680
183454, 63662, 63663, 63682, 63681
183455, 63663, 63664, 63683, 63682
183456, 63664, 63665, 63684, 63683
183457, 63665, 63666, 63685, 63684
183458, 63666, 63667, 63686, 63685
183459, 63667, 63668, 63687, 63686
183460, 63668, 60390, 60391, 63687
183461, 60060, 63669, 63688, 60061
183462, 63669, 63670, 63689, 63688
183463, 63670, 63671, 63690, 63689
183464, 63671, 63672, 63691, 63690
183465, 63672, 63673, 63692, 63691
183466, 63673, 63674, 63693, 63692
183467, 63674, 63675, 63694, 63693
183468, 63675, 63676, 63695, 63694
183469, 63676, 63677, 63696, 63695
183470, 63677, 63678, 63697, 63696
183471, 63678, 63679, 63698, 63697
183472, 63679, 63680, 63699, 63698
183473, 63680, 63681, 63700, 63699
183474, 63681, 63682, 63701, 63700
183475, 63682, 63683, 63702, 63701
183476, 63683, 63684, 63703, 63702
183477, 63684, 63685, 63704, 63703
183478, 63685, 63686, 63705, 63704
183479, 63686, 63687, 63706, 63705
183480, 63687, 60391, 60392, 63706
183481, 60061, 63688, 63707, 60062
183482, 63688, 63689, 63708, 63707
183483, 63689, 63690, 63709, 63708
183484, 63690, 63691, 63710, 63709
183485, 63691, 63692, 63711, 63710
183486, 63692, 63693, 63712, 63711
183487, 63693, 63694, 63713, 63712
183488, 63694, 63695, 63714, 63713
183489, 63695, 63696, 63715, 63714
183490, 63696, 63697, 63716, 63715
183491, 63697, 63698, 63717, 63716
183492, 63698, 63699, 63718, 63717
183493, 63699, 63700, 63719, 63718
183494, 63700, 63701, 63720, 63719
183495, 63701, 63702, 63721, 63720
183496, 63702, 63703, 63722, 63721
183497, 63703, 63704, 63723, 63722
183498, 63704, 63705, 63724, 63723
183499, 63705, 63706, 63725, 63724
183500, 63706, 60392, 60393, 63725
183501, 60062, 63707, 63726, 60063
183502, 63707, 63708, 63727, 63726
183503, 63708, 63709, 63728, 63727
183504, 63709, 63710, 63729, 63728
183505, 63710, 63711, 63730, 63729
183506, 63711, 63712, 63731, 63730
183507, 63712, 63713, 63732, 63731
183508, 63713, 63714, 63733, 63732
183509, 63714, 63715, 63734, 63733
183510, 63715, 63716, 63735, 63734
183511, 63716, 63717, 63736, 63735
183512, 63717, 63718, 63737, 63736
183513, 63718, 63719, 63738, 63737
183514, 63719, 63720, 63739, 63738
183515, 63720, 63721, 63740, 63739
183516, 63721, 63722, 63741, 63740
183517, 63722, 63723, 63742, 63741
183518, 63723, 63724, 63743, 63742
183519, 63724, 63725, 63744, 63743
183520, 63725, 60393, 60394, 63744
183521, 60063, 63726, 63745, 60064
183522, 63726, 63727, 63746, 63745
183523, 63727, 63728, 63747, 63746
183524, 63728, 63729, 63748, 63747
183525, 63729, 63730, 63749, 63748
183526, 63730, 63731, 63750, 63749
183527, 63731, 63732, 63751, 63750
183528, 63732, 63733, 63752, 63751
183529, 63733, 63734, 63753, 63752
183530, 63734, 63735, 63754, 63753
183531, 63735, 63736, 63755, 63754
183532, 63736, 63737, 63756, 63755
183533, 63737, 63738, 63757, 63756
183534, 63738, 63739, 63758, 63757
183535, 63739, 63740, 63759, 63758
183536, 63740, 63741, 63760, 63759
183537, 63741, 63742, 63761, 63760
183538, 63742, 63743, 63762, 63761
183539, 63743, 63744, 63763, 63762
183540, 63744, 60394, 60395, 63763
183541, 60064, 63745, 63764, 60065
183542, 63745, 63746, 63765, 63764
183543, 63746, 63747, 63766, 63765
183544, 63747, 63748, 63767, 63766
183545, 63748, 63749, 63768, 63767
183546, 63749, 63750, 63769, 63768
183547, 63750, 63751, 63770, 63769
183548, 63751, 63752, 63771, 63770
183549, 63752, 63753, 63772, 63771
183550, 63753, 63754, 63773, 63772
183551, 63754, 63755, 63774, 63773
183552, 63755, 63756, 63775, 63774
183553, 63756, 63757, 63776, 63775
183554, 63757, 63758, 63777, 63776
183555, 63758, 63759, 63778, 63777
183556, 63759, 63760, 63779, 63778
183557, 63760, 63761, 63780, 63779
183558, 63761, 63762, 63781, 63780
183559, 63762, 63763, 63782, 63781
183560, 63763, 60395, 60396, 63782
183561, 60065, 63764, 63783, 60066
183562, 63764, 63765, 63784, 63783
183563, 63765, 63766, 63785, 63784
183564, 63766, 63767, 63786, 63785
183565, 63767, 63768, 63787, 63786
183566, 63768, 63769, 63788, 63787
183567, 63769, 63770, 63789, 63788
183568, 63770, 63771, 63790, 63789
183569, 63771, 63772, 63791, 63790
183570, 63772, 63773, 63792, 63791
183571, 63773, 63774, 63793, 63792
183572, 63774, 63775, 63794, 63793
183573, 63775, 63776, 63795, 63794
183574, 63776, 63777, 63796, 63795
183575, 63777, 63778, 63797, 63796
183576, 63778, 63779, 63798, 63797
183577, 63779, 63780, 63799, 63798
183578, 63780, 63781, 63800, 63799
183579, 63781, 63782, 63801, 63800
183580, 63782, 60396, 60397, 63801
183581, 60066, 63783, 63802, 60067
183582, 63783, 63784, 63803, 63802
183583, 63784, 63785, 63804, 63803
183584, 63785, 63786, 63805, 63804
183585, 63786, 63787, 63806, 63805
183586, 63787, 63788, 63807, 63806
183587, 63788, 63789, 63808, 63807
183588, 63789, 63790, 63809, 63808
183589, 63790, 63791, 63810, 63809
183590, 63791, 63792, 63811, 63810
183591, 63792, 63793, 63812, 63811
183592, 63793, 63794, 63813, 63812
183593, 63794, 63795, 63814, 63813
183594, 63795, 63796, 63815, 63814
183595, 63796, 63797, 63816, 63815
183596, 63797, 63798, 63817, 63816
183597, 63798, 63799, 63818, 63817
183598, 63799, 63800, 63819, 63818
183599, 63800, 63801, 63820, 63819
183600, 63801, 60397, 60398, 63820
183601, 60067, 63802, 63821, 60068
183602, 63802, 63803, 63822, 63821
183603, 63803, 63804, 63823, 63822
183604, 63804, 63805, 63824, 63823
183605, 63805, 63806, 63825, 63824
183606, 63806, 63807, 63826, 63825
183607, 63807, 63808, 63827, 63826
183608, 63808, 63809, 63828, 63827
183609, 63809, 63810, 63829, 63828
183610, 63810, 63811, 63830, 63829
183611, 63811, 63812, 63831, 63830
183612, 63812, 63813, 63832, 63831
183613, 63813, 63814, 63833, 63832
183614, 63814, 63815, 63834, 63833
183615, 63815, 63816, 63835, 63834
183616, 63816, 63817, 63836, 63835
183617, 63817, 63818, 63837, 63836
183618, 63818, 63819, 63838, 63837
183619, 63819, 63820, 63839, 63838
183620, 63820, 60398, 60399, 63839
183621, 60068, 63821, 63840, 60069
183622, 63821, 63822, 63841, 63840
183623, 63822, 63823, 63842, 63841
183624, 63823, 63824, 63843, 63842
183625, 63824, 63825, 63844, 63843
183626, 63825, 63826, 63845, 63844
183627, 63826, 63827, 63846, 63845
183628, 63827, 63828, 63847, 63846
183629, 63828, 63829, 63848, 63847
183630, 63829, 63830, 63849, 63848
183631, 63830, 63831, 63850, 63849
183632, 63831, 63832, 63851, 63850
183633, 63832, 63833, 63852, 63851
183634, 63833, 63834, 63853, 63852
183635, 63834, 63835, 63854, 63853
183636, 63835, 63836, 63855, 63854
183637, 63836, 63837, 63856, 63855
183638, 63837, 63838, 63857, 63856
183639, 63838, 63839, 63858, 63857
183640, 63839, 60399, 60400, 63858
183641, 60069, 63840, 63859, 60070
183642, 63840, 63841, 63860, 63859
183643, 63841, 63842, 63861, 63860
183644, 63842, 63843, 63862, 63861
183645, 63843, 63844, 63863, 63862
183646, 63844, 63845, 63864, 63863
183647, 63845, 63846, 63865, 63864
183648, 63846, 63847, 63866, 63865
183649, 63847, 63848, 63867, 63866
183650, 63848, 63849, 63868, 63867
183651, 63849, 63850, 63869, 63868
183652, 63850, 63851, 63870, 63869
183653, 63851, 63852, 63871, 63870
183654, 63852, 63853, 63872, 63871
183655, 63853, 63854, 63873, 63872
183656, 63854, 63855, 63874, 63873
183657, 63855, 63856, 63875, 63874
183658, 63856, 63857, 63876, 63875
183659, 63857, 63858, 63877, 63876
183660, 63858, 60400, 60401, 63877
183661, 60070, 63859, 63878, 60071
183662, 63859, 63860, 63879, 63878
183663, 63860, 63861, 63880, 63879
183664, 63861, 63862, 63881, 63880
183665, 63862, 63863, 63882, 63881
183666, 63863, 63864, 63883, 63882
183667, 63864, 63865, 63884, 63883
183668, 63865, 63866, 63885, 63884
183669, 63866, 63867, 63886, 63885
183670, 63867, 63868, 63887, 63886
183671, 63868, 63869, 63888, 63887
183672, 63869, 63870, 63889, 63888
183673, 63870, 63871, 63890, 63889
183674, 63871, 63872, 63891, 63890
183675, 63872, 63873, 63892, 63891
183676, 63873, 63874, 63893, 63892
183677, 63874, 63875, 63894, 63893
183678, 63875, 63876, 63895, 63894
183679, 63876, 63877, 63896, 63895
183680, 63877, 60401, 60402, 63896
183681, 60071, 63878, 63897, 60072
183682, 63878, 63879, 63898, 63897
183683, 63879, 63880, 63899, 63898
183684, 63880, 63881, 63900, 63899
183685, 63881, 63882, 63901, 63900
183686, 63882, 63883, 63902, 63901
183687, 63883, 63884, 63903, 63902
183688, 63884, 63885, 63904, 63903
183689, 63885, 63886, 63905, 63904
183690, 63886, 63887, 63906, 63905
183691, 63887, 63888, 63907, 63906
183692, 63888, 63889, 63908, 63907
183693, 63889, 63890, 63909, 63908
183694, 63890, 63891, 63910, 63909
183695, 63891, 63892, 63911, 63910
183696, 63892, 63893, 63912, 63911
183697, 63893, 63894, 63913, 63912
183698, 63894, 63895, 63914, 63913
183699, 63895, 63896, 63915, 63914
183700, 63896, 60402, 60403, 63915
183701, 60072, 63897, 63916, 60073
183702, 63897, 63898, 63917, 63916
183703, 63898, 63899, 63918, 63917
183704, 63899, 63900, 63919, 63918
183705, 63900, 63901, 63920, 63919
183706, 63901, 63902, 63921, 63920
183707, 63902, 63903, 63922, 63921
183708, 63903, 63904, 63923, 63922
183709, 63904, 63905, 63924, 63923
183710, 63905, 63906, 63925, 63924
183711, 63906, 63907, 63926, 63925
183712, 63907, 63908, 63927, 63926
183713, 63908, 63909, 63928, 63927
183714, 63909, 63910, 63929, 63928
183715, 63910, 63911, 63930, 63929
183716, 63911, 63912, 63931, 63930
183717, 63912, 63913, 63932, 63931
183718, 63913, 63914, 63933, 63932
183719, 63914, 63915, 63934, 63933
183720, 63915, 60403, 60404, 63934
183721, 60073, 63916, 63935, 60074
183722, 63916, 63917, 63936, 63935
183723, 63917, 63918, 63937, 63936
183724, 63918, 63919, 63938, 63937
183725, 63919, 63920, 63939, 63938
183726, 63920, 63921, 63940, 63939
183727, 63921, 63922, 63941, 63940
183728, 63922, 63923, 63942, 63941
183729, 63923, 63924, 63943, 63942
183730, 63924, 63925, 63944, 63943
183731, 63925, 63926, 63945, 63944
183732, 63926, 63927, 63946, 63945
183733, 63927, 63928, 63947, 63946
183734, 63928, 63929, 63948, 63947
183735, 63929, 63930, 63949, 63948
183736, 63930, 63931, 63950, 63949
183737, 63931, 63932, 63951, 63950
183738, 63932, 63933, 63952, 63951
183739, 63933, 63934, 63953, 63952
183740, 63934, 60404, 60405, 63953
183741, 60074, 63935, 63954, 60075
183742, 63935, 63936, 63955, 63954
183743, 63936, 63937, 63956, 63955
183744, 63937, 63938, 63957, 63956
183745, 63938, 63939, 63958, 63957
183746, 63939, 63940, 63959, 63958
183747, 63940, 63941, 63960, 63959
183748, 63941, 63942, 63961, 63960
183749, 63942, 63943, 63962, 63961
183750, 63943, 63944, 63963, 63962
183751, 63944, 63945, 63964, 63963
183752, 63945, 63946, 63965, 63964
183753, 63946, 63947, 63966, 63965
183754, 63947, 63948, 63967, 63966
183755, 63948, 63949, 63968, 63967
183756, 63949, 63950, 63969, 63968
183757, 63950, 63951, 63970, 63969
183758, 63951, 63952, 63971, 63970
183759, 63952, 63953, 63972, 63971
183760, 63953, 60405, 60406, 63972
183761, 60075, 63954, 63973, 60076
183762, 63954, 63955, 63974, 63973
183763, 63955, 63956, 63975, 63974
183764, 63956, 63957, 63976, 63975
183765, 63957, 63958, 63977, 63976
183766, 63958, 63959, 63978, 63977
183767, 63959, 63960, 63979, 63978
183768, 63960, 63961, 63980, 63979
183769, 63961, 63962, 63981, 63980
183770, 63962, 63963, 63982, 63981
183771, 63963, 63964, 63983, 63982
183772, 63964, 63965, 63984, 63983
183773, 63965, 63966, 63985, 63984
183774, 63966, 63967, 63986, 63985
183775, 63967, 63968, 63987, 63986
183776, 63968, 63969, 63988, 63987
183777, 63969, 63970, 63989, 63988
183778, 63970, 63971, 63990, 63989
183779, 63971, 63972, 63991, 63990
183780, 63972, 60406, 60407, 63991
183781, 60076, 63973, 63992, 60077
183782, 63973, 63974, 63993, 63992
183783, 63974, 63975, 63994, 63993
183784, 63975, 63976, 63995, 63994
183785, 63976, 63977, 63996, 63995
183786, 63977, 63978, 63997, 63996
183787, 63978, 63979, 63998, 63997
183788, 63979, 63980, 63999, 63998
183789, 63980, 63981, 64000, 63999
183790, 63981, 63982, 64001, 64000
183791, 63982, 63983, 64002, 64001
183792, 63983, 63984, 64003, 64002
183793, 63984, 63985, 64004, 64003
183794, 63985, 63986, 64005, 64004
183795, 63986, 63987, 64006, 64005
183796, 63987, 63988, 64007, 64006
183797, 63988, 63989, 64008, 64007
183798, 63989, 63990, 64009, 64008
183799, 63990, 63991, 64010, 64009
183800, 63991, 60407, 60408, 64010
183801, 60077, 63992, 64011, 60078
183802, 63992, 63993, 64012, 64011
183803, 63993, 63994, 64013, 64012
183804, 63994, 63995, 64014, 64013
183805, 63995, 63996, 64015, 64014
183806, 63996, 63997, 64016, 64015
183807, 63997, 63998, 64017, 64016
183808, 63998, 63999, 64018, 64017
183809, 63999, 64000, 64019, 64018
183810, 64000, 64001, 64020, 64019
183811, 64001, 64002, 64021, 64020
183812, 64002, 64003, 64022, 64021
183813, 64003, 64004, 64023, 64022
183814, 64004, 64005, 64024, 64023
183815, 64005, 64006, 64025, 64024
183816, 64006, 64007, 64026, 64025
183817, 64007, 64008, 64027, 64026
183818, 64008, 64009, 64028, 64027
183819, 64009, 64010, 64029, 64028
183820, 64010, 60408, 60409, 64029
183821, 60078, 64011, 64030, 60079
183822, 64011, 64012, 64031, 64030
183823, 64012, 64013, 64032, 64031
183824, 64013, 64014, 64033, 64032
183825, 64014, 64015, 64034, 64033
183826, 64015, 64016, 64035, 64034
183827, 64016, 64017, 64036, 64035
183828, 64017, 64018, 64037, 64036
183829, 64018, 64019, 64038, 64037
183830, 64019, 64020, 64039, 64038
183831, 64020, 64021, 64040, 64039
183832, 64021, 64022, 64041, 64040
183833, 64022, 64023, 64042, 64041
183834, 64023, 64024, 64043, 64042
183835, 64024, 64025, 64044, 64043
183836, 64025, 64026, 64045, 64044
183837, 64026, 64027, 64046, 64045
183838, 64027, 64028, 64047, 64046
183839, 64028, 64029, 64048, 64047
183840, 64029, 60409, 60410, 64048
183841, 60079, 64030, 64049, 60080
183842, 64030, 64031, 64050, 64049
183843, 64031, 64032, 64051, 64050
183844, 64032, 64033, 64052, 64051
183845, 64033, 64034, 64053, 64052
183846, 64034, 64035, 64054, 64053
183847, 64035, 64036, 64055, 64054
183848, 64036, 64037, 64056, 64055
183849, 64037, 64038, 64057, 64056
183850, 64038, 64039, 64058, 64057
183851, 64039, 64040, 64059, 64058
183852, 64040, 64041, 64060, 64059
183853, 64041, 64042, 64061, 64060
183854, 64042, 64043, 64062, 64061
183855, 64043, 64044, 64063, 64062
183856, 64044, 64045, 64064, 64063
183857, 64045, 64046, 64065, 64064
183858, 64046, 64047, 64066, 64065
183859, 64047, 64048, 64067, 64066
183860, 64048, 60410, 60411, 64067
183861, 60080, 64049, 64068, 60081
183862, 64049, 64050, 64069, 64068
183863, 64050, 64051, 64070, 64069
183864, 64051, 64052, 64071, 64070
183865, 64052, 64053, 64072, 64071
183866, 64053, 64054, 64073, 64072
183867, 64054, 64055, 64074, 64073
183868, 64055, 64056, 64075, 64074
183869, 64056, 64057, 64076, 64075
183870, 64057, 64058, 64077, 64076
183871, 64058, 64059, 64078, 64077
183872, 64059, 64060, 64079, 64078
183873, 64060, 64061, 64080, 64079
183874, 64061, 64062, 64081, 64080
183875, 64062, 64063, 64082, 64081
183876, 64063, 64064, 64083, 64082
183877, 64064, 64065, 64084, 64083
183878, 64065, 64066, 64085, 64084
183879, 64066, 64067, 64086, 64085
183880, 64067, 60411, 60412, 64086
183881, 60081, 64068, 64087, 60082
183882, 64068, 64069, 64088, 64087
183883, 64069, 64070, 64089, 64088
183884, 64070, 64071, 64090, 64089
183885, 64071, 64072, 64091, 64090
183886, 64072, 64073, 64092, 64091
183887, 64073, 64074, 64093, 64092
183888, 64074, 64075, 64094, 64093
183889, 64075, 64076, 64095, 64094
183890, 64076, 64077, 64096, 64095
183891, 64077, 64078, 64097, 64096
183892, 64078, 64079, 64098, 64097
183893, 64079, 64080, 64099, 64098
183894, 64080, 64081, 64100, 64099
183895, 64081, 64082, 64101, 64100
183896, 64082, 64083, 64102, 64101
183897, 64083, 64084, 64103, 64102
183898, 64084, 64085, 64104, 64103
183899, 64085, 64086, 64105, 64104
183900, 64086, 60412, 60413, 64105
183901, 60082, 64087, 64106, 60083
183902, 64087, 64088, 64107, 64106
183903, 64088, 64089, 64108, 64107
183904, 64089, 64090, 64109, 64108
183905, 64090, 64091, 64110, 64109
183906, 64091, 64092, 64111, 64110
183907, 64092, 64093, 64112, 64111
183908, 64093, 64094, 64113, 64112
183909, 64094, 64095, 64114, 64113
183910, 64095, 64096, 64115, 64114
183911, 64096, 64097, 64116, 64115
183912, 64097, 64098, 64117, 64116
183913, 64098, 64099, 64118, 64117
183914, 64099, 64100, 64119, 64118
183915, 64100, 64101, 64120, 64119
183916, 64101, 64102, 64121, 64120
183917, 64102, 64103, 64122, 64121
183918, 64103, 64104, 64123, 64122
183919, 64104, 64105, 64124, 64123
183920, 64105, 60413, 60414, 64124
183921, 60083, 64106, 64125, 60084
183922, 64106, 64107, 64126, 64125
183923, 64107, 64108, 64127, 64126
183924, 64108, 64109, 64128, 64127
183925, 64109, 64110, 64129, 64128
183926, 64110, 64111, 64130, 64129
183927, 64111, 64112, 64131, 64130
183928, 64112, 64113, 64132, 64131
183929, 64113, 64114, 64133, 64132
183930, 64114, 64115, 64134, 64133
183931, 64115, 64116, 64135, 64134
183932, 64116, 64117, 64136, 64135
183933, 64117, 64118, 64137, 64136
183934, 64118, 64119, 64138, 64137
183935, 64119, 64120, 64139, 64138
183936, 64120, 64121, 64140, 64139
183937, 64121, 64122, 64141, 64140
183938, 64122, 64123, 64142, 64141
183939, 64123, 64124, 64143, 64142
183940, 64124, 60414, 60415, 64143
183941, 60084, 64125, 64144, 60085
183942, 64125, 64126, 64145, 64144
183943, 64126, 64127, 64146, 64145
183944, 64127, 64128, 64147, 64146
183945, 64128, 64129, 64148, 64147
183946, 64129, 64130, 64149, 64148
183947, 64130, 64131, 64150, 64149
183948, 64131, 64132, 64151, 64150
183949, 64132, 64133, 64152, 64151
183950, 64133, 64134, 64153, 64152
183951, 64134, 64135, 64154, 64153
183952, 64135, 64136, 64155, 64154
183953, 64136, 64137, 64156, 64155
183954, 64137, 64138, 64157, 64156
183955, 64138, 64139, 64158, 64157
183956, 64139, 64140, 64159, 64158
183957, 64140, 64141, 64160, 64159
183958, 64141, 64142, 64161, 64160
183959, 64142, 64143, 64162, 64161
183960, 64143, 60415, 60416, 64162
183961, 60085, 64144, 64163, 60086
183962, 64144, 64145, 64164, 64163
183963, 64145, 64146, 64165, 64164
183964, 64146, 64147, 64166, 64165
183965, 64147, 64148, 64167, 64166
183966, 64148, 64149, 64168, 64167
183967, 64149, 64150, 64169, 64168
183968, 64150, 64151, 64170, 64169
183969, 64151, 64152, 64171, 64170
183970, 64152, 64153, 64172, 64171
183971, 64153, 64154, 64173, 64172
183972, 64154, 64155, 64174, 64173
183973, 64155, 64156, 64175, 64174
183974, 64156, 64157, 64176, 64175
183975, 64157, 64158, 64177, 64176
183976, 64158, 64159, 64178, 64177
183977, 64159, 64160, 64179, 64178
183978, 64160, 64161, 64180, 64179
183979, 64161, 64162, 64181, 64180
183980, 64162, 60416, 60417, 64181
183981, 60086, 64163, 64182, 60087
183982, 64163, 64164, 64183, 64182
183983, 64164, 64165, 64184, 64183
183984, 64165, 64166, 64185, 64184
183985, 64166, 64167, 64186, 64185
183986, 64167, 64168, 64187, 64186
183987, 64168, 64169, 64188, 64187
183988, 64169, 64170, 64189, 64188
183989, 64170, 64171, 64190, 64189
183990, 64171, 64172, 64191, 64190
183991, 64172, 64173, 64192, 64191
183992, 64173, 64174, 64193, 64192
183993, 64174, 64175, 64194, 64193
183994, 64175, 64176, 64195, 64194
183995, 64176, 64177, 64196, 64195
183996, 64177, 64178, 64197, 64196
183997, 64178, 64179, 64198, 64197
183998, 64179, 64180, 64199, 64198
183999, 64180, 64181, 64200, 64199
184000, 64181, 60417, 60418, 64200
184001, 60087, 64182, 64201, 60088
184002, 64182, 64183, 64202, 64201
184003, 64183, 64184, 64203, 64202
184004, 64184, 64185, 64204, 64203
184005, 64185, 64186, 64205, 64204
184006, 64186, 64187, 64206, 64205
184007, 64187, 64188, 64207, 64206
184008, 64188, 64189, 64208, 64207
184009, 64189, 64190, 64209, 64208
184010, 64190, 64191, 64210, 64209
184011, 64191, 64192, 64211, 64210
184012, 64192, 64193, 64212, 64211
184013, 64193, 64194, 64213, 64212
184014, 64194, 64195, 64214, 64213
184015, 64195, 64196, 64215, 64214
184016, 64196, 64197, 64216, 64215
184017, 64197, 64198, 64217, 64216
184018, 64198, 64199, 64218, 64217
184019, 64199, 64200, 64219, 64218
184020, 64200, 60418, 60419, 64219
184021, 60088, 64201, 64220, 60089
184022, 64201, 64202, 64221, 64220
184023, 64202, 64203, 64222, 64221
184024, 64203, 64204, 64223, 64222
184025, 64204, 64205, 64224, 64223
184026, 64205, 64206, 64225, 64224
184027, 64206, 64207, 64226, 64225
184028, 64207, 64208, 64227, 64226
184029, 64208, 64209, 64228, 64227
184030, 64209, 64210, 64229, 64228
184031, 64210, 64211, 64230, 64229
184032, 64211, 64212, 64231, 64230
184033, 64212, 64213, 64232, 64231
184034, 64213, 64214, 64233, 64232
184035, 64214, 64215, 64234, 64233
184036, 64215, 64216, 64235, 64234
184037, 64216, 64217, 64236, 64235
184038, 64217, 64218, 64237, 64236
184039, 64218, 64219, 64238, 64237
184040, 64219, 60419, 60420, 64238
184041, 60089, 64220, 64239, 60090
184042, 64220, 64221, 64240, 64239
184043, 64221, 64222, 64241, 64240
184044, 64222, 64223, 64242, 64241
184045, 64223, 64224, 64243, 64242
184046, 64224, 64225, 64244, 64243
184047, 64225, 64226, 64245, 64244
184048, 64226, 64227, 64246, 64245
184049, 64227, 64228, 64247, 64246
184050, 64228, 64229, 64248, 64247
184051, 64229, 64230, 64249, 64248
184052, 64230, 64231, 64250, 64249
184053, 64231, 64232, 64251, 64250
184054, 64232, 64233, 64252, 64251
184055, 64233, 64234, 64253, 64252
184056, 64234, 64235, 64254, 64253
184057, 64235, 64236, 64255, 64254
184058, 64236, 64237, 64256, 64255
184059, 64237, 64238, 64257, 64256
184060, 64238, 60420, 60421, 64257
184061, 60090, 64239, 64258, 60091
184062, 64239, 64240, 64259, 64258
184063, 64240, 64241, 64260, 64259
184064, 64241, 64242, 64261, 64260
184065, 64242, 64243, 64262, 64261
184066, 64243, 64244, 64263, 64262
184067, 64244, 64245, 64264, 64263
184068, 64245, 64246, 64265, 64264
184069, 64246, 64247, 64266, 64265
184070, 64247, 64248, 64267, 64266
184071, 64248, 64249, 64268, 64267
184072, 64249, 64250, 64269, 64268
184073, 64250, 64251, 64270, 64269
184074, 64251, 64252, 64271, 64270
184075, 64252, 64253, 64272, 64271
184076, 64253, 64254, 64273, 64272
184077, 64254, 64255, 64274, 64273
184078, 64255, 64256, 64275, 64274
184079, 64256, 64257, 64276, 64275
184080, 64257, 60421, 60422, 64276
184081, 60091, 64258, 64277, 60092
184082, 64258, 64259, 64278, 64277
184083, 64259, 64260, 64279, 64278
184084, 64260, 64261, 64280, 64279
184085, 64261, 64262, 64281, 64280
184086, 64262, 64263, 64282, 64281
184087, 64263, 64264, 64283, 64282
184088, 64264, 64265, 64284, 64283
184089, 64265, 64266, 64285, 64284
184090, 64266, 64267, 64286, 64285
184091, 64267, 64268, 64287, 64286
184092, 64268, 64269, 64288, 64287
184093, 64269, 64270, 64289, 64288
184094, 64270, 64271, 64290, 64289
184095, 64271, 64272, 64291, 64290
184096, 64272, 64273, 64292, 64291
184097, 64273, 64274, 64293, 64292
184098, 64274, 64275, 64294, 64293
184099, 64275, 64276, 64295, 64294
184100, 64276, 60422, 60423, 64295
184101, 60092, 64277, 64296, 60093
184102, 64277, 64278, 64297, 64296
184103, 64278, 64279, 64298, 64297
184104, 64279, 64280, 64299, 64298
184105, 64280, 64281, 64300, 64299
184106, 64281, 64282, 64301, 64300
184107, 64282, 64283, 64302, 64301
184108, 64283, 64284, 64303, 64302
184109, 64284, 64285, 64304, 64303
184110, 64285, 64286, 64305, 64304
184111, 64286, 64287, 64306, 64305
184112, 64287, 64288, 64307, 64306
184113, 64288, 64289, 64308, 64307
184114, 64289, 64290, 64309, 64308
184115, 64290, 64291, 64310, 64309
184116, 64291, 64292, 64311, 64310
184117, 64292, 64293, 64312, 64311
184118, 64293, 64294, 64313, 64312
184119, 64294, 64295, 64314, 64313
184120, 64295, 60423, 60424, 64314
184121, 60093, 64296, 64315, 60094
184122, 64296, 64297, 64316, 64315
184123, 64297, 64298, 64317, 64316
184124, 64298, 64299, 64318, 64317
184125, 64299, 64300, 64319, 64318
184126, 64300, 64301, 64320, 64319
184127, 64301, 64302, 64321, 64320
184128, 64302, 64303, 64322, 64321
184129, 64303, 64304, 64323, 64322
184130, 64304, 64305, 64324, 64323
184131, 64305, 64306, 64325, 64324
184132, 64306, 64307, 64326, 64325
184133, 64307, 64308, 64327, 64326
184134, 64308, 64309, 64328, 64327
184135, 64309, 64310, 64329, 64328
184136, 64310, 64311, 64330, 64329
184137, 64311, 64312, 64331, 64330
184138, 64312, 64313, 64332, 64331
184139, 64313, 64314, 64333, 64332
184140, 64314, 60424, 60425, 64333
184141, 60094, 64315, 64334, 60095
184142, 64315, 64316, 64335, 64334
184143, 64316, 64317, 64336, 64335
184144, 64317, 64318, 64337, 64336
184145, 64318, 64319, 64338, 64337
184146, 64319, 64320, 64339, 64338
184147, 64320, 64321, 64340, 64339
184148, 64321, 64322, 64341, 64340
184149, 64322, 64323, 64342, 64341
184150, 64323, 64324, 64343, 64342
184151, 64324, 64325, 64344, 64343
184152, 64325, 64326, 64345, 64344
184153, 64326, 64327, 64346, 64345
184154, 64327, 64328, 64347, 64346
184155, 64328, 64329, 64348, 64347
184156, 64329, 64330, 64349, 64348
184157, 64330, 64331, 64350, 64349
184158, 64331, 64332, 64351, 64350
184159, 64332, 64333, 64352, 64351
184160, 64333, 60425, 60426, 64352
184161, 60095, 64334, 64353, 60096
184162, 64334, 64335, 64354, 64353
184163, 64335, 64336, 64355, 64354
184164, 64336, 64337, 64356, 64355
184165, 64337, 64338, 64357, 64356
184166, 64338, 64339, 64358, 64357
184167, 64339, 64340, 64359, 64358
184168, 64340, 64341, 64360, 64359
184169, 64341, 64342, 64361, 64360
184170, 64342, 64343, 64362, 64361
184171, 64343, 64344, 64363, 64362
184172, 64344, 64345, 64364, 64363
184173, 64345, 64346, 64365, 64364
184174, 64346, 64347, 64366, 64365
184175, 64347, 64348, 64367, 64366
184176, 64348, 64349, 64368, 64367
184177, 64349, 64350, 64369, 64368
184178, 64350, 64351, 64370, 64369
184179, 64351, 64352, 64371, 64370
184180, 64352, 60426, 60427, 64371
184181, 60096, 64353, 64372, 60097
184182, 64353, 64354, 64373, 64372
184183, 64354, 64355, 64374, 64373
184184, 64355, 64356, 64375, 64374
184185, 64356, 64357, 64376, 64375
184186, 64357, 64358, 64377, 64376
184187, 64358, 64359, 64378, 64377
184188, 64359, 64360, 64379, 64378
184189, 64360, 64361, 64380, 64379
184190, 64361, 64362, 64381, 64380
184191, 64362, 64363, 64382, 64381
184192, 64363, 64364, 64383, 64382
184193, 64364, 64365, 64384, 64383
184194, 64365, 64366, 64385, 64384
184195, 64366, 64367, 64386, 64385
184196, 64367, 64368, 64387, 64386
184197, 64368, 64369, 64388, 64387
184198, 64369, 64370, 64389, 64388
184199, 64370, 64371, 64390, 64389
184200, 64371, 60427, 60428, 64390
184201, 60097, 64372, 64391, 60098
184202, 64372, 64373, 64392, 64391
184203, 64373, 64374, 64393, 64392
184204, 64374, 64375, 64394, 64393
184205, 64375, 64376, 64395, 64394
184206, 64376, 64377, 64396, 64395
184207, 64377, 64378, 64397, 64396
184208, 64378, 64379, 64398, 64397
184209, 64379, 64380, 64399, 64398
184210, 64380, 64381, 64400, 64399
184211, 64381, 64382, 64401, 64400
184212, 64382, 64383, 64402, 64401
184213, 64383, 64384, 64403, 64402
184214, 64384, 64385, 64404, 64403
184215, 64385, 64386, 64405, 64404
184216, 64386, 64387, 64406, 64405
184217, 64387, 64388, 64407, 64406
184218, 64388, 64389, 64408, 64407
184219, 64389, 64390, 64409, 64408
184220, 64390, 60428, 60429, 64409
184221, 60098, 64391, 64410, 60099
184222, 64391, 64392, 64411, 64410
184223, 64392, 64393, 64412, 64411
184224, 64393, 64394, 64413, 64412
184225, 64394, 64395, 64414, 64413
184226, 64395, 64396, 64415, 64414
184227, 64396, 64397, 64416, 64415
184228, 64397, 64398, 64417, 64416
184229, 64398, 64399, 64418, 64417
184230, 64399, 64400, 64419, 64418
184231, 64400, 64401, 64420, 64419
184232, 64401, 64402, 64421, 64420
184233, 64402, 64403, 64422, 64421
184234, 64403, 64404, 64423, 64422
184235, 64404, 64405, 64424, 64423
184236, 64405, 64406, 64425, 64424
184237, 64406, 64407, 64426, 64425
184238, 64407, 64408, 64427, 64426
184239, 64408, 64409, 64428, 64427
184240, 64409, 60429, 60430, 64428
184241, 60099, 64410, 64429, 60100
184242, 64410, 64411, 64430, 64429
184243, 64411, 64412, 64431, 64430
184244, 64412, 64413, 64432, 64431
184245, 64413, 64414, 64433, 64432
184246, 64414, 64415, 64434, 64433
184247, 64415, 64416, 64435, 64434
184248, 64416, 64417, 64436, 64435
184249, 64417, 64418, 64437, 64436
184250, 64418, 64419, 64438, 64437
184251, 64419, 64420, 64439, 64438
184252, 64420, 64421, 64440, 64439
184253, 64421, 64422, 64441, 64440
184254, 64422, 64423, 64442, 64441
184255, 64423, 64424, 64443, 64442
184256, 64424, 64425, 64444, 64443
184257, 64425, 64426, 64445, 64444
184258, 64426, 64427, 64446, 64445
184259, 64427, 64428, 64447, 64446
184260, 64428, 60430, 60431, 64447
184261, 60100, 64429, 64448, 60101
184262, 64429, 64430, 64449, 64448
184263, 64430, 64431, 64450, 64449
184264, 64431, 64432, 64451, 64450
184265, 64432, 64433, 64452, 64451
184266, 64433, 64434, 64453, 64452
184267, 64434, 64435, 64454, 64453
184268, 64435, 64436, 64455, 64454
184269, 64436, 64437, 64456, 64455
184270, 64437, 64438, 64457, 64456
184271, 64438, 64439, 64458, 64457
184272, 64439, 64440, 64459, 64458
184273, 64440, 64441, 64460, 64459
184274, 64441, 64442, 64461, 64460
184275, 64442, 64443, 64462, 64461
184276, 64443, 64444, 64463, 64462
184277, 64444, 64445, 64464, 64463
184278, 64445, 64446, 64465, 64464
184279, 64446, 64447, 64466, 64465
184280, 64447, 60431, 60432, 64466
184281, 60101, 64448, 64467, 60102
184282, 64448, 64449, 64468, 64467
184283, 64449, 64450, 64469, 64468
184284, 64450, 64451, 64470, 64469
184285, 64451, 64452, 64471, 64470
184286, 64452, 64453, 64472, 64471
184287, 64453, 64454, 64473, 64472
184288, 64454, 64455, 64474, 64473
184289, 64455, 64456, 64475, 64474
184290, 64456, 64457, 64476, 64475
184291, 64457, 64458, 64477, 64476
184292, 64458, 64459, 64478, 64477
184293, 64459, 64460, 64479, 64478
184294, 64460, 64461, 64480, 64479
184295, 64461, 64462, 64481, 64480
184296, 64462, 64463, 64482, 64481
184297, 64463, 64464, 64483, 64482
184298, 64464, 64465, 64484, 64483
184299, 64465, 64466, 64485, 64484
184300, 64466, 60432, 60433, 64485
184301, 60102, 64467, 64486, 60103
184302, 64467, 64468, 64487, 64486
184303, 64468, 64469, 64488, 64487
184304, 64469, 64470, 64489, 64488
184305, 64470, 64471, 64490, 64489
184306, 64471, 64472, 64491, 64490
184307, 64472, 64473, 64492, 64491
184308, 64473, 64474, 64493, 64492
184309, 64474, 64475, 64494, 64493
184310, 64475, 64476, 64495, 64494
184311, 64476, 64477, 64496, 64495
184312, 64477, 64478, 64497, 64496
184313, 64478, 64479, 64498, 64497
184314, 64479, 64480, 64499, 64498
184315, 64480, 64481, 64500, 64499
184316, 64481, 64482, 64501, 64500
184317, 64482, 64483, 64502, 64501
184318, 64483, 64484, 64503, 64502
184319, 64484, 64485, 64504, 64503
184320, 64485, 60433, 60434, 64504
184321, 60103, 64486, 64505, 60104
184322, 64486, 64487, 64506, 64505
184323, 64487, 64488, 64507, 64506
184324, 64488, 64489, 64508, 64507
184325, 64489, 64490, 64509, 64508
184326, 64490, 64491, 64510, 64509
184327, 64491, 64492, 64511, 64510
184328, 64492, 64493, 64512, 64511
184329, 64493, 64494, 64513, 64512
184330, 64494, 64495, 64514, 64513
184331, 64495, 64496, 64515, 64514
184332, 64496, 64497, 64516, 64515
184333, 64497, 64498, 64517, 64516
184334, 64498, 64499, 64518, 64517
184335, 64499, 64500, 64519, 64518
184336, 64500, 64501, 64520, 64519
184337, 64501, 64502, 64521, 64520
184338, 64502, 64503, 64522, 64521
184339, 64503, 64504, 64523, 64522
184340, 64504, 60434, 60435, 64523
184341, 60104, 64505, 64524, 60105
184342, 64505, 64506, 64525, 64524
184343, 64506, 64507, 64526, 64525
184344, 64507, 64508, 64527, 64526
184345, 64508, 64509, 64528, 64527
184346, 64509, 64510, 64529, 64528
184347, 64510, 64511, 64530, 64529
184348, 64511, 64512, 64531, 64530
184349, 64512, 64513, 64532, 64531
184350, 64513, 64514, 64533, 64532
184351, 64514, 64515, 64534, 64533
184352, 64515, 64516, 64535, 64534
184353, 64516, 64517, 64536, 64535
184354, 64517, 64518, 64537, 64536
184355, 64518, 64519, 64538, 64537
184356, 64519, 64520, 64539, 64538
184357, 64520, 64521, 64540, 64539
184358, 64521, 64522, 64541, 64540
184359, 64522, 64523, 64542, 64541
184360, 64523, 60435, 60436, 64542
184361, 60105, 64524, 64543, 60106
184362, 64524, 64525, 64544, 64543
184363, 64525, 64526, 64545, 64544
184364, 64526, 64527, 64546, 64545
184365, 64527, 64528, 64547, 64546
184366, 64528, 64529, 64548, 64547
184367, 64529, 64530, 64549, 64548
184368, 64530, 64531, 64550, 64549
184369, 64531, 64532, 64551, 64550
184370, 64532, 64533, 64552, 64551
184371, 64533, 64534, 64553, 64552
184372, 64534, 64535, 64554, 64553
184373, 64535, 64536, 64555, 64554
184374, 64536, 64537, 64556, 64555
184375, 64537, 64538, 64557, 64556
184376, 64538, 64539, 64558, 64557
184377, 64539, 64540, 64559, 64558
184378, 64540, 64541, 64560, 64559
184379, 64541, 64542, 64561, 64560
184380, 64542, 60436, 60437, 64561
184381, 60106, 64543, 64562, 60107
184382, 64543, 64544, 64563, 64562
184383, 64544, 64545, 64564, 64563
184384, 64545, 64546, 64565, 64564
184385, 64546, 64547, 64566, 64565
184386, 64547, 64548, 64567, 64566
184387, 64548, 64549, 64568, 64567
184388, 64549, 64550, 64569, 64568
184389, 64550, 64551, 64570, 64569
184390, 64551, 64552, 64571, 64570
184391, 64552, 64553, 64572, 64571
184392, 64553, 64554, 64573, 64572
184393, 64554, 64555, 64574, 64573
184394, 64555, 64556, 64575, 64574
184395, 64556, 64557, 64576, 64575
184396, 64557, 64558, 64577, 64576
184397, 64558, 64559, 64578, 64577
184398, 64559, 64560, 64579, 64578
184399, 64560, 64561, 64580, 64579
184400, 64561, 60437, 60438, 64580
184401, 60107, 64562, 64581, 60108
184402, 64562, 64563, 64582, 64581
184403, 64563, 64564, 64583, 64582
184404, 64564, 64565, 64584, 64583
184405, 64565, 64566, 64585, 64584
184406, 64566, 64567, 64586, 64585
184407, 64567, 64568, 64587, 64586
184408, 64568, 64569, 64588, 64587
184409, 64569, 64570, 64589, 64588
184410, 64570, 64571, 64590, 64589
184411, 64571, 64572, 64591, 64590
184412, 64572, 64573, 64592, 64591
184413, 64573, 64574, 64593, 64592
184414, 64574, 64575, 64594, 64593
184415, 64575, 64576, 64595, 64594
184416, 64576, 64577, 64596, 64595
184417, 64577, 64578, 64597, 64596
184418, 64578, 64579, 64598, 64597
184419, 64579, 64580, 64599, 64598
184420, 64580, 60438, 60439, 64599
184421, 60108, 64581, 64600, 60109
184422, 64581, 64582, 64601, 64600
184423, 64582, 64583, 64602, 64601
184424, 64583, 64584, 64603, 64602
184425, 64584, 64585, 64604, 64603
184426, 64585, 64586, 64605, 64604
184427, 64586, 64587, 64606, 64605
184428, 64587, 64588, 64607, 64606
184429, 64588, 64589, 64608, 64607
184430, 64589, 64590, 64609, 64608
184431, 64590, 64591, 64610, 64609
184432, 64591, 64592, 64611, 64610
184433, 64592, 64593, 64612, 64611
184434, 64593, 64594, 64613, 64612
184435, 64594, 64595, 64614, 64613
184436, 64595, 64596, 64615, 64614
184437, 64596, 64597, 64616, 64615
184438, 64597, 64598, 64617, 64616
184439, 64598, 64599, 64618, 64617
184440, 64599, 60439, 60440, 64618
184441, 60109, 64600, 64619, 60110
184442, 64600, 64601, 64620, 64619
184443, 64601, 64602, 64621, 64620
184444, 64602, 64603, 64622, 64621
184445, 64603, 64604, 64623, 64622
184446, 64604, 64605, 64624, 64623
184447, 64605, 64606, 64625, 64624
184448, 64606, 64607, 64626, 64625
184449, 64607, 64608, 64627, 64626
184450, 64608, 64609, 64628, 64627
184451, 64609, 64610, 64629, 64628
184452, 64610, 64611, 64630, 64629
184453, 64611, 64612, 64631, 64630
184454, 64612, 64613, 64632, 64631
184455, 64613, 64614, 64633, 64632
184456, 64614, 64615, 64634, 64633
184457, 64615, 64616, 64635, 64634
184458, 64616, 64617, 64636, 64635
184459, 64617, 64618, 64637, 64636
184460, 64618, 60440, 60441, 64637
184461, 60110, 64619, 64638, 60111
184462, 64619, 64620, 64639, 64638
184463, 64620, 64621, 64640, 64639
184464, 64621, 64622, 64641, 64640
184465, 64622, 64623, 64642, 64641
184466, 64623, 64624, 64643, 64642
184467, 64624, 64625, 64644, 64643
184468, 64625, 64626, 64645, 64644
184469, 64626, 64627, 64646, 64645
184470, 64627, 64628, 64647, 64646
184471, 64628, 64629, 64648, 64647
184472, 64629, 64630, 64649, 64648
184473, 64630, 64631, 64650, 64649
184474, 64631, 64632, 64651, 64650
184475, 64632, 64633, 64652, 64651
184476, 64633, 64634, 64653, 64652
184477, 64634, 64635, 64654, 64653
184478, 64635, 64636, 64655, 64654
184479, 64636, 64637, 64656, 64655
184480, 64637, 60441, 60442, 64656
184481, 60111, 64638, 64657, 60112
184482, 64638, 64639, 64658, 64657
184483, 64639, 64640, 64659, 64658
184484, 64640, 64641, 64660, 64659
184485, 64641, 64642, 64661, 64660
184486, 64642, 64643, 64662, 64661
184487, 64643, 64644, 64663, 64662
184488, 64644, 64645, 64664, 64663
184489, 64645, 64646, 64665, 64664
184490, 64646, 64647, 64666, 64665
184491, 64647, 64648, 64667, 64666
184492, 64648, 64649, 64668, 64667
184493, 64649, 64650, 64669, 64668
184494, 64650, 64651, 64670, 64669
184495, 64651, 64652, 64671, 64670
184496, 64652, 64653, 64672, 64671
184497, 64653, 64654, 64673, 64672
184498, 64654, 64655, 64674, 64673
184499, 64655, 64656, 64675, 64674
184500, 64656, 60442, 60443, 64675
184501, 60112, 64657, 64676, 60113
184502, 64657, 64658, 64677, 64676
184503, 64658, 64659, 64678, 64677
184504, 64659, 64660, 64679, 64678
184505, 64660, 64661, 64680, 64679
184506, 64661, 64662, 64681, 64680
184507, 64662, 64663, 64682, 64681
184508, 64663, 64664, 64683, 64682
184509, 64664, 64665, 64684, 64683
184510, 64665, 64666, 64685, 64684
184511, 64666, 64667, 64686, 64685
184512, 64667, 64668, 64687, 64686
184513, 64668, 64669, 64688, 64687
184514, 64669, 64670, 64689, 64688
184515, 64670, 64671, 64690, 64689
184516, 64671, 64672, 64691, 64690
184517, 64672, 64673, 64692, 64691
184518, 64673, 64674, 64693, 64692
184519, 64674, 64675, 64694, 64693
184520, 64675, 60443, 60444, 64694
184521, 60113, 64676, 64695, 60114
184522, 64676, 64677, 64696, 64695
184523, 64677, 64678, 64697, 64696
184524, 64678, 64679, 64698, 64697
184525, 64679, 64680, 64699, 64698
184526, 64680, 64681, 64700, 64699
184527, 64681, 64682, 64701, 64700
184528, 64682, 64683, 64702, 64701
184529, 64683, 64684, 64703, 64702
184530, 64684, 64685, 64704, 64703
184531, 64685, 64686, 64705, 64704
184532, 64686, 64687, 64706, 64705
184533, 64687, 64688, 64707, 64706
184534, 64688, 64689, 64708, 64707
184535, 64689, 64690, 64709, 64708
184536, 64690, 64691, 64710, 64709
184537, 64691, 64692, 64711, 64710
184538, 64692, 64693, 64712, 64711
184539, 64693, 64694, 64713, 64712
184540, 64694, 60444, 60445, 64713
184541, 60114, 64695, 64714, 60115
184542, 64695, 64696, 64715, 64714
184543, 64696, 64697, 64716, 64715
184544, 64697, 64698, 64717, 64716
184545, 64698, 64699, 64718, 64717
184546, 64699, 64700, 64719, 64718
184547, 64700, 64701, 64720, 64719
184548, 64701, 64702, 64721, 64720
184549, 64702, 64703, 64722, 64721
184550, 64703, 64704, 64723, 64722
184551, 64704, 64705, 64724, 64723
184552, 64705, 64706, 64725, 64724
184553, 64706, 64707, 64726, 64725
184554, 64707, 64708, 64727, 64726
184555, 64708, 64709, 64728, 64727
184556, 64709, 64710, 64729, 64728
184557, 64710, 64711, 64730, 64729
184558, 64711, 64712, 64731, 64730
184559, 64712, 64713, 64732, 64731
184560, 64713, 60445, 60446, 64732
184561, 60115, 64714, 64733, 60116
184562, 64714, 64715, 64734, 64733
184563, 64715, 64716, 64735, 64734
184564, 64716, 64717, 64736, 64735
184565, 64717, 64718, 64737, 64736
184566, 64718, 64719, 64738, 64737
184567, 64719, 64720, 64739, 64738
184568, 64720, 64721, 64740, 64739
184569, 64721, 64722, 64741, 64740
184570, 64722, 64723, 64742, 64741
184571, 64723, 64724, 64743, 64742
184572, 64724, 64725, 64744, 64743
184573, 64725, 64726, 64745, 64744
184574, 64726, 64727, 64746, 64745
184575, 64727, 64728, 64747, 64746
184576, 64728, 64729, 64748, 64747
184577, 64729, 64730, 64749, 64748
184578, 64730, 64731, 64750, 64749
184579, 64731, 64732, 64751, 64750
184580, 64732, 60446, 60447, 64751
184581, 60116, 64733, 64752, 60117
184582, 64733, 64734, 64753, 64752
184583, 64734, 64735, 64754, 64753
184584, 64735, 64736, 64755, 64754
184585, 64736, 64737, 64756, 64755
184586, 64737, 64738, 64757, 64756
184587, 64738, 64739, 64758, 64757
184588, 64739, 64740, 64759, 64758
184589, 64740, 64741, 64760, 64759
184590, 64741, 64742, 64761, 64760
184591, 64742, 64743, 64762, 64761
184592, 64743, 64744, 64763, 64762
184593, 64744, 64745, 64764, 64763
184594, 64745, 64746, 64765, 64764
184595, 64746, 64747, 64766, 64765
184596, 64747, 64748, 64767, 64766
184597, 64748, 64749, 64768, 64767
184598, 64749, 64750, 64769, 64768
184599, 64750, 64751, 64770, 64769
184600, 64751, 60447, 60448, 64770
184601, 60117, 64752, 64771, 60118
184602, 64752, 64753, 64772, 64771
184603, 64753, 64754, 64773, 64772
184604, 64754, 64755, 64774, 64773
184605, 64755, 64756, 64775, 64774
184606, 64756, 64757, 64776, 64775
184607, 64757, 64758, 64777, 64776
184608, 64758, 64759, 64778, 64777
184609, 64759, 64760, 64779, 64778
184610, 64760, 64761, 64780, 64779
184611, 64761, 64762, 64781, 64780
184612, 64762, 64763, 64782, 64781
184613, 64763, 64764, 64783, 64782
184614, 64764, 64765, 64784, 64783
184615, 64765, 64766, 64785, 64784
184616, 64766, 64767, 64786, 64785
184617, 64767, 64768, 64787, 64786
184618, 64768, 64769, 64788, 64787
184619, 64769, 64770, 64789, 64788
184620, 64770, 60448, 60449, 64789
184621, 60118, 64771, 64790, 60119
184622, 64771, 64772, 64791, 64790
184623, 64772, 64773, 64792, 64791
184624, 64773, 64774, 64793, 64792
184625, 64774, 64775, 64794, 64793
184626, 64775, 64776, 64795, 64794
184627, 64776, 64777, 64796, 64795
184628, 64777, 64778, 64797, 64796
184629, 64778, 64779, 64798, 64797
184630, 64779, 64780, 64799, 64798
184631, 64780, 64781, 64800, 64799
184632, 64781, 64782, 64801, 64800
184633, 64782, 64783, 64802, 64801
184634, 64783, 64784, 64803, 64802
184635, 64784, 64785, 64804, 64803
184636, 64785, 64786, 64805, 64804
184637, 64786, 64787, 64806, 64805
184638, 64787, 64788, 64807, 64806
184639, 64788, 64789, 64808, 64807
184640, 64789, 60449, 60450, 64808
184641, 60119, 64790, 64809, 60120
184642, 64790, 64791, 64810, 64809
184643, 64791, 64792, 64811, 64810
184644, 64792, 64793, 64812, 64811
184645, 64793, 64794, 64813, 64812
184646, 64794, 64795, 64814, 64813
184647, 64795, 64796, 64815, 64814
184648, 64796, 64797, 64816, 64815
184649, 64797, 64798, 64817, 64816
184650, 64798, 64799, 64818, 64817
184651, 64799, 64800, 64819, 64818
184652, 64800, 64801, 64820, 64819
184653, 64801, 64802, 64821, 64820
184654, 64802, 64803, 64822, 64821
184655, 64803, 64804, 64823, 64822
184656, 64804, 64805, 64824, 64823
184657, 64805, 64806, 64825, 64824
184658, 64806, 64807, 64826, 64825
184659, 64807, 64808, 64827, 64826
184660, 64808, 60450, 60451, 64827
184661, 60120, 64809, 64828, 60121
184662, 64809, 64810, 64829, 64828
184663, 64810, 64811, 64830, 64829
184664, 64811, 64812, 64831, 64830
184665, 64812, 64813, 64832, 64831
184666, 64813, 64814, 64833, 64832
184667, 64814, 64815, 64834, 64833
184668, 64815, 64816, 64835, 64834
184669, 64816, 64817, 64836, 64835
184670, 64817, 64818, 64837, 64836
184671, 64818, 64819, 64838, 64837
184672, 64819, 64820, 64839, 64838
184673, 64820, 64821, 64840, 64839
184674, 64821, 64822, 64841, 64840
184675, 64822, 64823, 64842, 64841
184676, 64823, 64824, 64843, 64842
184677, 64824, 64825, 64844, 64843
184678, 64825, 64826, 64845, 64844
184679, 64826, 64827, 64846, 64845
184680, 64827, 60451, 60452, 64846
184681, 60121, 64828, 64847, 60122
184682, 64828, 64829, 64848, 64847
184683, 64829, 64830, 64849, 64848
184684, 64830, 64831, 64850, 64849
184685, 64831, 64832, 64851, 64850
184686, 64832, 64833, 64852, 64851
184687, 64833, 64834, 64853, 64852
184688, 64834, 64835, 64854, 64853
184689, 64835, 64836, 64855, 64854
184690, 64836, 64837, 64856, 64855
184691, 64837, 64838, 64857, 64856
184692, 64838, 64839, 64858, 64857
184693, 64839, 64840, 64859, 64858
184694, 64840, 64841, 64860, 64859
184695, 64841, 64842, 64861, 64860
184696, 64842, 64843, 64862, 64861
184697, 64843, 64844, 64863, 64862
184698, 64844, 64845, 64864, 64863
184699, 64845, 64846, 64865, 64864
184700, 64846, 60452, 60453, 64865
184701, 60122, 64847, 64866, 60123
184702, 64847, 64848, 64867, 64866
184703, 64848, 64849, 64868, 64867
184704, 64849, 64850, 64869, 64868
184705, 64850, 64851, 64870, 64869
184706, 64851, 64852, 64871, 64870
184707, 64852, 64853, 64872, 64871
184708, 64853, 64854, 64873, 64872
184709, 64854, 64855, 64874, 64873
184710, 64855, 64856, 64875, 64874
184711, 64856, 64857, 64876, 64875
184712, 64857, 64858, 64877, 64876
184713, 64858, 64859, 64878, 64877
184714, 64859, 64860, 64879, 64878
184715, 64860, 64861, 64880, 64879
184716, 64861, 64862, 64881, 64880
184717, 64862, 64863, 64882, 64881
184718, 64863, 64864, 64883, 64882
184719, 64864, 64865, 64884, 64883
184720, 64865, 60453, 60454, 64884
184721, 60123, 64866, 64885, 60124
184722, 64866, 64867, 64886, 64885
184723, 64867, 64868, 64887, 64886
184724, 64868, 64869, 64888, 64887
184725, 64869, 64870, 64889, 64888
184726, 64870, 64871, 64890, 64889
184727, 64871, 64872, 64891, 64890
184728, 64872, 64873, 64892, 64891
184729, 64873, 64874, 64893, 64892
184730, 64874, 64875, 64894, 64893
184731, 64875, 64876, 64895, 64894
184732, 64876, 64877, 64896, 64895
184733, 64877, 64878, 64897, 64896
184734, 64878, 64879, 64898, 64897
184735, 64879, 64880, 64899, 64898
184736, 64880, 64881, 64900, 64899
184737, 64881, 64882, 64901, 64900
184738, 64882, 64883, 64902, 64901
184739, 64883, 64884, 64903, 64902
184740, 64884, 60454, 60455, 64903
184741, 60124, 64885, 64904, 60125
184742, 64885, 64886, 64905, 64904
184743, 64886, 64887, 64906, 64905
184744, 64887, 64888, 64907, 64906
184745, 64888, 64889, 64908, 64907
184746, 64889, 64890, 64909, 64908
184747, 64890, 64891, 64910, 64909
184748, 64891, 64892, 64911, 64910
184749, 64892, 64893, 64912, 64911
184750, 64893, 64894, 64913, 64912
184751, 64894, 64895, 64914, 64913
184752, 64895, 64896, 64915, 64914
184753, 64896, 64897, 64916, 64915
184754, 64897, 64898, 64917, 64916
184755, 64898, 64899, 64918, 64917
184756, 64899, 64900, 64919, 64918
184757, 64900, 64901, 64920, 64919
184758, 64901, 64902, 64921, 64920
184759, 64902, 64903, 64922, 64921
184760, 64903, 60455, 60456, 64922
184761, 60125, 64904, 64923, 60126
184762, 64904, 64905, 64924, 64923
184763, 64905, 64906, 64925, 64924
184764, 64906, 64907, 64926, 64925
184765, 64907, 64908, 64927, 64926
184766, 64908, 64909, 64928, 64927
184767, 64909, 64910, 64929, 64928
184768, 64910, 64911, 64930, 64929
184769, 64911, 64912, 64931, 64930
184770, 64912, 64913, 64932, 64931
184771, 64913, 64914, 64933, 64932
184772, 64914, 64915, 64934, 64933
184773, 64915, 64916, 64935, 64934
184774, 64916, 64917, 64936, 64935
184775, 64917, 64918, 64937, 64936
184776, 64918, 64919, 64938, 64937
184777, 64919, 64920, 64939, 64938
184778, 64920, 64921, 64940, 64939
184779, 64921, 64922, 64941, 64940
184780, 64922, 60456, 60457, 64941
184781, 60126, 64923, 60245, 60003
184782, 64923, 64924, 60246, 60245
184783, 64924, 64925, 60247, 60246
184784, 64925, 64926, 60248, 60247
184785, 64926, 64927, 60249, 60248
184786, 64927, 64928, 60250, 60249
184787, 64928, 64929, 60251, 60250
184788, 64929, 64930, 60252, 60251
184789, 64930, 64931, 60253, 60252
184790, 64931, 64932, 60254, 60253
184791, 64932, 64933, 60255, 60254
184792, 64933, 64934, 60256, 60255
184793, 64934, 64935, 60257, 60256
184794, 64935, 64936, 60258, 60257
184795, 64936, 64937, 60259, 60258
184796, 64937, 64938, 60260, 60259
184797, 64938, 64939, 60261, 60260
184798, 64939, 64940, 60262, 60261
184799, 64940, 64941, 60263, 60262
184800, 64941, 60457, 60005, 60263
122801, 2, 320, 3061, 28
122802, 320, 319, 3062, 3061
122803, 319, 318, 3063, 3062
122804, 318, 317, 3064, 3063
122805, 317, 316, 3065, 3064
122806, 316, 315, 3066, 3065
122807, 315, 314, 3067, 3066
122808, 314, 313, 3068, 3067
122809, 313, 312, 3069, 3068
122810, 312, 311, 3070, 3069
122811, 311, 310, 3071, 3070
122812, 310, 309, 3072, 3071
122813, 309, 308, 3073, 3072
122814, 308, 307, 3074, 3073
122815, 307, 306, 3075, 3074
122816, 306, 305, 3076, 3075
122817, 305, 304, 3077, 3076
122818, 304, 303, 3078, 3077
122819, 303, 302, 3079, 3078
122820, 302, 7, 359, 3079
122821, 28, 3061, 3080, 29
122822, 3061, 3062, 3081, 3080
122823, 3062, 3063, 3082, 3081
122824, 3063, 3064, 3083, 3082
122825, 3064, 3065, 3084, 3083
122826, 3065, 3066, 3085, 3084
122827, 3066, 3067, 3086, 3085
122828, 3067, 3068, 3087, 3086
122829, 3068, 3069, 3088, 3087
122830, 3069, 3070, 3089, 3088
122831, 3070, 3071, 3090, 3089
122832, 3071, 3072, 3091, 3090
122833, 3072, 3073, 3092, 3091
122834, 3073, 3074, 3093, 3092
122835, 3074, 3075, 3094, 3093
122836, 3075, 3076, 3095, 3094
122837, 3076, 3077, 3096, 3095
122838, 3077, 3078, 3097, 3096
122839, 3078, 3079, 3098, 3097
122840, 3079, 359, 360, 3098
122841, 29, 3080, 3099, 30
122842, 3080, 3081, 3100, 3099
122843, 3081, 3082, 3101, 3100
122844, 3082, 3083, 3102, 3101
122845, 3083, 3084, 3103, 3102
122846, 3084, 3085, 3104, 3103
122847, 3085, 3086, 3105, 3104
122848, 3086, 3087, 3106, 3105
122849, 3087, 3088, 3107, 3106
122850, 3088, 3089, 3108, 3107
122851, 3089, 3090, 3109, 3108
122852, 3090, 3091, 3110, 3109
122853, 3091, 3092, 3111, 3110
122854, 3092, 3093, 3112, 3111
122855, 3093, 3094, 3113, 3112
122856, 3094, 3095, 3114, 3113
122857, 3095, 3096, 3115, 3114
122858, 3096, 3097, 3116, 3115
122859, 3097, 3098, 3117, 3116
122860, 3098, 360, 361, 3117
122861, 30, 3099, 3118, 31
122862, 3099, 3100, 3119, 3118
122863, 3100, 3101, 3120, 3119
122864, 3101, 3102, 3121, 3120
122865, 3102, 3103, 3122, 3121
122866, 3103, 3104, 3123, 3122
122867, 3104, 3105, 3124, 3123
122868, 3105, 3106, 3125, 3124
122869, 3106, 3107, 3126, 3125
122870, 3107, 3108, 3127, 3126
122871, 3108, 3109, 3128, 3127
122872, 3109, 3110, 3129, 3128
122873, 3110, 3111, 3130, 3129
122874, 3111, 3112, 3131, 3130
122875, 3112, 3113, 3132, 3131
122876, 3113, 3114, 3133, 3132
122877, 3114, 3115, 3134, 3133
122878, 3115, 3116, 3135, 3134
122879, 3116, 3117, 3136, 3135
122880, 3117, 361, 362, 3136
122881, 31, 3118, 3137, 32
122882, 3118, 3119, 3138, 3137
122883, 3119, 3120, 3139, 3138
122884, 3120, 3121, 3140, 3139
122885, 3121, 3122, 3141, 3140
122886, 3122, 3123, 3142, 3141
122887, 3123, 3124, 3143, 3142
122888, 3124, 3125, 3144, 3143
122889, 3125, 3126, 3145, 3144
122890, 3126, 3127, 3146, 3145
122891, 3127, 3128, 3147, 3146
122892, 3128, 3129, 3148, 3147
122893, 3129, 3130, 3149, 3148
122894, 3130, 3131, 3150, 3149
122895, 3131, 3132, 3151, 3150
122896, 3132, 3133, 3152, 3151
122897, 3133, 3134, 3153, 3152
122898, 3134, 3135, 3154, 3153
122899, 3135, 3136, 3155, 3154
122900, 3136, 362, 363, 3155
122901, 32, 3137, 3156, 33
122902, 3137, 3138, 3157, 3156
122903, 3138, 3139, 3158, 3157
122904, 3139, 3140, 3159, 3158
122905, 3140, 3141, 3160, 3159
122906, 3141, 3142, 3161, 3160
122907, 3142, 3143, 3162, 3161
122908, 3143, 3144, 3163, 3162
122909, 3144, 3145, 3164, 3163
122910, 3145, 3146, 3165, 3164
122911, 3146, 3147, 3166, 3165
122912, 3147, 3148, 3167, 3166
122913, 3148, 3149, 3168, 3167
122914, 3149, 3150, 3169, 3168
122915, 3150, 3151, 3170, 3169
122916, 3151, 3152, 3171, 3170
122917, 3152, 3153, 3172, 3171
122918, 3153, 3154, 3173, 3172
122919, 3154, 3155, 3174, 3173
122920, 3155, 363, 364, 3174
122921, 33, 3156, 3175, 34
122922, 3156, 3157, 3176, 3175
122923, 3157, 3158, 3177, 3176
122924, 3158, 3159, 3178, 3177
122925, 3159, 3160, 3179, 3178
122926, 3160, 3161, 3180, 3179
122927, 3161, 3162, 3181, 3180
122928, 3162, 3163, 3182, 3181
122929, 3163, 3164, 3183, 3182
122930, 3164, 3165, 3184, 3183
122931, 3165, 3166, 3185, 3184
122932, 3166, 3167, 3186, 3185
122933, 3167, 3168, 3187, 3186
122934, 3168, 3169, 3188, 3187
122935, 3169, 3170, 3189, 3188
122936, 3170, 3171, 3190, 3189
122937, 3171, 3172, 3191, 3190
122938, 3172, 3173, 3192, 3191
122939, 3173, 3174, 3193, 3192
122940, 3174, 364, 365, 3193
122941, 34, 3175, 3194, 35
122942, 3175, 3176, 3195, 3194
122943, 3176, 3177, 3196, 3195
122944, 3177, 3178, 3197, 3196
122945, 3178, 3179, 3198, 3197
122946, 3179, 3180, 3199, 3198
122947, 3180, 3181, 3200, 3199
122948, 3181, 3182, 3201, 3200
122949, 3182, 3183, 3202, 3201
122950, 3183, 3184, 3203, 3202
122951, 3184, 3185, 3204, 3203
122952, 3185, 3186, 3205, 3204
122953, 3186, 3187, 3206, 3205
122954, 3187, 3188, 3207, 3206
122955, 3188, 3189, 3208, 3207
122956, 3189, 3190, 3209, 3208
122957, 3190, 3191, 3210, 3209
122958, 3191, 3192, 3211, 3210
122959, 3192, 3193, 3212, 3211
122960, 3193, 365, 366, 3212
122961, 35, 3194, 3213, 36
122962, 3194, 3195, 3214, 3213
122963, 3195, 3196, 3215, 3214
122964, 3196, 3197, 3216, 3215
122965, 3197, 3198, 3217, 3216
122966, 3198, 3199, 3218, 3217
122967, 3199, 3200, 3219, 3218
122968, 3200, 3201, 3220, 3219
122969, 3201, 3202, 3221, 3220
122970, 3202, 3203, 3222, 3221
122971, 3203, 3204, 3223, 3222
122972, 3204, 3205, 3224, 3223
122973, 3205, 3206, 3225, 3224
122974, 3206, 3207, 3226, 3225
122975, 3207, 3208, 3227, 3226
122976, 3208, 3209, 3228, 3227
122977, 3209, 3210, 3229, 3228
122978, 3210, 3211, 3230, 3229
122979, 3211, 3212, 3231, 3230
122980, 3212, 366, 367, 3231
122981, 36, 3213, 3232, 37
122982, 3213, 3214, 3233, 3232
122983, 3214, 3215, 3234, 3233
122984, 3215, 3216, 3235, 3234
122985, 3216, 3217, 3236, 3235
122986, 3217, 3218, 3237, 3236
122987, 3218, 3219, 3238, 3237
122988, 3219, 3220, 3239, 3238
122989, 3220, 3221, 3240, 3239
122990, 3221, 3222, 3241, 3240
122991, 3222, 3223, 3242, 3241
122992, 3223, 3224, 3243, 3242
122993, 3224, 3225, 3244, 3243
122994, 3225, 3226, 3245, 3244
122995, 3226, 3227, 3246, 3245
122996, 3227, 3228, 3247, 3246
122997, 3228, 3229, 3248, 3247
122998, 3229, 3230, 3249, 3248
122999, 3230, 3231, 3250, 3249
123000, 3231, 367, 368, 3250
123001, 37, 3232, 3251, 38
123002, 3232, 3233, 3252, 3251
123003, 3233, 3234, 3253, 3252
123004, 3234, 3235, 3254, 3253
123005, 3235, 3236, 3255, 3254
123006, 3236, 3237, 3256, 3255
123007, 3237, 3238, 3257, 3256
123008, 3238, 3239, 3258, 3257
123009, 3239, 3240, 3259, 3258
123010, 3240, 3241, 3260, 3259
123011, 3241, 3242, 3261, 3260
123012, 3242, 3243, 3262, 3261
123013, 3243, 3244, 3263, 3262
123014, 3244, 3245, 3264, 3263
123015, 3245, 3246, 3265, 3264
123016, 3246, 3247, 3266, 3265
123017, 3247, 3248, 3267, 3266
123018, 3248, 3249, 3268, 3267
123019, 3249, 3250, 3269, 3268
123020, 3250, 368, 369, 3269
123021, 38, 3251, 3270, 39
123022, 3251, 3252, 3271, 3270
123023, 3252, 3253, 3272, 3271
123024, 3253, 3254, 3273, 3272
123025, 3254, 3255, 3274, 3273
123026, 3255, 3256, 3275, 3274
123027, 3256, 3257, 3276, 3275
123028, 3257, 3258, 3277, 3276
123029, 3258, 3259, 3278, 3277
123030, 3259, 3260, 3279, 3278
123031, 3260, 3261, 3280, 3279
123032, 3261, 3262, 3281, 3280
123033, 3262, 3263, 3282, 3281
123034, 3263, 3264, 3283, 3282
123035, 3264, 3265, 3284, 3283
123036, 3265, 3266, 3285, 3284
123037, 3266, 3267, 3286, 3285
123038, 3267, 3268, 3287, 3286
123039, 3268, 3269, 3288, 3287
123040, 3269, 369, 370, 3288
123041, 39, 3270, 3289, 40
123042, 3270, 3271, 3290, 3289
123043, 3271, 3272, 3291, 3290
123044, 3272, 3273, 3292, 3291
123045, 3273, 3274, 3293, 3292
123046, 3274, 3275, 3294, 3293
123047, 3275, 3276, 3295, 3294
123048, 3276, 3277, 3296, 3295
123049, 3277, 3278, 3297, 3296
123050, 3278, 3279, 3298, 3297
123051, 3279, 3280, 3299, 3298
123052, 3280, 3281, 3300, 3299
123053, 3281, 3282, 3301, 3300
123054, 3282, 3283, 3302, 3301
123055, 3283, 3284, 3303, 3302
123056, 3284, 3285, 3304, 3303
123057, 3285, 3286, 3305, 3304
123058, 3286, 3287, 3306, 3305
123059, 3287, 3288, 3307, 3306
123060, 3288, 370, 371, 3307
123061, 40, 3289, 3308, 41
123062, 3289, 3290, 3309, 3308
123063, 3290, 3291, 3310, 3309
123064, 3291, 3292, 3311, 3310
123065, 3292, 3293, 3312, 3311
123066, 3293, 3294, 3313, 3312
123067, 3294, 3295, 3314, 3313
123068, 3295, 3296, 3315, 3314
123069, 3296, 3297, 3316, 3315
123070, 3297, 3298, 3317, 3316
123071, 3298, 3299, 3318, 3317
123072, 3299, 3300, 3319, 3318
123073, 3300, 3301, 3320, 3319
123074, 3301, 3302, 3321, 3320
123075, 3302, 3303, 3322, 3321
123076, 3303, 3304, 3323, 3322
123077, 3304, 3305, 3324, 3323
123078, 3305, 3306, 3325, 3324
123079, 3306, 3307, 3326, 3325
123080, 3307, 371, 372, 3326
123081, 41, 3308, 3327, 42
123082, 3308, 3309, 3328, 3327
123083, 3309, 3310, 3329, 3328
123084, 3310, 3311, 3330, 3329
123085, 3311, 3312, 3331, 3330
123086, 3312, 3313, 3332, 3331
123087, 3313, 3314, 3333, 3332
123088, 3314, 3315, 3334, 3333
123089, 3315, 3316, 3335, 3334
123090, 3316, 3317, 3336, 3335
123091, 3317, 3318, 3337, 3336
123092, 3318, 3319, 3338, 3337
123093, 3319, 3320, 3339, 3338
123094, 3320, 3321, 3340, 3339
123095, 3321, 3322, 3341, 3340
123096, 3322, 3323, 3342, 3341
123097, 3323, 3324, 3343, 3342
123098, 3324, 3325, 3344, 3343
123099, 3325, 3326, 3345, 3344
123100, 3326, 372, 373, 3345
123101, 42, 3327, 3346, 43
123102, 3327, 3328, 3347, 3346
123103, 3328, 3329, 3348, 3347
123104, 3329, 3330, 3349, 3348
123105, 3330, 3331, 3350, 3349
123106, 3331, 3332, 3351, 3350
123107, 3332, 3333, 3352, 3351
123108, 3333, 3334, 3353, 3352
123109, 3334, 3335, 3354, 3353
123110, 3335, 3336, 3355, 3354
123111, 3336, 3337, 3356, 3355
123112, 3337, 3338, 3357, 3356
123113, 3338, 3339, 3358, 3357
123114, 3339, 3340, 3359, 3358
123115, 3340, 3341, 3360, 3359
123116, 3341, 3342, 3361, 3360
123117, 3342, 3343, 3362, 3361
123118, 3343, 3344, 3363, 3362
123119, 3344, 3345, 3364, 3363
123120, 3345, 373, 374, 3364
123121, 43, 3346, 3365, 44
123122, 3346, 3347, 3366, 3365
123123, 3347, 3348, 3367, 3366
123124, 3348, 3349, 3368, 3367
123125, 3349, 3350, 3369, 3368
123126, 3350, 3351, 3370, 3369
123127, 3351, 3352, 3371, 3370
123128, 3352, 3353, 3372, 3371
123129, 3353, 3354, 3373, 3372
123130, 3354, 3355, 3374, 3373
123131, 3355, 3356, 3375, 3374
123132, 3356, 3357, 3376, 3375
123133, 3357, 3358, 3377, 3376
123134, 3358, 3359, 3378, 3377
123135, 3359, 3360, 3379, 3378
123136, 3360, 3361, 3380, 3379
123137, 3361, 3362, 3381, 3380
123138, 3362, 3363, 3382, 3381
123139, 3363, 3364, 3383, 3382
123140, 3364, 374, 375, 3383
123141, 44, 3365, 3384, 45
123142, 3365, 3366, 3385, 3384
123143, 3366, 3367, 3386, 3385
123144, 3367, 3368, 3387, 3386
123145, 3368, 3369, 3388, 3387
123146, 3369, 3370, 3389, 3388
123147, 3370, 3371, 3390, 3389
123148, 3371, 3372, 3391, 3390
123149, 3372, 3373, 3392, 3391
123150, 3373, 3374, 3393, 3392
123151, 3374, 3375, 3394, 3393
123152, 3375, 3376, 3395, 3394
123153, 3376, 3377, 3396, 3395
123154, 3377, 3378, 3397, 3396
123155, 3378, 3379, 3398, 3397
123156, 3379, 3380, 3399, 3398
123157, 3380, 3381, 3400, 3399
123158, 3381, 3382, 3401, 3400
123159, 3382, 3383, 3402, 3401
123160, 3383, 375, 376, 3402
123161, 45, 3384, 3403, 46
123162, 3384, 3385, 3404, 3403
123163, 3385, 3386, 3405, 3404
123164, 3386, 3387, 3406, 3405
123165, 3387, 3388, 3407, 3406
123166, 3388, 3389, 3408, 3407
123167, 3389, 3390, 3409, 3408
123168, 3390, 3391, 3410, 3409
123169, 3391, 3392, 3411, 3410
123170, 3392, 3393, 3412, 3411
123171, 3393, 3394, 3413, 3412
123172, 3394, 3395, 3414, 3413
123173, 3395, 3396, 3415, 3414
123174, 3396, 3397, 3416, 3415
123175, 3397, 3398, 3417, 3416
123176, 3398, 3399, 3418, 3417
123177, 3399, 3400, 3419, 3418
123178, 3400, 3401, 3420, 3419
123179, 3401, 3402, 3421, 3420
123180, 3402, 376, 377, 3421
123181, 46, 3403, 3422, 47
123182, 3403, 3404, 3423, 3422
123183, 3404, 3405, 3424, 3423
123184, 3405, 3406, 3425, 3424
123185, 3406, 3407, 3426, 3425
123186, 3407, 3408, 3427, 3426
123187, 3408, 3409, 3428, 3427
123188, 3409, 3410, 3429, 3428
123189, 3410, 3411, 3430, 3429
123190, 3411, 3412, 3431, 3430
123191, 3412, 3413, 3432, 3431
123192, 3413, 3414, 3433, 3432
123193, 3414, 3415, 3434, 3433
123194, 3415, 3416, 3435, 3434
123195, 3416, 3417, 3436, 3435
123196, 3417, 3418, 3437, 3436
123197, 3418, 3419, 3438, 3437
123198, 3419, 3420, 3439, 3438
123199, 3420, 3421, 3440, 3439
123200, 3421, 377, 378, 3440
123201, 47, 3422, 3441, 48
123202, 3422, 3423, 3442, 3441
123203, 3423, 3424, 3443, 3442
123204, 3424, 3425, 3444, 3443
123205, 3425, 3426, 3445, 3444
123206, 3426, 3427, 3446, 3445
123207, 3427, 3428, 3447, 3446
123208, 3428, 3429, 3448, 3447
123209, 3429, 3430, 3449, 3448
123210, 3430, 3431, 3450, 3449
123211, 3431, 3432, 3451, 3450
123212, 3432, 3433, 3452, 3451
123213, 3433, 3434, 3453, 3452
123214, 3434, 3435, 3454, 3453
123215, 3435, 3436, 3455, 3454
123216, 3436, 3437, 3456, 3455
123217, 3437, 3438, 3457, 3456
123218, 3438, 3439, 3458, 3457
123219, 3439, 3440, 3459, 3458
123220, 3440, 378, 379, 3459
123221, 48, 3441, 3460, 49
123222, 3441, 3442, 3461, 3460
123223, 3442, 3443, 3462, 3461
123224, 3443, 3444, 3463, 3462
123225, 3444, 3445, 3464, 3463
123226, 3445, 3446, 3465, 3464
123227, 3446, 3447, 3466, 3465
123228, 3447, 3448, 3467, 3466
123229, 3448, 3449, 3468, 3467
123230, 3449, 3450, 3469, 3468
123231, 3450, 3451, 3470, 3469
123232, 3451, 3452, 3471, 3470
123233, 3452, 3453, 3472, 3471
123234, 3453, 3454, 3473, 3472
123235, 3454, 3455, 3474, 3473
123236, 3455, 3456, 3475, 3474
123237, 3456, 3457, 3476, 3475
123238, 3457, 3458, 3477, 3476
123239, 3458, 3459, 3478, 3477
123240, 3459, 379, 380, 3478
123241, 49, 3460, 3479, 50
123242, 3460, 3461, 3480, 3479
123243, 3461, 3462, 3481, 3480
123244, 3462, 3463, 3482, 3481
123245, 3463, 3464, 3483, 3482
123246, 3464, 3465, 3484, 3483
123247, 3465, 3466, 3485, 3484
123248, 3466, 3467, 3486, 3485
123249, 3467, 3468, 3487, 3486
123250, 3468, 3469, 3488, 3487
123251, 3469, 3470, 3489, 3488
123252, 3470, 3471, 3490, 3489
123253, 3471, 3472, 3491, 3490
123254, 3472, 3473, 3492, 3491
123255, 3473, 3474, 3493, 3492
123256, 3474, 3475, 3494, 3493
123257, 3475, 3476, 3495, 3494
123258, 3476, 3477, 3496, 3495
123259, 3477, 3478, 3497, 3496
123260, 3478, 380, 381, 3497
123261, 50, 3479, 3498, 51
123262, 3479, 3480, 3499, 3498
123263, 3480, 3481, 3500, 3499
123264, 3481, 3482, 3501, 3500
123265, 3482, 3483, 3502, 3501
123266, 3483, 3484, 3503, 3502
123267, 3484, 3485, 3504, 3503
123268, 3485, 3486, 3505, 3504
123269, 3486, 3487, 3506, 3505
123270, 3487, 3488, 3507, 3506
123271, 3488, 3489, 3508, 3507
123272, 3489, 3490, 3509, 3508
123273, 3490, 3491, 3510, 3509
123274, 3491, 3492, 3511, 3510
123275, 3492, 3493, 3512, 3511
123276, 3493, 3494, 3513, 3512
123277, 3494, 3495, 3514, 3513
123278, 3495, 3496, 3515, 3514
123279, 3496, 3497, 3516, 3515
123280, 3497, 381, 382, 3516
123281, 51, 3498, 3517, 52
123282, 3498, 3499, 3518, 3517
123283, 3499, 3500, 3519, 3518
123284, 3500, 3501, 3520, 3519
123285, 3501, 3502, 3521, 3520
123286, 3502, 3503, 3522, 3521
123287, 3503, 3504, 3523, 3522
123288, 3504, 3505, 3524, 3523
123289, 3505, 3506, 3525, 3524
123290, 3506, 3507, 3526, 3525
123291, 3507, 3508, 3527, 3526
123292, 3508, 3509, 3528, 3527
123293, 3509, 3510, 3529, 3528
123294, 3510, 3511, 3530, 3529
123295, 3511, 3512, 3531, 3530
123296, 3512, 3513, 3532, 3531
123297, 3513, 3514, 3533, 3532
123298, 3514, 3515, 3534, 3533
123299, 3515, 3516, 3535, 3534
123300, 3516, 382, 383, 3535
123301, 52, 3517, 3536, 53
123302, 3517, 3518, 3537, 3536
123303, 3518, 3519, 3538, 3537
123304, 3519, 3520, 3539, 3538
123305, 3520, 3521, 3540, 3539
123306, 3521, 3522, 3541, 3540
123307, 3522, 3523, 3542, 3541
123308, 3523, 3524, 3543, 3542
123309, 3524, 3525, 3544, 3543
123310, 3525, 3526, 3545, 3544
123311, 3526, 3527, 3546, 3545
123312, 3527, 3528, 3547, 3546
123313, 3528, 3529, 3548, 3547
123314, 3529, 3530, 3549, 3548
123315, 3530, 3531, 3550, 3549
123316, 3531, 3532, 3551, 3550
123317, 3532, 3533, 3552, 3551
123318, 3533, 3534, 3553, 3552
123319, 3534, 3535, 3554, 3553
123320, 3535, 383, 384, 3554
123321, 53, 3536, 3555, 54
123322, 3536, 3537, 3556, 3555
123323, 3537, 3538, 3557, 3556
123324, 3538, 3539, 3558, 3557
123325, 3539, 3540, 3559, 3558
123326, 3540, 3541, 3560, 3559
123327, 3541, 3542, 3561, 3560
123328, 3542, 3543, 3562, 3561
123329, 3543, 3544, 3563, 3562
123330, 3544, 3545, 3564, 3563
123331, 3545, 3546, 3565, 3564
123332, 3546, 3547, 3566, 3565
123333, 3547, 3548, 3567, 3566
123334, 3548, 3549, 3568, 3567
123335, 3549, 3550, 3569, 3568
123336, 3550, 3551, 3570, 3569
123337, 3551, 3552, 3571, 3570
123338, 3552, 3553, 3572, 3571
123339, 3553, 3554, 3573, 3572
123340, 3554, 384, 385, 3573
123341, 54, 3555, 3574, 55
123342, 3555, 3556, 3575, 3574
123343, 3556, 3557, 3576, 3575
123344, 3557, 3558, 3577, 3576
123345, 3558, 3559, 3578, 3577
123346, 3559, 3560, 3579, 3578
123347, 3560, 3561, 3580, 3579
123348, 3561, 3562, 3581, 3580
123349, 3562, 3563, 3582, 3581
123350, 3563, 3564, 3583, 3582
123351, 3564, 3565, 3584, 3583
123352, 3565, 3566, 3585, 3584
123353, 3566, 3567, 3586, 3585
123354, 3567, 3568, 3587, 3586
123355, 3568, 3569, 3588, 3587
123356, 3569, 3570, 3589, 3588
123357, 3570, 3571, 3590, 3589
123358, 3571, 3572, 3591, 3590
123359, 3572, 3573, 3592, 3591
123360, 3573, 385, 386, 3592
123361, 55, 3574, 3593, 56
123362, 3574, 3575, 3594, 3593
123363, 3575, 3576, 3595, 3594
123364, 3576, 3577, 3596, 3595
123365, 3577, 3578, 3597, 3596
123366, 3578, 3579, 3598, 3597
123367, 3579, 3580, 3599, 3598
123368, 3580, 3581, 3600, 3599
123369, 3581, 3582, 3601, 3600
123370, 3582, 3583, 3602, 3601
123371, 3583, 3584, 3603, 3602
123372, 3584, 3585, 3604, 3603
123373, 3585, 3586, 3605, 3604
123374, 3586, 3587, 3606, 3605
123375, 3587, 3588, 3607, 3606
123376, 3588, 3589, 3608, 3607
123377, 3589, 3590, 3609, 3608
123378, 3590, 3591, 3610, 3609
123379, 3591, 3592, 3611, 3610
123380, 3592, 386, 387, 3611
123381, 56, 3593, 3612, 57
123382, 3593, 3594, 3613, 3612
123383, 3594, 3595, 3614, 3613
123384, 3595, 3596, 3615, 3614
123385, 3596, 3597, 3616, 3615
123386, 3597, 3598, 3617, 3616
123387, 3598, 3599, 3618, 3617
123388, 3599, 3600, 3619, 3618
123389, 3600, 3601, 3620, 3619
123390, 3601, 3602, 3621, 3620
123391, 3602, 3603, 3622, 3621
123392, 3603, 3604, 3623, 3622
123393, 3604, 3605, 3624, 3623
123394, 3605, 3606, 3625, 3624
123395, 3606, 3607, 3626, 3625
123396, 3607, 3608, 3627, 3626
123397, 3608, 3609, 3628, 3627
123398, 3609, 3610, 3629, 3628
123399, 3610, 3611, 3630, 3629
123400, 3611, 387, 388, 3630
123401, 57, 3612, 3631, 58
123402, 3612, 3613, 3632, 3631
123403, 3613, 3614, 3633, 3632
123404, 3614, 3615, 3634, 3633
123405, 3615, 3616, 3635, 3634
123406, 3616, 3617, 3636, 3635
123407, 3617, 3618, 3637, 3636
123408, 3618, 3619, 3638, 3637
123409, 3619, 3620, 3639, 3638
123410, 3620, 3621, 3640, 3639
123411, 3621, 3622, 3641, 3640
123412, 3622, 3623, 3642, 3641
123413, 3623, 3624, 3643, 3642
123414, 3624, 3625, 3644, 3643
123415, 3625, 3626, 3645, 3644
123416, 3626, 3627, 3646, 3645
123417, 3627, 3628, 3647, 3646
123418, 3628, 3629, 3648, 3647
123419, 3629, 3630, 3649, 3648
123420, 3630, 388, 389, 3649
123421, 58, 3631, 3650, 59
123422, 3631, 3632, 3651, 3650
123423, 3632, 3633, 3652, 3651
123424, 3633, 3634, 3653, 3652
123425, 3634, 3635, 3654, 3653
123426, 3635, 3636, 3655, 3654
123427, 3636, 3637, 3656, 3655
123428, 3637, 3638, 3657, 3656
123429, 3638, 3639, 3658, 3657
123430, 3639, 3640, 3659, 3658
123431, 3640, 3641, 3660, 3659
123432, 3641, 3642, 3661, 3660
123433, 3642, 3643, 3662, 3661
123434, 3643, 3644, 3663, 3662
123435, 3644, 3645, 3664, 3663
123436, 3645, 3646, 3665, 3664
123437, 3646, 3647, 3666, 3665
123438, 3647, 3648, 3667, 3666
123439, 3648, 3649, 3668, 3667
123440, 3649, 389, 390, 3668
123441, 59, 3650, 3669, 60
123442, 3650, 3651, 3670, 3669
123443, 3651, 3652, 3671, 3670
123444, 3652, 3653, 3672, 3671
123445, 3653, 3654, 3673, 3672
123446, 3654, 3655, 3674, 3673
123447, 3655, 3656, 3675, 3674
123448, 3656, 3657, 3676, 3675
123449, 3657, 3658, 3677, 3676
123450, 3658, 3659, 3678, 3677
123451, 3659, 3660, 3679, 3678
123452, 3660, 3661, 3680, 3679
123453, 3661, 3662, 3681, 3680
123454, 3662, 3663, 3682, 3681
123455, 3663, 3664, 3683, 3682
123456, 3664, 3665, 3684, 3683
123457, 3665, 3666, 3685, 3684
123458, 3666, 3667, 3686, 3685
123459, 3667, 3668, 3687, 3686
123460, 3668, 390, 391, 3687
123461, 60, 3669, 3688, 61
123462, 3669, 3670, 3689, 3688
123463, 3670, 3671, 3690, 3689
123464, 3671, 3672, 3691, 3690
123465, 3672, 3673, 3692, 3691
123466, 3673, 3674, 3693, 3692
123467, 3674, 3675, 3694, 3693
123468, 3675, 3676, 3695, 3694
123469, 3676, 3677, 3696, 3695
123470, 3677, 3678, 3697, 3696
123471, 3678, 3679, 3698, 3697
123472, 3679, 3680, 3699, 3698
123473, 3680, 3681, 3700, 3699
123474, 3681, 3682, 3701, 3700
123475, 3682, 3683, 3702, 3701
123476, 3683, 3684, 3703, 3702
123477, 3684, 3685, 3704, 3703
123478, 3685, 3686, 3705, 3704
123479, 3686, 3687, 3706, 3705
123480, 3687, 391, 392, 3706
123481, 61, 3688, 3707, 62
123482, 3688, 3689, 3708, 3707
123483, 3689, 3690, 3709, 3708
123484, 3690, 3691, 3710, 3709
123485, 3691, 3692, 3711, 3710
123486, 3692, 3693, 3712, 3711
123487, 3693, 3694, 3713, 3712
123488, 3694, 3695, 3714, 3713
123489, 3695, 3696, 3715, 3714
123490, 3696, 3697, 3716, 3715
123491, 3697, 3698, 3717, 3716
123492, 3698, 3699, 3718, 3717
123493, 3699, 3700, 3719, 3718
123494, 3700, 3701, 3720, 3719
123495, 3701, 3702, 3721, 3720
123496, 3702, 3703, 3722, 3721
123497, 3703, 3704, 3723, 3722
123498, 3704, 3705, 3724, 3723
123499, 3705, 3706, 3725, 3724
123500, 3706, 392, 393, 3725
123501, 62, 3707, 3726, 63
123502, 3707, 3708, 3727, 3726
123503, 3708, 3709, 3728, 3727
123504, 3709, 3710, 3729, 3728
123505, 3710, 3711, 3730, 3729
123506, 3711, 3712, 3731, 3730
123507, 3712, 3713, 3732, 3731
123508, 3713, 3714, 3733, 3732
123509, 3714, 3715, 3734, 3733
123510, 3715, 3716, 3735, 3734
123511, 3716, 3717, 3736, 3735
123512, 3717, 3718, 3737, 3736
123513, 3718, 3719, 3738, 3737
123514, 3719, 3720, 3739, 3738
123515, 3720, 3721, 3740, 3739
123516, 3721, 3722, 3741, 3740
123517, 3722, 3723, 3742, 3741
123518, 3723, 3724, 3743, 3742
123519, 3724, 3725, 3744, 3743
123520, 3725, 393, 394, 3744
123521, 63, 3726, 3745, 64
123522, 3726, 3727, 3746, 3745
123523, 3727, 3728, 3747, 3746
123524, 3728, 3729, 3748, 3747
123525, 3729, 3730, 3749, 3748
123526, 3730, 3731, 3750, 3749
123527, 3731, 3732, 3751, 3750
123528, 3732, 3733, 3752, 3751
123529, 3733, 3734, 3753, 3752
123530, 3734, 3735, 3754, 3753
123531, 3735, 3736, 3755, 3754
123532, 3736, 3737, 3756, 3755
123533, 3737, 3738, 3757, 3756
123534, 3738, 3739, 3758, 3757
123535, 3739, 3740, 3759, 3758
123536, 3740, 3741, 3760, 3759
123537, 3741, 3742, 3761, 3760
123538, 3742, 3743, 3762, 3761
123539, 3743, 3744, 3763, 3762
123540, 3744, 394, 395, 3763
123541, 64, 3745, 3764, 65
123542, 3745, 3746, 3765, 3764
123543, 3746, 3747, 3766, 3765
123544, 3747, 3748, 3767, 3766
123545, 3748, 3749, 3768, 3767
123546, 3749, 3750, 3769, 3768
123547, 3750, 3751, 3770, 3769
123548, 3751, 3752, 3771, 3770
123549, 3752, 3753, 3772, 3771
123550, 3753, 3754, 3773, 3772
123551, 3754, 3755, 3774, 3773
123552, 3755, 3756, 3775, 3774
123553, 3756, 3757, 3776, 3775
123554, 3757, 3758, 3777, 3776
123555, 3758, 3759, 3778, 3777
123556, 3759, 3760, 3779, 3778
123557, 3760, 3761, 3780, 3779
123558, 3761, 3762, 3781, 3780
123559, 3762, 3763, 3782, 3781
123560, 3763, 395, 396, 3782
123561, 65, 3764, 3783, 66
123562, 3764, 3765, 3784, 3783
123563, 3765, 3766, 3785, 3784
123564, 3766, 3767, 3786, 3785
123565, 3767, 3768, 3787, 3786
123566, 3768, 3769, 3788, 3787
123567, 3769, 3770, 3789, 3788
123568, 3770, 3771, 3790, 3789
123569, 3771, 3772, 3791, 3790
123570, 3772, 3773, 3792, 3791
123571, 3773, 3774, 3793, 3792
123572, 3774, 3775, 3794, 3793
123573, 3775, 3776, 3795, 3794
123574, 3776, 3777, 3796, 3795
123575, 3777, 3778, 3797, 3796
123576, 3778, 3779, 3798, 3797
123577, 3779, 3780, 3799, 3798
123578, 3780, 3781, 3800, 3799
123579, 3781, 3782, 3801, 3800
123580, 3782, 396, 397, 3801
123581, 66, 3783, 3802, 67
123582, 3783, 3784, 3803, 3802
123583, 3784, 3785, 3804, 3803
123584, 3785, 3786, 3805, 3804
123585, 3786, 3787, 3806, 3805
123586, 3787, 3788, 3807, 3806
123587, 3788, 3789, 3808, 3807
123588, 3789, 3790, 3809, 3808
123589, 3790, 3791, 3810, 3809
123590, 3791, 3792, 3811, 3810
123591, 3792, 3793, 3812, 3811
123592, 3793, 3794, 3813, 3812
123593, 3794, 3795, 3814, 3813
123594, 3795, 3796, 3815, 3814
123595, 3796, 3797, 3816, 3815
123596, 3797, 3798, 3817, 3816
123597, 3798, 3799, 3818, 3817
123598, 3799, 3800, 3819, 3818
123599, 3800, 3801, 3820, 3819
123600, 3801, 397, 398, 3820
123601, 67, 3802, 3821, 68
123602, 3802, 3803, 3822, 3821
123603, 3803, 3804, 3823, 3822
123604, 3804, 3805, 3824, 3823
123605, 3805, 3806, 3825, 3824
123606, 3806, 3807, 3826, 3825
123607, 3807, 3808, 3827, 3826
123608, 3808, 3809, 3828, 3827
123609, 3809, 3810, 3829, 3828
123610, 3810, 3811, 3830, 3829
123611, 3811, 3812, 3831, 3830
123612, 3812, 3813, 3832, 3831
123613, 3813, 3814, 3833, 3832
123614, 3814, 3815, 3834, 3833
123615, 3815, 3816, 3835, 3834
123616, 3816, 3817, 3836, 3835
123617, 3817, 3818, 3837, 3836
123618, 3818, 3819, 3838, 3837
123619, 3819, 3820, 3839, 3838
123620, 3820, 398, 399, 3839
123621, 68, 3821, 3840, 69
123622, 3821, 3822, 3841, 3840
123623, 3822, 3823, 3842, 3841
123624, 3823, 3824, 3843, 3842
123625, 3824, 3825, 3844, 3843
123626, 3825, 3826, 3845, 3844
123627, 3826, 3827, 3846, 3845
123628, 3827, 3828, 3847, 3846
123629, 3828, 3829, 3848, 3847
123630, 3829, 3830, 3849, 3848
123631, 3830, 3831, 3850, 3849
123632, 3831, 3832, 3851, 3850
123633, 3832, 3833, 3852, 3851
123634, 3833, 3834, 3853, 3852
123635, 3834, 3835, 3854, 3853
123636, 3835, 3836, 3855, 3854
123637, 3836, 3837, 3856, 3855
123638, 3837, 3838, 3857, 3856
123639, 3838, 3839, 3858, 3857
123640, 3839, 399, 400, 3858
123641, 69, 3840, 3859, 70
123642, 3840, 3841, 3860, 3859
123643, 3841, 3842, 3861, 3860
123644, 3842, 3843, 3862, 3861
123645, 3843, 3844, 3863, 3862
123646, 3844, 3845, 3864, 3863
123647, 3845, 3846, 3865, 3864
123648, 3846, 3847, 3866, 3865
123649, 3847, 3848, 3867, 3866
123650, 3848, 3849, 3868, 3867
123651, 3849, 3850, 3869, 3868
123652, 3850, 3851, 3870, 3869
123653, 3851, 3852, 3871, 3870
123654, 3852, 3853, 3872, 3871
123655, 3853, 3854, 3873, 3872
123656, 3854, 3855, 3874, 3873
123657, 3855, 3856, 3875, 3874
123658, 3856, 3857, 3876, 3875
123659, 3857, 3858, 3877, 3876
123660, 3858, 400, 401, 3877
123661, 70, 3859, 3878, 71
123662, 3859, 3860, 3879, 3878
123663, 3860, 3861, 3880, 3879
123664, 3861, 3862, 3881, 3880
123665, 3862, 3863, 3882, 3881
123666, 3863, 3864, 3883, 3882
123667, 3864, 3865, 3884, 3883
123668, 3865, 3866, 3885, 3884
123669, 3866, 3867, 3886, 3885
123670, 3867, 3868, 3887, 3886
123671, 3868, 3869, 3888, 3887
123672, 3869, 3870, 3889, 3888
123673, 3870, 3871, 3890, 3889
123674, 3871, 3872, 3891, 3890
123675, 3872, 3873, 3892, 3891
123676, 3873, 3874, 3893, 3892
123677, 3874, 3875, 3894, 3893
123678, 3875, 3876, 3895, 3894
123679, 3876, 3877, 3896, 3895
123680, 3877, 401, 402, 3896
123681, 71, 3878, 3897, 72
123682, 3878, 3879, 3898, 3897
123683, 3879, 3880, 3899, 3898
123684, 3880, 3881, 3900, 3899
123685, 3881, 3882, 3901, 3900
123686, 3882, 3883, 3902, 3901
123687, 3883, 3884, 3903, 3902
123688, 3884, 3885, 3904, 3903
123689, 3885, 3886, 3905, 3904
123690, 3886, 3887, 3906, 3905
123691, 3887, 3888, 3907, 3906
123692, 3888, 3889, 3908, 3907
123693, 3889, 3890, 3909, 3908
123694, 3890, 3891, 3910, 3909
123695, 3891, 3892, 3911, 3910
123696, 3892, 3893, 3912, 3911
123697, 3893, 3894, 3913, 3912
123698, 3894, 3895, 3914, 3913
123699, 3895, 3896, 3915, 3914
123700, 3896, 402, 403, 3915
123701, 72, 3897, 3916, 73
123702, 3897, 3898, 3917, 3916
123703, 3898, 3899, 3918, 3917
123704, 3899, 3900, 3919, 3918
123705, 3900, 3901, 3920, 3919
123706, 3901, 3902, 3921, 3920
123707, 3902, 3903, 3922, 3921
123708, 3903, 3904, 3923, 3922
123709, 3904, 3905, 3924, 3923
123710, 3905, 3906, 3925, 3924
123711, 3906, 3907, 3926, 3925
123712, 3907, 3908, 3927, 3926
123713, 3908, 3909, 3928, 3927
123714, 3909, 3910, 3929, 3928
123715, 3910, 3911, 3930, 3929
123716, 3911, 3912, 3931, 3930
123717, 3912, 3913, 3932, 3931
123718, 3913, 3914, 3933, 3932
123719, 3914, 3915, 3934, 3933
123720, 3915, 403, 404, 3934
123721, 73, 3916, 3935, 74
123722, 3916, 3917, 3936, 3935
123723, 3917, 3918, 3937, 3936
123724, 3918, 3919, 3938, 3937
123725, 3919, 3920, 3939, 3938
123726, 3920, 3921, 3940, 3939
123727, 3921, 3922, 3941, 3940
123728, 3922, 3923, 3942, 3941
123729, 3923, 3924, 3943, 3942
123730, 3924, 3925, 3944, 3943
123731, 3925, 3926, 3945, 3944
123732, 3926, 3927, 3946, 3945
123733, 3927, 3928, 3947, 3946
123734, 3928, 3929, 3948, 3947
123735, 3929, 3930, 3949, 3948
123736, 3930, 3931, 3950, 3949
123737, 3931, 3932, 3951, 3950
123738, 3932, 3933, 3952, 3951
123739, 3933, 3934, 3953, 3952
123740, 3934, 404, 405, 3953
123741, 74, 3935, 3954, 75
123742, 3935, 3936, 3955, 3954
123743, 3936, 3937, 3956, 3955
123744, 3937, 3938, 3957, 3956
123745, 3938, 3939, 3958, 3957
123746, 3939, 3940, 3959, 3958
123747, 3940, 3941, 3960, 3959
123748, 3941, 3942, 3961, 3960
123749, 3942, 3943, 3962, 3961
123750, 3943, 3944, 3963, 3962
123751, 3944, 3945, 3964, 3963
123752, 3945, 3946, 3965, 3964
123753, 3946, 3947, 3966, 3965
123754, 3947, 3948, 3967, 3966
123755, 3948, 3949, 3968, 3967
123756, 3949, 3950, 3969, 3968
123757, 3950, 3951, 3970, 3969
123758, 3951, 3952, 3971, 3970
123759, 3952, 3953, 3972, 3971
123760, 3953, 405, 406, 3972
123761, 75, 3954, 3973, 76
123762, 3954, 3955, 3974, 3973
123763, 3955, 3956, 3975, 3974
123764, 3956, 3957, 3976, 3975
123765, 3957, 3958, 3977, 3976
123766, 3958, 3959, 3978, 3977
123767, 3959, 3960, 3979, 3978
123768, 3960, 3961, 3980, 3979
123769, 3961, 3962, 3981, 3980
123770, 3962, 3963, 3982, 3981
123771, 3963, 3964, 3983, 3982
123772, 3964, 3965, 3984, 3983
123773, 3965, 3966, 3985, 3984
123774, 3966, 3967, 3986, 3985
123775, 3967, 3968, 3987, 3986
123776, 3968, 3969, 3988, 3987
123777, 3969, 3970, 3989, 3988
123778, 3970, 3971, 3990, 3989
123779, 3971, 3972, 3991, 3990
123780, 3972, 406, 407, 3991
123781, 76, 3973, 3992, 77
123782, 3973, 3974, 3993, 3992
123783, 3974, 3975, 3994, 3993
123784, 3975, 3976, 3995, 3994
123785, 3976, 3977, 3996, 3995
123786, 3977, 3978, 3997, 3996
123787, 3978, 3979, 3998, 3997
123788, 3979, 3980, 3999, 3998
123789, 3980, 3981, 4000, 3999
123790, 3981, 3982, 4001, 4000
123791, 3982, 3983, 4002, 4001
123792, 3983, 3984, 4003, 4002
123793, 3984, 3985, 4004, 4003
123794, 3985, 3986, 4005, 4004
123795, 3986, 3987, 4006, 4005
123796, 3987, 3988, 4007, 4006
123797, 3988, 3989, 4008, 4007
123798, 3989, 3990, 4009, 4008
123799, 3990, 3991, 4010, 4009
123800, 3991, 407, 408, 4010
123801, 77, 3992, 4011, 78
123802, 3992, 3993, 4012, 4011
123803, 3993, 3994, 4013, 4012
123804, 3994, 3995, 4014, 4013
123805, 3995, 3996, 4015, 4014
123806, 3996, 3997, 4016, 4015
123807, 3997, 3998, 4017, 4016
123808, 3998, 3999, 4018, 4017
123809, 3999, 4000, 4019, 4018
123810, 4000, 4001, 4020, 4019
123811, 4001, 4002, 4021, 4020
123812, 4002, 4003, 4022, 4021
123813, 4003, 4004, 4023, 4022
123814, 4004, 4005, 4024, 4023
123815, 4005, 4006, 4025, 4024
123816, 4006, 4007, 4026, 4025
123817, 4007, 4008, 4027, 4026
123818, 4008, 4009, 4028, 4027
123819, 4009, 4010, 4029, 4028
123820, 4010, 408, 409, 4029
123821, 78, 4011, 4030, 79
123822, 4011, 4012, 4031, 4030
123823, 4012, 4013, 4032, 4031
123824, 4013, 4014, 4033, 4032
123825, 4014, 4015, 4034, 4033
123826, 4015, 4016, 4035, 4034
123827, 4016, 4017, 4036, 4035
123828, 4017, 4018, 4037, 4036
123829, 4018, 4019, 4038, 4037
123830, 4019, 4020, 4039, 4038
123831, 4020, 4021, 4040, 4039
123832, 4021, 4022, 4041, 4040
123833, 4022, 4023, 4042, 4041
123834, 4023, 4024, 4043, 4042
123835, 4024, 4025, 4044, 4043
123836, 4025, 4026, 4045, 4044
123837, 4026, 4027, 4046, 4045
123838, 4027, 4028, 4047, 4046
123839, 4028, 4029, 4048, 4047
123840, 4029, 409, 410, 4048
123841, 79, 4030, 4049, 80
123842, 4030, 4031, 4050, 4049
123843, 4031, 4032, 4051, 4050
123844, 4032, 4033, 4052, 4051
123845, 4033, 4034, 4053, 4052
123846, 4034, 4035, 4054, 4053
123847, 4035, 4036, 4055, 4054
123848, 4036, 4037, 4056, 4055
123849, 4037, 4038, 4057, 4056
123850, 4038, 4039, 4058, 4057
123851, 4039, 4040, 4059, 4058
123852, 4040, 4041, 4060, 4059
123853, 4041, 4042, 4061, 4060
123854, 4042, 4043, 4062, 4061
123855, 4043, 4044, 4063, 4062
123856, 4044, 4045, 4064, 4063
123857, 4045, 4046, 4065, 4064
123858, 4046, 4047, 4066, 4065
123859, 4047, 4048, 4067, 4066
123860, 4048, 410, 411, 4067
123861, 80, 4049, 4068, 81
123862, 4049, 4050, 4069, 4068
123863, 4050, 4051, 4070, 4069
123864, 4051, 4052, 4071, 4070
123865, 4052, 4053, 4072, 4071
123866, 4053, 4054, 4073, 4072
123867, 4054, 4055, 4074, 4073
123868, 4055, 4056, 4075, 4074
123869, 4056, 4057, 4076, 4075
123870, 4057, 4058, 4077, 4076
123871, 4058, 4059, 4078, 4077
123872, 4059, 4060, 4079, 4078
123873, 4060, 4061, 4080, 4079
123874, 4061, 4062, 4081, 4080
123875, 4062, 4063, 4082, 4081
123876, 4063, 4064, 4083, 4082
123877, 4064, 4065, 4084, 4083
123878, 4065, 4066, 4085, 4084
123879, 4066, 4067, 4086, 4085
123880, 4067, 411, 412, 4086
123881, 81, 4068, 4087, 82
123882, 4068, 4069, 4088, 4087
123883, 4069, 4070, 4089, 4088
123884, 4070, 4071, 4090, 4089
123885, 4071, 4072, 4091, 4090
123886, 4072, 4073, 4092, 4091
123887, 4073, 4074, 4093, 4092
123888, 4074, 4075, 4094, 4093
123889, 4075, 4076, 4095, 4094
123890, 4076, 4077, 4096, 4095
123891, 4077, 4078, 4097, 4096
123892, 4078, 4079, 4098, 4097
123893, 4079, 4080, 4099, 4098
123894, 4080, 4081, 4100, 4099
123895, 4081, 4082, 4101, 4100
123896, 4082, 4083, 4102, 4101
123897, 4083, 4084, 4103, 4102
123898, 4084, 4085, 4104, 4103
123899, 4085, 4086, 4105, 4104
123900, 4086, 412, 413, 4105
123901, 82, 4087, 4106, 83
123902, 4087, 4088, 4107, 4106
123903, 4088, 4089, 4108, 4107
123904, 4089, 4090, 4109, 4108
123905, 4090, 4091, 4110, 4109
123906, 4091, 4092, 4111, 4110
123907, 4092, 4093, 4112, 4111
123908, 4093, 4094, 4113, 4112
123909, 4094, 4095, 4114, 4113
123910, 4095, 4096, 4115, 4114
123911, 4096, 4097, 4116, 4115
123912, 4097, 4098, 4117, 4116
123913, 4098, 4099, 4118, 4117
123914, 4099, 4100, 4119, 4118
123915, 4100, 4101, 4120, 4119
123916, 4101, 4102, 4121, 4120
123917, 4102, 4103, 4122, 4121
123918, 4103, 4104, 4123, 4122
123919, 4104, 4105, 4124, 4123
123920, 4105, 413, 414, 4124
123921, 83, 4106, 4125, 84
123922, 4106, 4107, 4126, 4125
123923, 4107, 4108, 4127, 4126
123924, 4108, 4109, 4128, 4127
123925, 4109, 4110, 4129, 4128
123926, 4110, 4111, 4130, 4129
123927, 4111, 4112, 4131, 4130
123928, 4112, 4113, 4132, 4131
123929, 4113, 4114, 4133, 4132
123930, 4114, 4115, 4134, 4133
123931, 4115, 4116, 4135, 4134
123932, 4116, 4117, 4136, 4135
123933, 4117, 4118, 4137, 4136
123934, 4118, 4119, 4138, 4137
123935, 4119, 4120, 4139, 4138
123936, 4120, 4121, 4140, 4139
123937, 4121, 4122, 4141, 4140
123938, 4122, 4123, 4142, 4141
123939, 4123, 4124, 4143, 4142
123940, 4124, 414, 415, 4143
123941, 84, 4125, 4144, 85
123942, 4125, 4126, 4145, 4144
123943, 4126, 4127, 4146, 4145
123944, 4127, 4128, 4147, 4146
123945, 4128, 4129, 4148, 4147
123946, 4129, 4130, 4149, 4148
123947, 4130, 4131, 4150, 4149
123948, 4131, 4132, 4151, 4150
123949, 4132, 4133, 4152, 4151
123950, 4133, 4134, 4153, 4152
123951, 4134, 4135, 4154, 4153
123952, 4135, 4136, 4155, 4154
123953, 4136, 4137, 4156, 4155
123954, 4137, 4138, 4157, 4156
123955, 4138, 4139, 4158, 4157
123956, 4139, 4140, 4159, 4158
123957, 4140, 4141, 4160, 4159
123958, 4141, 4142, 4161, 4160
123959, 4142, 4143, 4162, 4161
123960, 4143, 415, 416, 4162
123961, 85, 4144, 4163, 86
123962, 4144, 4145, 4164, 4163
123963, 4145, 4146, 4165, 4164
123964, 4146, 4147, 4166, 4165
123965, 4147, 4148, 4167, 4166
123966, 4148, 4149, 4168, 4167
123967, 4149, 4150, 4169, 4168
123968, 4150, 4151, 4170, 4169
123969, 4151, 4152, 4171, 4170
123970, 4152, 4153, 4172, 4171
123971, 4153, 4154, 4173, 4172
123972, 4154, 4155, 4174, 4173
123973, 4155, 4156, 4175, 4174
123974, 4156, 4157, 4176, 4175
123975, 4157, 4158, 4177, 4176
123976, 4158, 4159, 4178, 4177
123977, 4159, 4160, 4179, 4178
123978, 4160, 4161, 4180, 4179
123979, 4161, 4162, 4181, 4180
123980, 4162, 416, 417, 4181
123981, 86, 4163, 4182, 87
123982, 4163, 4164, 4183, 4182
123983, 4164, 4165, 4184, 4183
123984, 4165, 4166, 4185, 4184
123985, 4166, 4167, 4186, 4185
123986, 4167, 4168, 4187, 4186
123987, 4168, 4169, 4188, 4187
123988, 4169, 4170, 4189, 4188
123989, 4170, 4171, 4190, 4189
123990, 4171, 4172, 4191, 4190
123991, 4172, 4173, 4192, 4191
123992, 4173, 4174, 4193, 4192
123993, 4174, 4175, 4194, 4193
123994, 4175, 4176, 4195, 4194
123995, 4176, 4177, 4196, 4195
123996, 4177, 4178, 4197, 4196
123997, 4178, 4179, 4198, 4197
123998, 4179, 4180, 4199, 4198
123999, 4180, 4181, 4200, 4199
124000, 4181, 417, 418, 4200
124001, 87, 4182, 4201, 88
124002, 4182, 4183, 4202, 4201
124003, 4183, 4184, 4203, 4202
124004, 4184, 4185, 4204, 4203
124005, 4185, 4186, 4205, 4204
124006, 4186, 4187, 4206, 4205
124007, 4187, 4188, 4207, 4206
124008, 4188, 4189, 4208, 4207
124009, 4189, 4190, 4209, 4208
124010, 4190, 4191, 4210, 4209
124011, 4191, 4192, 4211, 4210
124012, 4192, 4193, 4212, 4211
124013, 4193, 4194, 4213, 4212
124014, 4194, 4195, 4214, 4213
124015, 4195, 4196, 4215, 4214
124016, 4196, 4197, 4216, 4215
124017, 4197, 4198, 4217, 4216
124018, 4198, 4199, 4218, 4217
124019, 4199, 4200, 4219, 4218
124020, 4200, 418, 419, 4219
124021, 88, 4201, 4220, 89
124022, 4201, 4202, 4221, 4220
124023, 4202, 4203, 4222, 4221
124024, 4203, 4204, 4223, 4222
124025, 4204, 4205, 4224, 4223
124026, 4205, 4206, 4225, 4224
124027, 4206, 4207, 4226, 4225
124028, 4207, 4208, 4227, 4226
124029, 4208, 4209, 4228, 4227
124030, 4209, 4210, 4229, 4228
124031, 4210, 4211, 4230, 4229
124032, 4211, 4212, 4231, 4230
124033, 4212, 4213, 4232, 4231
124034, 4213, 4214, 4233, 4232
124035, 4214, 4215, 4234, 4233
124036, 4215, 4216, 4235, 4234
124037, 4216, 4217, 4236, 4235
124038, 4217, 4218, 4237, 4236
124039, 4218, 4219, 4238, 4237
124040, 4219, 419, 420, 4238
124041, 89, 4220, 4239, 90
124042, 4220, 4221, 4240, 4239
124043, 4221, 4222, 4241, 4240
124044, 4222, 4223, 4242, 4241
124045, 4223, 4224, 4243, 4242
124046, 4224, 4225, 4244, 4243
124047, 4225, 4226, 4245, 4244
124048, 4226, 4227, 4246, 4245
124049, 4227, 4228, 4247, 4246
124050, 4228, 4229, 4248, 4247
124051, 4229, 4230, 4249, 4248
124052, 4230, 4231, 4250, 4249
124053, 4231, 4232, 4251, 4250
124054, 4232, 4233, 4252, 4251
124055, 4233, 4234, 4253, 4252
124056, 4234, 4235, 4254, 4253
124057, 4235, 4236, 4255, 4254
124058, 4236, 4237, 4256, 4255
124059, 4237, 4238, 4257, 4256
124060, 4238, 420, 421, 4257
124061, 90, 4239, 4258, 91
124062, 4239, 4240, 4259, 4258
124063, 4240, 4241, 4260, 4259
124064, 4241, 4242, 4261, 4260
124065, 4242, 4243, 4262, 4261
124066, 4243, 4244, 4263, 4262
124067, 4244, 4245, 4264, 4263
124068, 4245, 4246, 4265, 4264
124069, 4246, 4247, 4266, 4265
124070, 4247, 4248, 4267, 4266
124071, 4248, 4249, 4268, 4267
124072, 4249, 4250, 4269, 4268
124073, 4250, 4251, 4270, 4269
124074, 4251, 4252, 4271, 4270
124075, 4252, 4253, 4272, 4271
124076, 4253, 4254, 4273, 4272
124077, 4254, 4255, 4274, 4273
124078, 4255, 4256, 4275, 4274
124079, 4256, 4257, 4276, 4275
124080, 4257, 421, 422, 4276
124081, 91, 4258, 4277, 92
124082, 4258, 4259, 4278, 4277
124083, 4259, 4260, 4279, 4278
124084, 4260, 4261, 4280, 4279
124085, 4261, 4262, 4281, 4280
124086, 4262, 4263, 4282, 4281
124087, 4263, 4264, 4283, 4282
124088, 4264, 4265, 4284, 4283
124089, 4265, 4266, 4285, 4284
124090, 4266, 4267, 4286, 4285
124091, 4267, 4268, 4287, 4286
124092, 4268, 4269, 4288, 4287
124093, 4269, 4270, 4289, 4288
124094, 4270, 4271, 4290, 4289
124095, 4271, 4272, 4291, 4290
124096, 4272, 4273, 4292, 4291
124097, 4273, 4274, 4293, 4292
124098, 4274, 4275, 4294, 4293
124099, 4275, 4276, 4295, 4294
124100, 4276, 422, 423, 4295
124101, 92, 4277, 4296, 93
124102, 4277, 4278, 4297, 4296
124103, 4278, 4279, 4298, 4297
124104, 4279, 4280, 4299, 4298
124105, 4280, 4281, 4300, 4299
124106, 4281, 4282, 4301, 4300
124107, 4282, 4283, 4302, 4301
124108, 4283, 4284, 4303, 4302
124109, 4284, 4285, 4304, 4303
124110, 4285, 4286, 4305, 4304
124111, 4286, 4287, 4306, 4305
124112, 4287, 4288, 4307, 4306
124113, 4288, 4289, 4308, 4307
124114, 4289, 4290, 4309, 4308
124115, 4290, 4291, 4310, 4309
124116, 4291, 4292, 4311, 4310
124117, 4292, 4293, 4312, 4311
124118, 4293, 4294, 4313, 4312
124119, 4294, 4295, 4314, 4313
124120, 4295, 423, 424, 4314
124121, 93, 4296, 4315, 94
124122, 4296, 4297, 4316, 4315
124123, 4297, 4298, 4317, 4316
124124, 4298, 4299, 4318, 4317
124125, 4299, 4300, 4319, 4318
124126, 4300, 4301, 4320, 4319
124127, 4301, 4302, 4321, 4320
124128, 4302, 4303, 4322, 4321
124129, 4303, 4304, 4323, 4322
124130, 4304, 4305, 4324, 4323
124131, 4305, 4306, 4325, 4324
124132, 4306, 4307, 4326, 4325
124133, 4307, 4308, 4327, 4326
124134, 4308, 4309, 4328, 4327
124135, 4309, 4310, 4329, 4328
124136, 4310, 4311, 4330, 4329
124137, 4311, 4312, 4331, 4330
124138, 4312, 4313, 4332, 4331
124139, 4313, 4314, 4333, 4332
124140, 4314, 424, 425, 4333
124141, 94, 4315, 4334, 95
124142, 4315, 4316, 4335, 4334
124143, 4316, 4317, 4336, 4335
124144, 4317, 4318, 4337, 4336
124145, 4318, 4319, 4338, 4337
124146, 4319, 4320, 4339, 4338
124147, 4320, 4321, 4340, 4339
124148, 4321, 4322, 4341, 4340
124149, 4322, 4323, 4342, 4341
124150, 4323, 4324, 4343, 4342
124151, 4324, 4325, 4344, 4343
124152, 4325, 4326, 4345, 4344
124153, 4326, 4327, 4346, 4345
124154, 4327, 4328, 4347, 4346
124155, 4328, 4329, 4348, 4347
124156, 4329, 4330, 4349, 4348
124157, 4330, 4331, 4350, 4349
124158, 4331, 4332, 4351, 4350
124159, 4332, 4333, 4352, 4351
124160, 4333, 425, 426, 4352
124161, 95, 4334, 4353, 96
124162, 4334, 4335, 4354, 4353
124163, 4335, 4336, 4355, 4354
124164, 4336, 4337, 4356, 4355
124165, 4337, 4338, 4357, 4356
124166, 4338, 4339, 4358, 4357
124167, 4339, 4340, 4359, 4358
124168, 4340, 4341, 4360, 4359
124169, 4341, 4342, 4361, 4360
124170, 4342, 4343, 4362, 4361
124171, 4343, 4344, 4363, 4362
124172, 4344, 4345, 4364, 4363
124173, 4345, 4346, 4365, 4364
124174, 4346, 4347, 4366, 4365
124175, 4347, 4348, 4367, 4366
124176, 4348, 4349, 4368, 4367
124177, 4349, 4350, 4369, 4368
124178, 4350, 4351, 4370, 4369
124179, 4351, 4352, 4371, 4370
124180, 4352, 426, 427, 4371
124181, 96, 4353, 4372, 97
124182, 4353, 4354, 4373, 4372
124183, 4354, 4355, 4374, 4373
124184, 4355, 4356, 4375, 4374
124185, 4356, 4357, 4376, 4375
124186, 4357, 4358, 4377, 4376
124187, 4358, 4359, 4378, 4377
124188, 4359, 4360, 4379, 4378
124189, 4360, 4361, 4380, 4379
124190, 4361, 4362, 4381, 4380
124191, 4362, 4363, 4382, 4381
124192, 4363, 4364, 4383, 4382
124193, 4364, 4365, 4384, 4383
124194, 4365, 4366, 4385, 4384
124195, 4366, 4367, 4386, 4385
124196, 4367, 4368, 4387, 4386
124197, 4368, 4369, 4388, 4387
124198, 4369, 4370, 4389, 4388
124199, 4370, 4371, 4390, 4389
124200, 4371, 427, 428, 4390
124201, 97, 4372, 4391, 98
124202, 4372, 4373, 4392, 4391
124203, 4373, 4374, 4393, 4392
124204, 4374, 4375, 4394, 4393
124205, 4375, 4376, 4395, 4394
124206, 4376, 4377, 4396, 4395
124207, 4377, 4378, 4397, 4396
124208, 4378, 4379, 4398, 4397
124209, 4379, 4380, 4399, 4398
124210, 4380, 4381, 4400, 4399
124211, 4381, 4382, 4401, 4400
124212, 4382, 4383, 4402, 4401
124213, 4383, 4384, 4403, 4402
124214, 4384, 4385, 4404, 4403
124215, 4385, 4386, 4405, 4404
124216, 4386, 4387, 4406, 4405
124217, 4387, 4388, 4407, 4406
124218, 4388, 4389, 4408, 4407
124219, 4389, 4390, 4409, 4408
124220, 4390, 428, 429, 4409
124221, 98, 4391, 4410, 99
124222, 4391, 4392, 4411, 4410
124223, 4392, 4393, 4412, 4411
124224, 4393, 4394, 4413, 4412
124225, 4394, 4395, 4414, 4413
124226, 4395, 4396, 4415, 4414
124227, 4396, 4397, 4416, 4415
124228, 4397, 4398, 4417, 4416
124229, 4398, 4399, 4418, 4417
124230, 4399, 4400, 4419, 4418
124231, 4400, 4401, 4420, 4419
124232, 4401, 4402, 4421, 4420
124233, 4402, 4403, 4422, 4421
124234, 4403, 4404, 4423, 4422
124235, 4404, 4405, 4424, 4423
124236, 4405, 4406, 4425, 4424
124237, 4406, 4407, 4426, 4425
124238, 4407, 4408, 4427, 4426
124239, 4408, 4409, 4428, 4427
124240, 4409, 429, 430, 4428
124241, 99, 4410, 4429, 100
124242, 4410, 4411, 4430, 4429
124243, 4411, 4412, 4431, 4430
124244, 4412, 4413, 4432, 4431
124245, 4413, 4414, 4433, 4432
124246, 4414, 4415, 4434, 4433
124247, 4415, 4416, 4435, 4434
124248, 4416, 4417, 4436, 4435
124249, 4417, 4418, 4437, 4436
124250, 4418, 4419, 4438, 4437
124251, 4419, 4420, 4439, 4438
124252, 4420, 4421, 4440, 4439
124253, 4421, 4422, 4441, 4440
124254, 4422, 4423, 4442, 4441
124255, 4423, 4424, 4443, 4442
124256, 4424, 4425, 4444, 4443
124257, 4425, 4426, 4445, 4444
124258, 4426, 4427, 4446, 4445
124259, 4427, 4428, 4447, 4446
124260, 4428, 430, 431, 4447
124261, 100, 4429, 4448, 101
124262, 4429, 4430, 4449, 4448
124263, 4430, 4431, 4450, 4449
124264, 4431, 4432, 4451, 4450
124265, 4432, 4433, 4452, 4451
124266, 4433, 4434, 4453, 4452
124267, 4434, 4435, 4454, 4453
124268, 4435, 4436, 4455, 4454
124269, 4436, 4437, 4456, 4455
124270, 4437, 4438, 4457, 4456
124271, 4438, 4439, 4458, 4457
124272, 4439, 4440, 4459, 4458
124273, 4440, 4441, 4460, 4459
124274, 4441, 4442, 4461, 4460
124275, 4442, 4443, 4462, 4461
124276, 4443, 4444, 4463, 4462
124277, 4444, 4445, 4464, 4463
124278, 4445, 4446, 4465, 4464
124279, 4446, 4447, 4466, 4465
124280, 4447, 431, 432, 4466
124281, 101, 4448, 4467, 102
124282, 4448, 4449, 4468, 4467
124283, 4449, 4450, 4469, 4468
124284, 4450, 4451, 4470, 4469
124285, 4451, 4452, 4471, 4470
124286, 4452, 4453, 4472, 4471
124287, 4453, 4454, 4473, 4472
124288, 4454, 4455, 4474, 4473
124289, 4455, 4456, 4475, 4474
124290, 4456, 4457, 4476, 4475
124291, 4457, 4458, 4477, 4476
124292, 4458, 4459, 4478, 4477
124293, 4459, 4460, 4479, 4478
124294, 4460, 4461, 4480, 4479
124295, 4461, 4462, 4481, 4480
124296, 4462, 4463, 4482, 4481
124297, 4463, 4464, 4483, 4482
124298, 4464, 4465, 4484, 4483
124299, 4465, 4466, 4485, 4484
124300, 4466, 432, 433, 4485
124301, 102, 4467, 4486, 103
124302, 4467, 4468, 4487, 4486
124303, 4468, 4469, 4488, 4487
124304, 4469, 4470, 4489, 4488
124305, 4470, 4471, 4490, 4489
124306, 4471, 4472, 4491, 4490
124307, 4472, 4473, 4492, 4491
124308, 4473, 4474, 4493, 4492
124309, 4474, 4475, 4494, 4493
124310, 4475, 4476, 4495, 4494
124311, 4476, 4477, 4496, 4495
124312, 4477, 4478, 4497, 4496
124313, 4478, 4479, 4498, 4497
124314, 4479, 4480, 4499, 4498
124315, 4480, 4481, 4500, 4499
124316, 4481, 4482, 4501, 4500
124317, 4482, 4483, 4502, 4501
124318, 4483, 4484, 4503, 4502
124319, 4484, 4485, 4504, 4503
124320, 4485, 433, 434, 4504
124321, 103, 4486, 4505, 104
124322, 4486, 4487, 4506, 4505
124323, 4487, 4488, 4507, 4506
124324, 4488, 4489, 4508, 4507
124325, 4489, 4490, 4509, 4508
124326, 4490, 4491, 4510, 4509
124327, 4491, 4492, 4511, 4510
124328, 4492, 4493, 4512, 4511
124329, 4493, 4494, 4513, 4512
124330, 4494, 4495, 4514, 4513
124331, 4495, 4496, 4515, 4514
124332, 4496, 4497, 4516, 4515
124333, 4497, 4498, 4517, 4516
124334, 4498, 4499, 4518, 4517
124335, 4499, 4500, 4519, 4518
124336, 4500, 4501, 4520, 4519
124337, 4501, 4502, 4521, 4520
124338, 4502, 4503, 4522, 4521
124339, 4503, 4504, 4523, 4522
124340, 4504, 434, 435, 4523
124341, 104, 4505, 4524, 105
124342, 4505, 4506, 4525, 4524
124343, 4506, 4507, 4526, 4525
124344, 4507, 4508, 4527, 4526
124345, 4508, 4509, 4528, 4527
124346, 4509, 4510, 4529, 4528
124347, 4510, 4511, 4530, 4529
124348, 4511, 4512, 4531, 4530
124349, 4512, 4513, 4532, 4531
124350, 4513, 4514, 4533, 4532
124351, 4514, 4515, 4534, 4533
124352, 4515, 4516, 4535, 4534
124353, 4516, 4517, 4536, 4535
124354, 4517, 4518, 4537, 4536
124355, 4518, 4519, 4538, 4537
124356, 4519, 4520, 4539, 4538
124357, 4520, 4521, 4540, 4539
124358, 4521, 4522, 4541, 4540
124359, 4522, 4523, 4542, 4541
124360, 4523, 435, 436, 4542
124361, 105, 4524, 4543, 106
124362, 4524, 4525, 4544, 4543
124363, 4525, 4526, 4545, 4544
124364, 4526, 4527, 4546, 4545
124365, 4527, 4528, 4547, 4546
124366, 4528, 4529, 4548, 4547
124367, 4529, 4530, 4549, 4548
124368, 4530, 4531, 4550, 4549
124369, 4531, 4532, 4551, 4550
124370, 4532, 4533, 4552, 4551
124371, 4533, 4534, 4553, 4552
124372, 4534, 4535, 4554, 4553
124373, 4535, 4536, 4555, 4554
124374, 4536, 4537, 4556, 4555
124375, 4537, 4538, 4557, 4556
124376, 4538, 4539, 4558, 4557
124377, 4539, 4540, 4559, 4558
124378, 4540, 4541, 4560, 4559
124379, 4541, 4542, 4561, 4560
124380, 4542, 436, 437, 4561
124381, 106, 4543, 4562, 107
124382, 4543, 4544, 4563, 4562
124383, 4544, 4545, 4564, 4563
124384, 4545, 4546, 4565, 4564
124385, 4546, 4547, 4566, 4565
124386, 4547, 4548, 4567, 4566
124387, 4548, 4549, 4568, 4567
124388, 4549, 4550, 4569, 4568
124389, 4550, 4551, 4570, 4569
124390, 4551, 4552, 4571, 4570
124391, 4552, 4553, 4572, 4571
124392, 4553, 4554, 4573, 4572
124393, 4554, 4555, 4574, 4573
124394, 4555, 4556, 4575, 4574
124395, 4556, 4557, 4576, 4575
124396, 4557, 4558, 4577, 4576
124397, 4558, 4559, 4578, 4577
124398, 4559, 4560, 4579, 4578
124399, 4560, 4561, 4580, 4579
124400, 4561, 437, 438, 4580
124401, 107, 4562, 4581, 108
124402, 4562, 4563, 4582, 4581
124403, 4563, 4564, 4583, 4582
124404, 4564, 4565, 4584, 4583
124405, 4565, 4566, 4585, 4584
124406, 4566, 4567, 4586, 4585
124407, 4567, 4568, 4587, 4586
124408, 4568, 4569, 4588, 4587
124409, 4569, 4570, 4589, 4588
124410, 4570, 4571, 4590, 4589
124411, 4571, 4572, 4591, 4590
124412, 4572, 4573, 4592, 4591
124413, 4573, 4574, 4593, 4592
124414, 4574, 4575, 4594, 4593
124415, 4575, 4576, 4595, 4594
124416, 4576, 4577, 4596, 4595
124417, 4577, 4578, 4597, 4596
124418, 4578, 4579, 4598, 4597
124419, 4579, 4580, 4599, 4598
124420, 4580, 438, 439, 4599
124421, 108, 4581, 4600, 109
124422, 4581, 4582, 4601, 4600
124423, 4582, 4583, 4602, 4601
124424, 4583, 4584, 4603, 4602
124425, 4584, 4585, 4604, 4603
124426, 4585, 4586, 4605, 4604
124427, 4586, 4587, 4606, 4605
124428, 4587, 4588, 4607, 4606
124429, 4588, 4589, 4608, 4607
124430, 4589, 4590, 4609, 4608
124431, 4590, 4591, 4610, 4609
124432, 4591, 4592, 4611, 4610
124433, 4592, 4593, 4612, 4611
124434, 4593, 4594, 4613, 4612
124435, 4594, 4595, 4614, 4613
124436, 4595, 4596, 4615, 4614
124437, 4596, 4597, 4616, 4615
124438, 4597, 4598, 4617, 4616
124439, 4598, 4599, 4618, 4617
124440, 4599, 439, 440, 4618
124441, 109, 4600, 4619, 110
124442, 4600, 4601, 4620, 4619
124443, 4601, 4602, 4621, 4620
124444, 4602, 4603, 4622, 4621
124445, 4603, 4604, 4623, 4622
124446, 4604, 4605, 4624, 4623
124447, 4605, 4606, 4625, 4624
124448, 4606, 4607, 4626, 4625
124449, 4607, 4608, 4627, 4626
124450, 4608, 4609, 4628, 4627
124451, 4609, 4610, 4629, 4628
124452, 4610, 4611, 4630, 4629
124453, 4611, 4612, 4631, 4630
124454, 4612, 4613, 4632, 4631
124455, 4613, 4614, 4633, 4632
124456, 4614, 4615, 4634, 4633
124457, 4615, 4616, 4635, 4634
124458, 4616, 4617, 4636, 4635
124459, 4617, 4618, 4637, 4636
124460, 4618, 440, 441, 4637
124461, 110, 4619, 4638, 111
124462, 4619, 4620, 4639, 4638
124463, 4620, 4621, 4640, 4639
124464, 4621, 4622, 4641, 4640
124465, 4622, 4623, 4642, 4641
124466, 4623, 4624, 4643, 4642
124467, 4624, 4625, 4644, 4643
124468, 4625, 4626, 4645, 4644
124469, 4626, 4627, 4646, 4645
124470, 4627, 4628, 4647, 4646
124471, 4628, 4629, 4648, 4647
124472, 4629, 4630, 4649, 4648
124473, 4630, 4631, 4650, 4649
124474, 4631, 4632, 4651, 4650
124475, 4632, 4633, 4652, 4651
124476, 4633, 4634, 4653, 4652
124477, 4634, 4635, 4654, 4653
124478, 4635, 4636, 4655, 4654
124479, 4636, 4637, 4656, 4655
124480, 4637, 441, 442, 4656
124481, 111, 4638, 4657, 112
124482, 4638, 4639, 4658, 4657
124483, 4639, 4640, 4659, 4658
124484, 4640, 4641, 4660, 4659
124485, 4641, 4642, 4661, 4660
124486, 4642, 4643, 4662, 4661
124487, 4643, 4644, 4663, 4662
124488, 4644, 4645, 4664, 4663
124489, 4645, 4646, 4665, 4664
124490, 4646, 4647, 4666, 4665
124491, 4647, 4648, 4667, 4666
124492, 4648, 4649, 4668, 4667
124493, 4649, 4650, 4669, 4668
124494, 4650, 4651, 4670, 4669
124495, 4651, 4652, 4671, 4670
124496, 4652, 4653, 4672, 4671
124497, 4653, 4654, 4673, 4672
124498, 4654, 4655, 4674, 4673
124499, 4655, 4656, 4675, 4674
124500, 4656, 442, 443, 4675
124501, 112, 4657, 4676, 113
124502, 4657, 4658, 4677, 4676
124503, 4658, 4659, 4678, 4677
124504, 4659, 4660, 4679, 4678
124505, 4660, 4661, 4680, 4679
124506, 4661, 4662, 4681, 4680
124507, 4662, 4663, 4682, 4681
124508, 4663, 4664, 4683, 4682
124509, 4664, 4665, 4684, 4683
124510, 4665, 4666, 4685, 4684
124511, 4666, 4667, 4686, 4685
124512, 4667, 4668, 4687, 4686
124513, 4668, 4669, 4688, 4687
124514, 4669, 4670, 4689, 4688
124515, 4670, 4671, 4690, 4689
124516, 4671, 4672, 4691, 4690
124517, 4672, 4673, 4692, 4691
124518, 4673, 4674, 4693, 4692
124519, 4674, 4675, 4694, 4693
124520, 4675, 443, 444, 4694
124521, 113, 4676, 4695, 114
124522, 4676, 4677, 4696, 4695
124523, 4677, 4678, 4697, 4696
124524, 4678, 4679, 4698, 4697
124525, 4679, 4680, 4699, 4698
124526, 4680, 4681, 4700, 4699
124527, 4681, 4682, 4701, 4700
124528, 4682, 4683, 4702, 4701
124529, 4683, 4684, 4703, 4702
124530, 4684, 4685, 4704, 4703
124531, 4685, 4686, 4705, 4704
124532, 4686, 4687, 4706, 4705
124533, 4687, 4688, 4707, 4706
124534, 4688, 4689, 4708, 4707
124535, 4689, 4690, 4709, 4708
124536, 4690, 4691, 4710, 4709
124537, 4691, 4692, 4711, 4710
124538, 4692, 4693, 4712, 4711
124539, 4693, 4694, 4713, 4712
124540, 4694, 444, 445, 4713
124541, 114, 4695, 4714, 115
124542, 4695, 4696, 4715, 4714
124543, 4696, 4697, 4716, 4715
124544, 4697, 4698, 4717, 4716
124545, 4698, 4699, 4718, 4717
124546, 4699, 4700, 4719, 4718
124547, 4700, 4701, 4720, 4719
124548, 4701, 4702, 4721, 4720
124549, 4702, 4703, 4722, 4721
124550, 4703, 4704, 4723, 4722
124551, 4704, 4705, 4724, 4723
124552, 4705, 4706, 4725, 4724
124553, 4706, 4707, 4726, 4725
124554, 4707, 4708, 4727, 4726
124555, 4708, 4709, 4728, 4727
124556, 4709, 4710, 4729, 4728
124557, 4710, 4711, 4730, 4729
124558, 4711, 4712, 4731, 4730
124559, 4712, 4713, 4732, 4731
124560, 4713, 445, 446, 4732
124561, 115, 4714, 4733, 116
124562, 4714, 4715, 4734, 4733
124563, 4715, 4716, 4735, 4734
124564, 4716, 4717, 4736, 4735
124565, 4717, 4718, 4737, 4736
124566, 4718, 4719, 4738, 4737
124567, 4719, 4720, 4739, 4738
124568, 4720, 4721, 4740, 4739
124569, 4721, 4722, 4741, 4740
124570, 4722, 4723, 4742, 4741
124571, 4723, 4724, 4743, 4742
124572, 4724, 4725, 4744, 4743
124573, 4725, 4726, 4745, 4744
124574, 4726, 4727, 4746, 4745
124575, 4727, 4728, 4747, 4746
124576, 4728, 4729, 4748, 4747
124577, 4729, 4730, 4749, 4748
124578, 4730, 4731, 4750, 4749
124579, 4731, 4732, 4751, 4750
124580, 4732, 446, 447, 4751
124581, 116, 4733, 4752, 117
124582, 4733, 4734, 4753, 4752
124583, 4734, 4735, 4754, 4753
124584, 4735, 4736, 4755, 4754
124585, 4736, 4737, 4756, 4755
124586, 4737, 4738, 4757, 4756
124587, 4738, 4739, 4758, 4757
124588, 4739, 4740, 4759, 4758
124589, 4740, 4741, 4760, 4759
124590, 4741, 4742, 4761, 4760
124591, 4742, 4743, 4762, 4761
124592, 4743, 4744, 4763, 4762
124593, 4744, 4745, 4764, 4763
124594, 4745, 4746, 4765, 4764
124595, 4746, 4747, 4766, 4765
124596, 4747, 4748, 4767, 4766
124597, 4748, 4749, 4768, 4767
124598, 4749, 4750, 4769, 4768
124599, 4750, 4751, 4770, 4769
124600, 4751, 447, 448, 4770
124601, 117, 4752, 4771, 118
124602, 4752, 4753, 4772, 4771
124603, 4753, 4754, 4773, 4772
124604, 4754, 4755, 4774, 4773
124605, 4755, 4756, 4775, 4774
124606, 4756, 4757, 4776, 4775
124607, 4757, 4758, 4777, 4776
124608, 4758, 4759, 4778, 4777
124609, 4759, 4760, 4779, 4778
124610, 4760, 4761, 4780, 4779
124611, 4761, 4762, 4781, 4780
124612, 4762, 4763, 4782, 4781
124613, 4763, 4764, 4783, 4782
124614, 4764, 4765, 4784, 4783
124615, 4765, 4766, 4785, 4784
124616, 4766, 4767, 4786, 4785
124617, 4767, 4768, 4787, 4786
124618, 4768, 4769, 4788, 4787
124619, 4769, 4770, 4789, 4788
124620, 4770, 448, 449, 4789
124621, 118, 4771, 4790, 119
124622, 4771, 4772, 4791, 4790
124623, 4772, 4773, 4792, 4791
124624, 4773, 4774, 4793, 4792
124625, 4774, 4775, 4794, 4793
124626, 4775, 4776, 4795, 4794
124627, 4776, 4777, 4796, 4795
124628, 4777, 4778, 4797, 4796
124629, 4778, 4779, 4798, 4797
124630, 4779, 4780, 4799, 4798
124631, 4780, 4781, 4800, 4799
124632, 4781, 4782, 4801, 4800
124633, 4782, 4783, 4802, 4801
124634, 4783, 4784, 4803, 4802
124635, 4784, 4785, 4804, 4803
124636, 4785, 4786, 4805, 4804
124637, 4786, 4787, 4806, 4805
124638, 4787, 4788, 4807, 4806
124639, 4788, 4789, 4808, 4807
124640, 4789, 449, 450, 4808
124641, 119, 4790, 4809, 120
124642, 4790, 4791, 4810, 4809
124643, 4791, 4792, 4811, 4810
124644, 4792, 4793, 4812, 4811
124645, 4793, 4794, 4813, 4812
124646, 4794, 4795, 4814, 4813
124647, 4795, 4796, 4815, 4814
124648, 4796, 4797, 4816, 4815
124649, 4797, 4798, 4817, 4816
124650, 4798, 4799, 4818, 4817
124651, 4799, 4800, 4819, 4818
124652, 4800, 4801, 4820, 4819
124653, 4801, 4802, 4821, 4820
124654, 4802, 4803, 4822, 4821
124655, 4803, 4804, 4823, 4822
124656, 4804, 4805, 4824, 4823
124657, 4805, 4806, 4825, 4824
124658, 4806, 4807, 4826, 4825
124659, 4807, 4808, 4827, 4826
124660, 4808, 450, 451, 4827
124661, 120, 4809, 4828, 121
124662, 4809, 4810, 4829, 4828
124663, 4810, 4811, 4830, 4829
124664, 4811, 4812, 4831, 4830
124665, 4812, 4813, 4832, 4831
124666, 4813, 4814, 4833, 4832
124667, 4814, 4815, 4834, 4833
124668, 4815, 4816, 4835, 4834
124669, 4816, 4817, 4836, 4835
124670, 4817, 4818, 4837, 4836
124671, 4818, 4819, 4838, 4837
124672, 4819, 4820, 4839, 4838
124673, 4820, 4821, 4840, 4839
124674, 4821, 4822, 4841, 4840
124675, 4822, 4823, 4842, 4841
124676, 4823, 4824, 4843, 4842
124677, 4824, 4825, 4844, 4843
124678, 4825, 4826, 4845, 4844
124679, 4826, 4827, 4846, 4845
124680, 4827, 451, 452, 4846
124681, 121, 4828, 4847, 122
124682, 4828, 4829, 4848, 4847
124683, 4829, 4830, 4849, 4848
124684, 4830, 4831, 4850, 4849
124685, 4831, 4832, 4851, 4850
124686, 4832, 4833, 4852, 4851
124687, 4833, 4834, 4853, 4852
124688, 4834, 4835, 4854, 4853
124689, 4835, 4836, 4855, 4854
124690, 4836, 4837, 4856, 4855
124691, 4837, 4838, 4857, 4856
124692, 4838, 4839, 4858, 4857
124693, 4839, 4840, 4859, 4858
124694, 4840, 4841, 4860, 4859
124695, 4841, 4842, 4861, 4860
124696, 4842, 4843, 4862, 4861
124697, 4843, 4844, 4863, 4862
124698, 4844, 4845, 4864, 4863
124699, 4845, 4846, 4865, 4864
124700, 4846, 452, 453, 4865
124701, 122, 4847, 4866, 123
124702, 4847, 4848, 4867, 4866
124703, 4848, 4849, 4868, 4867
124704, 4849, 4850, 4869, 4868
124705, 4850, 4851, 4870, 4869
124706, 4851, 4852, 4871, 4870
124707, 4852, 4853, 4872, 4871
124708, 4853, 4854, 4873, 4872
124709, 4854, 4855, 4874, 4873
124710, 4855, 4856, 4875, 4874
124711, 4856, 4857, 4876, 4875
124712, 4857, 4858, 4877, 4876
124713, 4858, 4859, 4878, 4877
124714, 4859, 4860, 4879, 4878
124715, 4860, 4861, 4880, 4879
124716, 4861, 4862, 4881, 4880
124717, 4862, 4863, 4882, 4881
124718, 4863, 4864, 4883, 4882
124719, 4864, 4865, 4884, 4883
124720, 4865, 453, 454, 4884
124721, 123, 4866, 4885, 124
124722, 4866, 4867, 4886, 4885
124723, 4867, 4868, 4887, 4886
124724, 4868, 4869, 4888, 4887
124725, 4869, 4870, 4889, 4888
124726, 4870, 4871, 4890, 4889
124727, 4871, 4872, 4891, 4890
124728, 4872, 4873, 4892, 4891
124729, 4873, 4874, 4893, 4892
124730, 4874, 4875, 4894, 4893
124731, 4875, 4876, 4895, 4894
124732, 4876, 4877, 4896, 4895
124733, 4877, 4878, 4897, 4896
124734, 4878, 4879, 4898, 4897
124735, 4879, 4880, 4899, 4898
124736, 4880, 4881, 4900, 4899
124737, 4881, 4882, 4901, 4900
124738, 4882, 4883, 4902, 4901
124739, 4883, 4884, 4903, 4902
124740, 4884, 454, 455, 4903
124741, 124, 4885, 4904, 125
124742, 4885, 4886, 4905, 4904
124743, 4886, 4887, 4906, 4905
124744, 4887, 4888, 4907, 4906
124745, 4888, 4889, 4908, 4907
124746, 4889, 4890, 4909, 4908
124747, 4890, 4891, 4910, 4909
124748, 4891, 4892, 4911, 4910
124749, 4892, 4893, 4912, 4911
124750, 4893, 4894, 4913, 4912
124751, 4894, 4895, 4914, 4913
124752, 4895, 4896, 4915, 4914
124753, 4896, 4897, 4916, 4915
124754, 4897, 4898, 4917, 4916
124755, 4898, 4899, 4918, 4917
124756, 4899, 4900, 4919, 4918
124757, 4900, 4901, 4920, 4919
124758, 4901, 4902, 4921, 4920
124759, 4902, 4903, 4922, 4921
124760, 4903, 455, 456, 4922
124761, 125, 4904, 4923, 126
124762, 4904, 4905, 4924, 4923
124763, 4905, 4906, 4925, 4924
124764, 4906, 4907, 4926, 4925
124765, 4907, 4908, 4927, 4926
124766, 4908, 4909, 4928, 4927
124767, 4909, 4910, 4929, 4928
124768, 4910, 4911, 4930, 4929
124769, 4911, 4912, 4931, 4930
124770, 4912, 4913, 4932, 4931
124771, 4913, 4914, 4933, 4932
124772, 4914, 4915, 4934, 4933
124773, 4915, 4916, 4935, 4934
124774, 4916, 4917, 4936, 4935
124775, 4917, 4918, 4937, 4936
124776, 4918, 4919, 4938, 4937
124777, 4919, 4920, 4939, 4938
124778, 4920, 4921, 4940, 4939
124779, 4921, 4922, 4941, 4940
124780, 4922, 456, 457, 4941
124781, 126, 4923, 245, 3
124782, 4923, 4924, 246, 245
124783, 4924, 4925, 247, 246
124784, 4925, 4926, 248, 247
124785, 4926, 4927, 249, 248
124786, 4927, 4928, 250, 249
124787, 4928, 4929, 251, 250
124788, 4929, 4930, 252, 251
124789, 4930, 4931, 253, 252
124790, 4931, 4932, 254, 253
124791, 4932, 4933, 255, 254
124792, 4933, 4934, 256, 255
124793, 4934, 4935, 257, 256
124794, 4935, 4936, 258, 257
124795, 4936, 4937, 259, 258
124796, 4937, 4938, 260, 259
124797, 4938, 4939, 261, 260
124798, 4939, 4940, 262, 261
124799, 4940, 4941, 263, 262
124800, 4941, 457, 5, 263
*SOLID SECTION, ELSET=GHOST, MATERIAL=GHOST
1.
*MATERIAL, NAME=GHOST
*USER MATERIAL, CONSTANTS=1
120000
*DEPVAR
5
1, S11, "S11 material average"
2, S22, "S22 material average"
3, S33, "S33 material average"
4, S12, "S12 material average"
5, VFRAC, "material volume fraction"
*AMPLITUDE, NAME=STROKE, TIME=STEP TIME
0., 0., 10, 1., 20, 0., 30, -1.
40, 0., 41, 0.
*STEP, NAME=APPROACH, INC=100
*STATIC
1., 1., 1e-5, 1.
*BOUNDARY
QPOINT, 1, 1
QPOINT, 2, 2, -0.0002
QPOINT, 6, 6
DISP, 1, 1
DISP, 2, 2
DISP, 6, 6
*OUTPUT, FIELD
*NODE OUTPUT
U, RF
*ELEMENT OUTPUT, ELSET=GHOST
SDV
*NODE PRINT, NSET=QPOINT, SUMMARY=NO, TOTALS=NO
U1, U2, RF1, RF2
*END STEP
*STEP, NAME=NORMAL, INC=200
*STATIC
0.1, 1., 1e-6, 0.25
*BOUNDARY, OP=NEW
QPOINT, 1, 1
QPOINT, 6, 6
DISP, 1, 1
DISP, 2, 2
DISP, 6, 6
*CLOAD
QPOINT, 2, -18.5
*OUTPUT, FIELD
*NODE OUTPUT
U, RF
*ELEMENT OUTPUT, ELSET=GHOST
SDV
*NODE PRINT, NSET=QPOINT, SUMMARY=NO, TOTALS=NO
U1, U2, RF1, RF2
*END STEP
*STEP, NAME=CYCLE_0, INC=2000, EXTRAPOLATION=NO
*STATIC
1., 41, 4.1e-06, 1.
*CONTROLS, PARAMETERS=TIME INCREMENTATION
8, 20, 9, 30, 10, 4, 12, 20
*CONTROLS, PARAMETERS=LINE SEARCH
5, , , , 
*BOUNDARY, OP=NEW
QPOINT, 1, 1
QPOINT, 6, 6
DISP, 2, 2
DISP, 6, 6
*BOUNDARY, OP=NEW, AMPLITUDE=STROKE
DISP, 1, 1, 0.025
*OUTPUT, FIELD, NUMBER INTERVAL=1
*NODE OUTPUT
U, RF
*ELEMENT OUTPUT, ELSET=GHOST
SDV
*NODE PRINT, NSET=QPOINT, FREQUENCY=41, SUMMARY=NO, TOTALS=NO
U1, U2, RF1, RF2
*END STEP
*STEP, NAME=CYCLE_1, INC=2000, EXTRAPOLATION=NO
*STATIC
1., 41, 4.1e-06, 1.
*CONTROLS, PARAMETERS=TIME INCREMENTATION
8, 20, 9, 30, 10, 4, 12, 20
*CONTROLS, PARAMETERS=LINE SEARCH
5, , , , 
*BOUNDARY, OP=NEW
QPOINT, 1, 1
QPOINT, 6, 6
DISP, 2, 2
DISP, 6, 6
*BOUNDARY, OP=NEW, AMPLITUDE=STROKE
DISP, 1, 1, 0.025
*OUTPUT, FIELD, NUMBER INTERVAL=1
*NODE OUTPUT
U, RF
*ELEMENT OUTPUT, ELSET=GHOST
SDV
*NODE PRINT, NSET=QPOINT, FREQUENCY=41, SUMMARY=NO, TOTALS=NO
U1, U2, RF1, RF2
*END STEP
*STEP, NAME=CYCLE_2, INC=2000, EXTRAPOLATION=NO
*STATIC
1., 41, 4.1e-06, 1.
*CONTROLS, PARAMETERS=TIME INCREMENTATION
8, 20, 9, 30, 10, 4, 12, 20
*CONTROLS, PARAMETERS=LINE SEARCH
5, , , , 
*BOUNDARY, OP=NEW
QPOINT, 1, 1
QPOINT, 6, 6
DISP, 2, 2
DISP, 6, 6
*BOUNDARY, OP=NEW, AMPLITUDE=STROKE
DISP, 1, 1, 0.025
*OUTPUT, FIELD, NUMBER INTERVAL=1
*NODE OUTPUT
U, RF
*ELEMENT OUTPUT, ELSET=GHOST
SDV
*NODE PRINT, NSET=QPOINT, FREQUENCY=41, SUMMARY=NO, TOTALS=NO
U1, U2, RF1, RF2
*END STEP
*STEP, NAME=CYCLE_3, INC=2000, EXTRAPOLATION=NO
*STATIC
1., 41, 4.1e-06, 1.
*CONTROLS, PARAMETERS=TIME INCREMENTATION
8, 20, 9, 30, 10, 4, 12, 20
*CONTROLS, PARAMETERS=LINE SEARCH
5, , , , 
*BOUNDARY, OP=NEW
QPOINT, 1, 1
QPOINT, 6, 6
DISP, 2, 2
DISP, 6, 6
*BOUNDARY, OP=NEW, AMPLITUDE=STROKE
DISP, 1, 1, 0.025
*OUTPUT, FIELD, NUMBER INTERVAL=1
*NODE OUTPUT
U, RF
*ELEMENT OUTPUT, ELSET=GHOST
SDV
*NODE PRINT, NSET=QPOINT, FREQUENCY=41, SUMMARY=NO, TOTALS=NO
U1, U2, RF1, RF2
*END STEP
*STEP, NAME=CYCLE_4, INC=2000, EXTRAPOLATION=NO
*STATIC
1., 41, 4.1e-06, 1.
*CONTROLS, PARAMETERS=TIME INCREMENTATION
8, 20, 9, 30, 10, 4, 12, 20
*CONTROLS, PARAMETERS=LINE SEARCH
5, , , , 
*BOUNDARY, OP=NEW
QPOINT, 1, 1
QPOINT, 6, 6
DISP, 2, 2
DISP, 6, 6
*BOUNDARY, OP=NEW, AMPLITUDE=STROKE
DISP, 1, 1, 0.025
*OUTPUT, FIELD, NUMBER INTERVAL=1
*NODE OUTPUT
U, RF
*ELEMENT OUTPUT, ELSET=GHOST
SDV
*NODE PRINT, NSET=QPOINT, FREQUENCY=41, SUMMARY=NO, TOTALS=NO
U1, U2, RF1, RF2
*END STEP
*STEP, NAME=CYCLE_5, INC=2000, EXTRAPOLATION=NO
*STATIC
1., 41, 4.1e-06, 1.
*CONTROLS, PARAMETERS=TIME INCREMENTATION
8, 20, 9, 30, 10, 4, 12, 20
*CONTROLS, PARAMETERS=LINE SEARCH
5, , , , 
*BOUNDARY, OP=NEW
QPOINT, 1, 1
QPOINT, 6, 6
DISP, 2, 2
DISP, 6, 6
*BOUNDARY, OP=NEW, AMPLITUDE=STROKE
DISP, 1, 1, 0.025
*OUTPUT, FIELD, NUMBER INTERVAL=1
*NODE OUTPUT
U, RF
*ELEMENT OUTPUT, ELSET=GHOST
SDV
*NODE PRINT, NSET=QPOINT, FREQUENCY=41, SUMMARY=NO, TOTALS=NO
U1, U2, RF1, RF2
*END STEP
*STEP, NAME=CYCLE_6, INC=2000, EXTRAPOLATION=NO
*STATIC
1., 41, 4.1e-06, 1.
*CONTROLS, PARAMETERS=TIME INCREMENTATION
8, 20, 9, 30, 10, 4, 12, 20
*CONTROLS, PARAMETERS=LINE SEARCH
5, , , , 
*BOUNDARY, OP=NEW
QPOINT, 1, 1
QPOINT, 6, 6
DISP, 2, 2
DISP, 6, 6
*BOUNDARY, OP=NEW, AMPLITUDE=STROKE
DISP, 1, 1, 0.025
*OUTPUT, FIELD, NUMBER INTERVAL=1
*NODE OUTPUT
U, RF
*ELEMENT OUTPUT, ELSET=GHOST
SDV
*NODE PRINT, NSET=QPOINT, FREQUENCY=41, SUMMARY=NO, TOTALS=NO
U1, U2, RF1, RF2
*END STEP
*STEP, NAME=CYCLE_7, INC=2000, EXTRAPOLATION=NO
*STATIC
1., 41, 4.1e-06, 1.
*CONTROLS, PARAMETERS=TIME INCREMENTATION
8, 20, 9, 30, 10, 4, 12, 20
*CONTROLS, PARAMETERS=LINE SEARCH
5, , , , 
*BOUNDARY, OP=NEW
QPOINT, 1, 1
QPOINT, 6, 6
DISP, 2, 2
DISP, 6, 6
*BOUNDARY, OP=NEW, AMPLITUDE=STROKE
DISP, 1, 1, 0.025
*OUTPUT, FIELD, NUMBER INTERVAL=1
*NODE OUTPUT
U, RF
*ELEMENT OUTPUT, ELSET=GHOST
SDV
*NODE PRINT, NSET=QPOINT, FREQUENCY=41, SUMMARY=NO, TOTALS=NO
U1, U2, RF1, RF2
*END STEP
*STEP, NAME=CYCLE_8, INC=2000, EXTRAPOLATION=NO
*STATIC
1., 41, 4.1e-06, 1.
*CONTROLS, PARAMETERS=TIME INCREMENTATION
8, 20, 9, 30, 10, 4, 12, 20
*CONTROLS, PARAMETERS=LINE SEARCH
5, , , , 
*BOUNDARY, OP=NEW
QPOINT, 1, 1
QPOINT, 6, 6
DISP, 2, 2
DISP, 6, 6
*BOUNDARY, OP=NEW, AMPLITUDE=STROKE
DISP, 1, 1, 0.025
*OUTPUT, FIELD, NUMBER INTERVAL=1
*NODE OUTPUT
U, RF
*ELEMENT OUTPUT, ELSET=GHOST
SDV
*NODE PRINT, NSET=QPOINT, FREQUENCY=41, SUMMARY=NO, TOTALS=NO
U1, U2, RF1, RF2
*END STEP
*STEP, NAME=CYCLE_9, INC=2000, EXTRAPOLATION=NO
*STATIC
1., 41, 4.1e-06, 1.
*CONTROLS, PARAMETERS=TIME INCREMENTATION
8, 20, 9, 30, 10, 4, 12, 20
*CONTROLS, PARAMETERS=LINE SEARCH
5, , , , 
*BOUNDARY, OP=NEW
QPOINT, 1, 1
QPOINT, 6, 6
DISP, 2, 2
DISP, 6, 6
*BOUNDARY, OP=NEW, AMPLITUDE=STROKE
DISP, 1, 1, 0.025
*OUTPUT, FIELD, NUMBER INTERVAL=1
*NODE OUTPUT
U, RF
*ELEMENT OUTPUT, ELSET=GHOST
SDV
*NODE PRINT, NSET=QPOINT, FREQUENCY=41, SUMMARY=NO, TOTALS=NO
U1, U2, RF1, RF2
*END STEP
*STEP, NAME=CYCLE_10, INC=2000, EXTRAPOLATION=NO
*STATIC
1., 41, 4.1e-06, 1.
*CONTROLS, PARAMETERS=TIME INCREMENTATION
8, 20, 9, 30, 10, 4, 12, 20
*CONTROLS, PARAMETERS=LINE SEARCH
5, , , , 
*BOUNDARY, OP=NEW
QPOINT, 1, 1
QPOINT, 6, 6
DISP, 2, 2
DISP, 6, 6
*BOUNDARY, OP=NEW, AMPLITUDE=STROKE
DISP, 1, 1, 0.025
*OUTPUT, FIELD, NUMBER INTERVAL=1
*NODE OUTPUT
U, RF
*ELEMENT OUTPUT, ELSET=GHOST
SDV
*NODE PRINT, NSET=QPOINT, FREQUENCY=41, SUMMARY=NO, TOTALS=NO
U1, U2, RF1, RF2
*END STEP
*STEP, NAME=CYCLE_11, INC=2000, EXTRAPOLATION=NO
*STATIC
1., 41, 4.1e-06, 1.
*CONTROLS, PARAMETERS=TIME INCREMENTATION
8, 20, 9, 30, 10, 4, 12, 20
*CONTROLS, PARAMETERS=LINE SEARCH
5, , , , 
*BOUNDARY, OP=NEW
QPOINT, 1, 1
QPOINT, 6, 6
DISP, 2, 2
DISP, 6, 6
*BOUNDARY, OP=NEW, AMPLITUDE=STROKE
DISP, 1, 1, 0.025
*OUTPUT, FIELD, NUMBER INTERVAL=1
*NODE OUTPUT
U, RF
*ELEMENT OUTPUT, ELSET=GHOST
SDV
*NODE PRINT, NSET=QPOINT, FREQUENCY=41, SUMMARY=NO, TOTALS=NO
U1, U2, RF1, RF2
*END STEP
*STEP, NAME=CYCLE_12, INC=2000, EXTRAPOLATION=NO
*STATIC
1., 41, 4.1e-06, 1.
*CONTROLS, PARAMETERS=TIME INCREMENTATION
8, 20, 9, 30, 10, 4, 12, 20
*CONTROLS, PARAMETERS=LINE SEARCH
5, , , , 
*BOUNDARY, OP=NEW
QPOINT, 1, 1
QPOINT, 6, 6
DISP, 2, 2
DISP, 6, 6
*BOUNDARY, OP=NEW, AMPLITUDE=STROKE
DISP, 1, 1, 0.025
*OUTPUT, FIELD, NUMBER INTERVAL=1
*NODE OUTPUT
U, RF
*ELEMENT OUTPUT, ELSET=GHOST
SDV
*NODE PRINT, NSET=QPOINT, FREQUENCY=41, SUMMARY=NO, TOTALS=NO
U1, U2, RF1, RF2
*END STEP
*STEP, NAME=CYCLE_13, INC=2000, EXTRAPOLATION=NO
*STATIC
1., 41, 4.1e-06, 1.
*CONTROLS, PARAMETERS=TIME INCREMENTATION
8, 20, 9, 30, 10, 4, 12, 20
*CONTROLS, PARAMETERS=LINE SEARCH
5, , , , 
*BOUNDARY, OP=NEW
QPOINT, 1, 1
QPOINT, 6, 6
DISP, 2, 2
DISP, 6, 6
*BOUNDARY, OP=NEW, AMPLITUDE=STROKE
DISP, 1, 1, 0.025
*OUTPUT, FIELD, NUMBER INTERVAL=1
*NODE OUTPUT
U, RF
*ELEMENT OUTPUT, ELSET=GHOST
SDV
*NODE PRINT, NSET=QPOINT, FREQUENCY=41, SUMMARY=NO, TOTALS=NO
U1, U2, RF1, RF2
*END STEP
*STEP, NAME=CYCLE_14, INC=2000, EXTRAPOLATION=NO
*STATIC
1., 41, 4.1e-06, 1.
*CONTROLS, PARAMETERS=TIME INCREMENTATION
8, 20, 9, 30, 10, 4, 12, 20
*CONTROLS, PARAMETERS=LINE SEARCH
5, , , , 
*BOUNDARY, OP=NEW
QPOINT, 1, 1
QPOINT, 6, 6
DISP, 2, 2
DISP, 6, 6
*BOUNDARY, OP=NEW, AMPLITUDE=STROKE
DISP, 1, 1, 0.025
*OUTPUT, FIELD, NUMBER INTERVAL=1
*NODE OUTPUT
U, RF
*ELEMENT OUTPUT, ELSET=GHOST
SDV
*NODE PRINT, NSET=QPOINT, FREQUENCY=41, SUMMARY=NO, TOTALS=NO
U1, U2, RF1, RF2
*END STEP
*STEP, NAME=CYCLE_15, INC=2000, EXTRAPOLATION=NO
*STATIC
1., 41, 4.1e-06, 1.
*CONTROLS, PARAMETERS=TIME INCREMENTATION
8, 20, 9, 30, 10, 4, 12, 20
*CONTROLS, PARAMETERS=LINE SEARCH
5, , , , 
*BOUNDARY, OP=NEW
QPOINT, 1, 1
QPOINT, 6, 6
DISP, 2, 2
DISP, 6, 6
*BOUNDARY, OP=NEW, AMPLITUDE=STROKE
DISP, 1, 1, 0.025
*OUTPUT, FIELD, NUMBER INTERVAL=1
*NODE OUTPUT
U, RF
*ELEMENT OUTPUT, ELSET=GHOST
SDV
*NODE PRINT, NSET=QPOINT, FREQUENCY=41, SUMMARY=NO, TOTALS=NO
U1, U2, RF1, RF2
*END STEP
*STEP, NAME=CYCLE_16, INC=2000, EXTRAPOLATION=NO
*STATIC
1., 41, 4.1e-06, 1.
*CONTROLS, PARAMETERS=TIME INCREMENTATION
8, 20, 9, 30, 10, 4, 12, 20
*CONTROLS, PARAMETERS=LINE SEARCH
5, , , , 
*BOUNDARY, OP=NEW
QPOINT, 1, 1
QPOINT, 6, 6
DISP, 2, 2
DISP, 6, 6
*BOUNDARY, OP=NEW, AMPLITUDE=STROKE
DISP, 1, 1, 0.025
*OUTPUT, FIELD, NUMBER INTERVAL=1
*NODE OUTPUT
U, RF
*ELEMENT OUTPUT, ELSET=GHOST
SDV
*NODE PRINT, NSET=QPOINT, FREQUENCY=41, SUMMARY=NO, TOTALS=NO
U1, U2, RF1, RF2
*END STEP
*STEP, NAME=CYCLE_17, INC=2000, EXTRAPOLATION=NO
*STATIC
1., 41, 4.1e-06, 1.
*CONTROLS, PARAMETERS=TIME INCREMENTATION
8, 20, 9, 30, 10, 4, 12, 20
*CONTROLS, PARAMETERS=LINE SEARCH
5, , , , 
*BOUNDARY, OP=NEW
QPOINT, 1, 1
QPOINT, 6, 6
DISP, 2, 2
DISP, 6, 6
*BOUNDARY, OP=NEW, AMPLITUDE=STROKE
DISP, 1, 1, 0.025
*OUTPUT, FIELD, NUMBER INTERVAL=1
*NODE OUTPUT
U, RF
*ELEMENT OUTPUT, ELSET=GHOST
SDV
*NODE PRINT, NSET=QPOINT, FREQUENCY=41, SUMMARY=NO, TOTALS=NO
U1, U2, RF1, RF2
*END STEP
*STEP, NAME=CYCLE_18, INC=2000, EXTRAPOLATION=NO
*STATIC
1., 41, 4.1e-06, 1.
*CONTROLS, PARAMETERS=TIME INCREMENTATION
8, 20, 9, 30, 10, 4, 12, 20
*CONTROLS, PARAMETERS=LINE SEARCH
5, , , , 
*BOUNDARY, OP=NEW
QPOINT, 1, 1
QPOINT, 6, 6
DISP, 2, 2
DISP, 6, 6
*BOUNDARY, OP=NEW, AMPLITUDE=STROKE
DISP, 1, 1, 0.025
*OUTPUT, FIELD, NUMBER INTERVAL=1
*NODE OUTPUT
U, RF
*ELEMENT OUTPUT, ELSET=GHOST
SDV
*NODE PRINT, NSET=QPOINT, FREQUENCY=41, SUMMARY=NO, TOTALS=NO
U1, U2, RF1, RF2
*END STEP
*STEP, NAME=CYCLE_19, INC=2000, EXTRAPOLATION=NO
*STATIC
1., 41, 4.1e-06, 1.
*CONTROLS, PARAMETERS=TIME INCREMENTATION
8, 20, 9, 30, 10, 4, 12, 20
*CONTROLS, PARAMETERS=LINE SEARCH
5, , , , 
*BOUNDARY, OP=NEW
QPOINT, 1, 1
QPOINT, 6, 6
DISP, 2, 2
DISP, 6, 6
*BOUNDARY, OP=NEW, AMPLITUDE=STROKE
DISP, 1, 1, 0.025
*OUTPUT, FIELD, NUMBER INTERVAL=1
*NODE OUTPUT
U, RF
*ELEMENT OUTPUT, ELSET=GHOST
SDV
*NODE PRINT, NSET=QPOINT, FREQUENCY=41, SUMMARY=NO, TOTALS=NO
U1, U2, RF1, RF2
*END STEP
*STEP, NAME=CYCLE_20, INC=2000, EXTRAPOLATION=NO
*STATIC
1., 41, 4.1e-06, 1.
*CONTROLS, PARAMETERS=TIME INCREMENTATION
8, 20, 9, 30, 10, 4, 12, 20
*CONTROLS, PARAMETERS=LINE SEARCH
5, , , , 
*BOUNDARY, OP=NEW
QPOINT, 1, 1
QPOINT, 6, 6
DISP, 2, 2
DISP, 6, 6
*BOUNDARY, OP=NEW, AMPLITUDE=STROKE
DISP, 1, 1, 0.025
*OUTPUT, FIELD, NUMBER INTERVAL=1
*NODE OUTPUT
U, RF
*ELEMENT OUTPUT, ELSET=GHOST
SDV
*NODE PRINT, NSET=QPOINT, FREQUENCY=41, SUMMARY=NO, TOTALS=NO
U1, U2, RF1, RF2
*END STEP
*STEP, NAME=CYCLE_21, INC=2000, EXTRAPOLATION=NO
*STATIC
1., 41, 4.1e-06, 1.
*CONTROLS, PARAMETERS=TIME INCREMENTATION
8, 20, 9, 30, 10, 4, 12, 20
*CONTROLS, PARAMETERS=LINE SEARCH
5, , , , 
*BOUNDARY, OP=NEW
QPOINT, 1, 1
QPOINT, 6, 6
DISP, 2, 2
DISP, 6, 6
*BOUNDARY, OP=NEW, AMPLITUDE=STROKE
DISP, 1, 1, 0.025
*OUTPUT, FIELD, NUMBER INTERVAL=1
*NODE OUTPUT
U, RF
*ELEMENT OUTPUT, ELSET=GHOST
SDV
*NODE PRINT, NSET=QPOINT, FREQUENCY=41, SUMMARY=NO, TOTALS=NO
U1, U2, RF1, RF2
*END STEP
*STEP, NAME=CYCLE_22, INC=2000, EXTRAPOLATION=NO
*STATIC
1., 41, 4.1e-06, 1.
*CONTROLS, PARAMETERS=TIME INCREMENTATION
8, 20, 9, 30, 10, 4, 12, 20
*CONTROLS, PARAMETERS=LINE SEARCH
5, , , , 
*BOUNDARY, OP=NEW
QPOINT, 1, 1
QPOINT, 6, 6
DISP, 2, 2
DISP, 6, 6
*BOUNDARY, OP=NEW, AMPLITUDE=STROKE
DISP, 1, 1, 0.025
*OUTPUT, FIELD, NUMBER INTERVAL=1
*NODE OUTPUT
U, RF
*ELEMENT OUTPUT, ELSET=GHOST
SDV
*NODE PRINT, NSET=QPOINT, FREQUENCY=41, SUMMARY=NO, TOTALS=NO
U1, U2, RF1, RF2
*END STEP
*STEP, NAME=CYCLE_23, INC=2000, EXTRAPOLATION=NO
*STATIC
1., 41, 4.1e-06, 1.
*CONTROLS, PARAMETERS=TIME INCREMENTATION
8, 20, 9, 30, 10, 4, 12, 20
*CONTROLS, PARAMETERS=LINE SEARCH
5, , , , 
*BOUNDARY, OP=NEW
QPOINT, 1, 1
QPOINT, 6, 6
DISP, 2, 2
DISP, 6, 6
*BOUNDARY, OP=NEW, AMPLITUDE=STROKE
DISP, 1, 1, 0.025
*OUTPUT, FIELD, NUMBER INTERVAL=1
*NODE OUTPUT
U, RF
*ELEMENT OUTPUT, ELSET=GHOST
SDV
*NODE PRINT, NSET=QPOINT, FREQUENCY=41, SUMMARY=NO, TOTALS=NO
U1, U2, RF1, RF2
*END STEP
*STEP, NAME=CYCLE_24, INC=2000, EXTRAPOLATION=NO
*STATIC
1., 41, 4.1e-06, 1.
*CONTROLS, PARAMETERS=TIME INCREMENTATION
8, 20, 9, 30, 10, 4, 12, 20
*CONTROLS, PARAMETERS=LINE SEARCH
5, , , , 
*BOUNDARY, OP=NEW
QPOINT, 1, 1
QPOINT, 6, 6
DISP, 2, 2
DISP, 6, 6
*BOUNDARY, OP=NEW, AMPLITUDE=STROKE
DISP, 1, 1, 0.025
*OUTPUT, FIELD, NUMBER INTERVAL=1
*NODE OUTPUT
U, RF
*ELEMENT OUTPUT, ELSET=GHOST
SDV
*NODE PRINT, NSET=QPOINT, FREQUENCY=41, SUMMARY=NO, TOTALS=NO
U1, U2, RF1, RF2
*END STEP
*STEP, NAME=CYCLE_25, INC=2000, EXTRAPOLATION=NO
*STATIC
1., 41, 4.1e-06, 1.
*CONTROLS, PARAMETERS=TIME INCREMENTATION
8, 20, 9, 30, 10, 4, 12, 20
*CONTROLS, PARAMETERS=LINE SEARCH
5, , , , 
*BOUNDARY, OP=NEW
QPOINT, 1, 1
QPOINT, 6, 6
DISP, 2, 2
DISP, 6, 6
*BOUNDARY, OP=NEW, AMPLITUDE=STROKE
DISP, 1, 1, 0.025
*OUTPUT, FIELD, NUMBER INTERVAL=1
*NODE OUTPUT
U, RF
*ELEMENT OUTPUT, ELSET=GHOST
SDV
*NODE PRINT, NSET=QPOINT, FREQUENCY=41, SUMMARY=NO, TOTALS=NO
U1, U2, RF1, RF2
*END STEP
*STEP, NAME=CYCLE_26, INC=2000, EXTRAPOLATION=NO
*STATIC
1., 41, 4.1e-06, 1.
*CONTROLS, PARAMETERS=TIME INCREMENTATION
8, 20, 9, 30, 10, 4, 12, 20
*CONTROLS, PARAMETERS=LINE SEARCH
5, , , , 
*BOUNDARY, OP=NEW
QPOINT, 1, 1
QPOINT, 6, 6
DISP, 2, 2
DISP, 6, 6
*BOUNDARY, OP=NEW, AMPLITUDE=STROKE
DISP, 1, 1, 0.025
*OUTPUT, FIELD, NUMBER INTERVAL=1
*NODE OUTPUT
U, RF
*ELEMENT OUTPUT, ELSET=GHOST
SDV
*NODE PRINT, NSET=QPOINT, FREQUENCY=41, SUMMARY=NO, TOTALS=NO
U1, U2, RF1, RF2
*END STEP
*STEP, NAME=CYCLE_27, INC=2000, EXTRAPOLATION=NO
*STATIC
1., 41, 4.1e-06, 1.
*CONTROLS, PARAMETERS=TIME INCREMENTATION
8, 20, 9, 30, 10, 4, 12, 20
*CONTROLS, PARAMETERS=LINE SEARCH
5, , , , 
*BOUNDARY, OP=NEW
QPOINT, 1, 1
QPOINT, 6, 6
DISP, 2, 2
DISP, 6, 6
*BOUNDARY, OP=NEW, AMPLITUDE=STROKE
DISP, 1, 1, 0.025
*OUTPUT, FIELD, NUMBER INTERVAL=1
*NODE OUTPUT
U, RF
*ELEMENT OUTPUT, ELSET=GHOST
SDV
*NODE PRINT, NSET=QPOINT, FREQUENCY=41, SUMMARY=NO, TOTALS=NO
U1, U2, RF1, RF2
*END STEP
*STEP, NAME=CYCLE_28, INC=2000, EXTRAPOLATION=NO
*STATIC
1., 41, 4.1e-06, 1.
*CONTROLS, PARAMETERS=TIME INCREMENTATION
8, 20, 9, 30, 10, 4, 12, 20
*CONTROLS, PARAMETERS=LINE SEARCH
5, , , , 
*BOUNDARY, OP=NEW
QPOINT, 1, 1
QPOINT, 6, 6
DISP, 2, 2
DISP, 6, 6
*BOUNDARY, OP=NEW, AMPLITUDE=STROKE
DISP, 1, 1, 0.025
*OUTPUT, FIELD, NUMBER INTERVAL=1
*NODE OUTPUT
U, RF
*ELEMENT OUTPUT, ELSET=GHOST
SDV
*NODE PRINT, NSET=QPOINT, FREQUENCY=41, SUMMARY=NO, TOTALS=NO
U1, U2, RF1, RF2
*END STEP
*STEP, NAME=CYCLE_29, INC=2000, EXTRAPOLATION=NO
*STATIC
1., 41, 4.1e-06, 1.
*CONTROLS, PARAMETERS=TIME INCREMENTATION
8, 20, 9, 30, 10, 4, 12, 20
*CONTROLS, PARAMETERS=LINE SEARCH
5, , , , 
*BOUNDARY, OP=NEW
QPOINT, 1, 1
QPOINT, 6, 6
DISP, 2, 2
DISP, 6, 6
*BOUNDARY, OP=NEW, AMPLITUDE=STROKE
DISP, 1, 1, 0.025
*OUTPUT, FIELD, NUMBER INTERVAL=1
*NODE OUTPUT
U, RF
*ELEMENT OUTPUT, ELSET=GHOST
SDV
*NODE PRINT, NSET=QPOINT, FREQUENCY=41, SUMMARY=NO, TOTALS=NO
U1, U2, RF1, RF2
*END STEP
*STEP, NAME=CYCLE_30, INC=2000, EXTRAPOLATION=NO
*STATIC
1., 41, 4.1e-06, 1.
*CONTROLS, PARAMETERS=TIME INCREMENTATION
8, 20, 9, 30, 10, 4, 12, 20
*CONTROLS, PARAMETERS=LINE SEARCH
5, , , , 
*BOUNDARY, OP=NEW
QPOINT, 1, 1
QPOINT, 6, 6
DISP, 2, 2
DISP, 6, 6
*BOUNDARY, OP=NEW, AMPLITUDE=STROKE
DISP, 1, 1, 0.025
*OUTPUT, FIELD, NUMBER INTERVAL=1
*NODE OUTPUT
U, RF
*ELEMENT OUTPUT, ELSET=GHOST
SDV
*NODE PRINT, NSET=QPOINT, FREQUENCY=41, SUMMARY=NO, TOTALS=NO
U1, U2, RF1, RF2
*END STEP
*STEP, NAME=CYCLE_31, INC=2000, EXTRAPOLATION=NO
*STATIC
1., 41, 4.1e-06, 1.
*CONTROLS, PARAMETERS=TIME INCREMENTATION
8, 20, 9, 30, 10, 4, 12, 20
*CONTROLS, PARAMETERS=LINE SEARCH
5, , , , 
*BOUNDARY, OP=NEW
QPOINT, 1, 1
QPOINT, 6, 6
DISP, 2, 2
DISP, 6, 6
*BOUNDARY, OP=NEW, AMPLITUDE=STROKE
DISP, 1, 1, 0.025
*OUTPUT, FIELD, NUMBER INTERVAL=1
*NODE OUTPUT
U, RF
*ELEMENT OUTPUT, ELSET=GHOST
SDV
*NODE PRINT, NSET=QPOINT, FREQUENCY=41, SUMMARY=NO, TOTALS=NO
U1, U2, RF1, RF2
*END STEP
*STEP, NAME=CYCLE_32, INC=2000, EXTRAPOLATION=NO
*STATIC
1., 41, 4.1e-06, 1.
*CONTROLS, PARAMETERS=TIME INCREMENTATION
8, 20, 9, 30, 10, 4, 12, 20
*CONTROLS, PARAMETERS=LINE SEARCH
5, , , , 
*BOUNDARY, OP=NEW
QPOINT, 1, 1
QPOINT, 6, 6
DISP, 2, 2
DISP, 6, 6
*BOUNDARY, OP=NEW, AMPLITUDE=STROKE
DISP, 1, 1, 0.025
*OUTPUT, FIELD, NUMBER INTERVAL=1
*NODE OUTPUT
U, RF
*ELEMENT OUTPUT, ELSET=GHOST
SDV
*NODE PRINT, NSET=QPOINT, FREQUENCY=41, SUMMARY=NO, TOTALS=NO
U1, U2, RF1, RF2
*END STEP
*STEP, NAME=CYCLE_33, INC=2000, EXTRAPOLATION=NO
*STATIC
1., 41, 4.1e-06, 1.
*CONTROLS, PARAMETERS=TIME INCREMENTATION
8, 20, 9, 30, 10, 4, 12, 20
*CONTROLS, PARAMETERS=LINE SEARCH
5, , , , 
*BOUNDARY, OP=NEW
QPOINT, 1, 1
QPOINT, 6, 6
DISP, 2, 2
DISP, 6, 6
*BOUNDARY, OP=NEW, AMPLITUDE=STROKE
DISP, 1, 1, 0.025
*OUTPUT, FIELD, NUMBER INTERVAL=1
*NODE OUTPUT
U, RF
*ELEMENT OUTPUT, ELSET=GHOST
SDV
*NODE PRINT, NSET=QPOINT, FREQUENCY=41, SUMMARY=NO, TOTALS=NO
U1, U2, RF1, RF2
*END STEP
*STEP, NAME=CYCLE_34, INC=2000, EXTRAPOLATION=NO
*STATIC
1., 41, 4.1e-06, 1.
*CONTROLS, PARAMETERS=TIME INCREMENTATION
8, 20, 9, 30, 10, 4, 12, 20
*CONTROLS, PARAMETERS=LINE SEARCH
5, , , , 
*BOUNDARY, OP=NEW
QPOINT, 1, 1
QPOINT, 6, 6
DISP, 2, 2
DISP, 6, 6
*BOUNDARY, OP=NEW, AMPLITUDE=STROKE
DISP, 1, 1, 0.025
*OUTPUT, FIELD, NUMBER INTERVAL=1
*NODE OUTPUT
U, RF
*ELEMENT OUTPUT, ELSET=GHOST
SDV
*NODE PRINT, NSET=QPOINT, FREQUENCY=41, SUMMARY=NO, TOTALS=NO
U1, U2, RF1, RF2
*END STEP
*STEP, NAME=CYCLE_35, INC=2000, EXTRAPOLATION=NO
*STATIC
1., 41, 4.1e-06, 1.
*CONTROLS, PARAMETERS=TIME INCREMENTATION
8, 20, 9, 30, 10, 4, 12, 20
*CONTROLS, PARAMETERS=LINE SEARCH
5, , , , 
*BOUNDARY, OP=NEW
QPOINT, 1, 1
QPOINT, 6, 6
DISP, 2, 2
DISP, 6, 6
*BOUNDARY, OP=NEW, AMPLITUDE=STROKE
DISP, 1, 1, 0.025
*OUTPUT, FIELD, NUMBER INTERVAL=1
*NODE OUTPUT
U, RF
*ELEMENT OUTPUT, ELSET=GHOST
SDV
*NODE PRINT, NSET=QPOINT, FREQUENCY=41, SUMMARY=NO, TOTALS=NO
U1, U2, RF1, RF2
*END STEP
*STEP, NAME=CYCLE_36, INC=2000, EXTRAPOLATION=NO
*STATIC
1., 41, 4.1e-06, 1.
*CONTROLS, PARAMETERS=TIME INCREMENTATION
8, 20, 9, 30, 10, 4, 12, 20
*CONTROLS, PARAMETERS=LINE SEARCH
5, , , , 
*BOUNDARY, OP=NEW
QPOINT, 1, 1
QPOINT, 6, 6
DISP, 2, 2
DISP, 6, 6
*BOUNDARY, OP=NEW, AMPLITUDE=STROKE
DISP, 1, 1, 0.025
*OUTPUT, FIELD, NUMBER INTERVAL=1
*NODE OUTPUT
U, RF
*ELEMENT OUTPUT, ELSET=GHOST
SDV
*NODE PRINT, NSET=QPOINT, FREQUENCY=41, SUMMARY=NO, TOTALS=NO
U1, U2, RF1, RF2
*END STEP
*STEP, NAME=CYCLE_37, INC=2000, EXTRAPOLATION=NO
*STATIC
1., 41, 4.1e-06, 1.
*CONTROLS, PARAMETERS=TIME INCREMENTATION
8, 20, 9, 30, 10, 4, 12, 20
*CONTROLS, PARAMETERS=LINE SEARCH
5, , , , 
*BOUNDARY, OP=NEW
QPOINT, 1, 1
QPOINT, 6, 6
DISP, 2, 2
DISP, 6, 6
*BOUNDARY, OP=NEW, AMPLITUDE=STROKE
DISP, 1, 1, 0.025
*OUTPUT, FIELD, NUMBER INTERVAL=1
*NODE OUTPUT
U, RF
*ELEMENT OUTPUT, ELSET=GHOST
SDV
*NODE PRINT, NSET=QPOINT, FREQUENCY=41, SUMMARY=NO, TOTALS=NO
U1, U2, RF1, RF2
*END STEP
*STEP, NAME=CYCLE_38, INC=2000, EXTRAPOLATION=NO
*STATIC
1., 41, 4.1e-06, 1.
*CONTROLS, PARAMETERS=TIME INCREMENTATION
8, 20, 9, 30, 10, 4, 12, 20
*CONTROLS, PARAMETERS=LINE SEARCH
5, , , , 
*BOUNDARY, OP=NEW
QPOINT, 1, 1
QPOINT, 6, 6
DISP, 2, 2
DISP, 6, 6
*BOUNDARY, OP=NEW, AMPLITUDE=STROKE
DISP, 1, 1, 0.025
*OUTPUT, FIELD, NUMBER INTERVAL=1
*NODE OUTPUT
U, RF
*ELEMENT OUTPUT, ELSET=GHOST
SDV
*NODE PRINT, NSET=QPOINT, FREQUENCY=41, SUMMARY=NO, TOTALS=NO
U1, U2, RF1, RF2
*END STEP
*STEP, NAME=CYCLE_39, INC=2000, EXTRAPOLATION=NO
*STATIC
1., 41, 4.1e-06, 1.
*CONTROLS, PARAMETERS=TIME INCREMENTATION
8, 20, 9, 30, 10, 4, 12, 20
*CONTROLS, PARAMETERS=LINE SEARCH
5, , , , 
*BOUNDARY, OP=NEW
QPOINT, 1, 1
QPOINT, 6, 6
DISP, 2, 2
DISP, 6, 6
*BOUNDARY, OP=NEW, AMPLITUDE=STROKE
DISP, 1, 1, 0.025
*OUTPUT, FIELD, NUMBER INTERVAL=1
*NODE OUTPUT
U, RF
*ELEMENT OUTPUT, ELSET=GHOST
SDV
*NODE PRINT, NSET=QPOINT, FREQUENCY=41, SUMMARY=NO, TOTALS=NO
U1, U2, RF1, RF2
*END STEP
*STEP, NAME=CYCLE_40, INC=2000, EXTRAPOLATION=NO
*STATIC
1., 41, 4.1e-06, 1.
*CONTROLS, PARAMETERS=TIME INCREMENTATION
8, 20, 9, 30, 10, 4, 12, 20
*CONTROLS, PARAMETERS=LINE SEARCH
5, , , , 
*BOUNDARY, OP=NEW
QPOINT, 1, 1
QPOINT, 6, 6
DISP, 2, 2
DISP, 6, 6
*BOUNDARY, OP=NEW, AMPLITUDE=STROKE
DISP, 1, 1, 0.025
*OUTPUT, FIELD, NUMBER INTERVAL=1
*NODE OUTPUT
U, RF
*ELEMENT OUTPUT, ELSET=GHOST
SDV
*NODE PRINT, NSET=QPOINT, FREQUENCY=41, SUMMARY=NO, TOTALS=NO
U1, U2, RF1, RF2
*END STEP
*STEP, NAME=CYCLE_41, INC=2000, EXTRAPOLATION=NO
*STATIC
1., 41, 4.1e-06, 1.
*CONTROLS, PARAMETERS=TIME INCREMENTATION
8, 20, 9, 30, 10, 4, 12, 20
*CONTROLS, PARAMETERS=LINE SEARCH
5, , , , 
*BOUNDARY, OP=NEW
QPOINT, 1, 1
QPOINT, 6, 6
DISP, 2, 2
DISP, 6, 6
*BOUNDARY, OP=NEW, AMPLITUDE=STROKE
DISP, 1, 1, 0.025
*OUTPUT, FIELD, NUMBER INTERVAL=1
*NODE OUTPUT
U, RF
*ELEMENT OUTPUT, ELSET=GHOST
SDV
*NODE PRINT, NSET=QPOINT, FREQUENCY=41, SUMMARY=NO, TOTALS=NO
U1, U2, RF1, RF2
*END STEP
*STEP, NAME=CYCLE_42, INC=2000, EXTRAPOLATION=NO
*STATIC
1., 41, 4.1e-06, 1.
*CONTROLS, PARAMETERS=TIME INCREMENTATION
8, 20, 9, 30, 10, 4, 12, 20
*CONTROLS, PARAMETERS=LINE SEARCH
5, , , , 
*BOUNDARY, OP=NEW
QPOINT, 1, 1
QPOINT, 6, 6
DISP, 2, 2
DISP, 6, 6
*BOUNDARY, OP=NEW, AMPLITUDE=STROKE
DISP, 1, 1, 0.025
*OUTPUT, FIELD, NUMBER INTERVAL=1
*NODE OUTPUT
U, RF
*ELEMENT OUTPUT, ELSET=GHOST
SDV
*NODE PRINT, NSET=QPOINT, FREQUENCY=41, SUMMARY=NO, TOTALS=NO
U1, U2, RF1, RF2
*END STEP
*STEP, NAME=CYCLE_43, INC=2000, EXTRAPOLATION=NO
*STATIC
1., 41, 4.1e-06, 1.
*CONTROLS, PARAMETERS=TIME INCREMENTATION
8, 20, 9, 30, 10, 4, 12, 20
*CONTROLS, PARAMETERS=LINE SEARCH
5, , , , 
*BOUNDARY, OP=NEW
QPOINT, 1, 1
QPOINT, 6, 6
DISP, 2, 2
DISP, 6, 6
*BOUNDARY, OP=NEW, AMPLITUDE=STROKE
DISP, 1, 1, 0.025
*OUTPUT, FIELD, NUMBER INTERVAL=1
*NODE OUTPUT
U, RF
*ELEMENT OUTPUT, ELSET=GHOST
SDV
*NODE PRINT, NSET=QPOINT, FREQUENCY=41, SUMMARY=NO, TOTALS=NO
U1, U2, RF1, RF2
*END STEP
*STEP, NAME=CYCLE_44, INC=2000, EXTRAPOLATION=NO
*STATIC
1., 41, 4.1e-06, 1.
*CONTROLS, PARAMETERS=TIME INCREMENTATION
8, 20, 9, 30, 10, 4, 12, 20
*CONTROLS, PARAMETERS=LINE SEARCH
5, , , , 
*BOUNDARY, OP=NEW
QPOINT, 1, 1
QPOINT, 6, 6
DISP, 2, 2
DISP, 6, 6
*BOUNDARY, OP=NEW, AMPLITUDE=STROKE
DISP, 1, 1, 0.025
*OUTPUT, FIELD, NUMBER INTERVAL=1
*NODE OUTPUT
U, RF
*ELEMENT OUTPUT, ELSET=GHOST
SDV
*NODE PRINT, NSET=QPOINT, FREQUENCY=41, SUMMARY=NO, TOTALS=NO
U1, U2, RF1, RF2
*END STEP
*STEP, NAME=CYCLE_45, INC=2000, EXTRAPOLATION=NO
*STATIC
1., 41, 4.1e-06, 1.
*CONTROLS, PARAMETERS=TIME INCREMENTATION
8, 20, 9, 30, 10, 4, 12, 20
*CONTROLS, PARAMETERS=LINE SEARCH
5, , , , 
*BOUNDARY, OP=NEW
QPOINT, 1, 1
QPOINT, 6, 6
DISP, 2, 2
DISP, 6, 6
*BOUNDARY, OP=NEW, AMPLITUDE=STROKE
DISP, 1, 1, 0.025
*OUTPUT, FIELD, NUMBER INTERVAL=1
*NODE OUTPUT
U, RF
*ELEMENT OUTPUT, ELSET=GHOST
SDV
*NODE PRINT, NSET=QPOINT, FREQUENCY=41, SUMMARY=NO, TOTALS=NO
U1, U2, RF1, RF2
*END STEP
*STEP, NAME=CYCLE_46, INC=2000, EXTRAPOLATION=NO
*STATIC
1., 41, 4.1e-06, 1.
*CONTROLS, PARAMETERS=TIME INCREMENTATION
8, 20, 9, 30, 10, 4, 12, 20
*CONTROLS, PARAMETERS=LINE SEARCH
5, , , , 
*BOUNDARY, OP=NEW
QPOINT, 1, 1
QPOINT, 6, 6
DISP, 2, 2
DISP, 6, 6
*BOUNDARY, OP=NEW, AMPLITUDE=STROKE
DISP, 1, 1, 0.025
*OUTPUT, FIELD, NUMBER INTERVAL=1
*NODE OUTPUT
U, RF
*ELEMENT OUTPUT, ELSET=GHOST
SDV
*NODE PRINT, NSET=QPOINT, FREQUENCY=41, SUMMARY=NO, TOTALS=NO
U1, U2, RF1, RF2
*END STEP
*STEP, NAME=CYCLE_47, INC=2000, EXTRAPOLATION=NO
*STATIC
1., 41, 4.1e-06, 1.
*CONTROLS, PARAMETERS=TIME INCREMENTATION
8, 20, 9, 30, 10, 4, 12, 20
*CONTROLS, PARAMETERS=LINE SEARCH
5, , , , 
*BOUNDARY, OP=NEW
QPOINT, 1, 1
QPOINT, 6, 6
DISP, 2, 2
DISP, 6, 6
*BOUNDARY, OP=NEW, AMPLITUDE=STROKE
DISP, 1, 1, 0.025
*OUTPUT, FIELD, NUMBER INTERVAL=1
*NODE OUTPUT
U, RF
*ELEMENT OUTPUT, ELSET=GHOST
SDV
*NODE PRINT, NSET=QPOINT, FREQUENCY=41, SUMMARY=NO, TOTALS=NO
U1, U2, RF1, RF2
*END STEP
*STEP, NAME=CYCLE_48, INC=2000, EXTRAPOLATION=NO
*STATIC
1., 41, 4.1e-06, 1.
*CONTROLS, PARAMETERS=TIME INCREMENTATION
8, 20, 9, 30, 10, 4, 12, 20
*CONTROLS, PARAMETERS=LINE SEARCH
5, , , , 
*BOUNDARY, OP=NEW
QPOINT, 1, 1
QPOINT, 6, 6
DISP, 2, 2
DISP, 6, 6
*BOUNDARY, OP=NEW, AMPLITUDE=STROKE
DISP, 1, 1, 0.025
*OUTPUT, FIELD, NUMBER INTERVAL=1
*NODE OUTPUT
U, RF
*ELEMENT OUTPUT, ELSET=GHOST
SDV
*NODE PRINT, NSET=QPOINT, FREQUENCY=41, SUMMARY=NO, TOTALS=NO
U1, U2, RF1, RF2
*END STEP
*STEP, NAME=CYCLE_49, INC=2000, EXTRAPOLATION=NO
*STATIC
1., 41, 4.1e-06, 1.
*CONTROLS, PARAMETERS=TIME INCREMENTATION
8, 20, 9, 30, 10, 4, 12, 20
*CONTROLS, PARAMETERS=LINE SEARCH
5, , , , 
*BOUNDARY, OP=NEW
QPOINT, 1, 1
QPOINT, 6, 6
DISP, 2, 2
DISP, 6, 6
*BOUNDARY, OP=NEW, AMPLITUDE=STROKE
DISP, 1, 1, 0.025
*OUTPUT, FIELD, NUMBER INTERVAL=1
*NODE OUTPUT
U, RF
*ELEMENT OUTPUT, ELSET=GHOST
SDV
*NODE PRINT, NSET=QPOINT, FREQUENCY=41, SUMMARY=NO, TOTALS=NO
U1, U2, RF1, RF2
*END STEP
*STEP, NAME=CYCLE_50, INC=2000, EXTRAPOLATION=NO
*STATIC
1., 41, 4.1e-06, 1.
*CONTROLS, PARAMETERS=TIME INCREMENTATION
8, 20, 9, 30, 10, 4, 12, 20
*CONTROLS, PARAMETERS=LINE SEARCH
5, , , , 
*BOUNDARY, OP=NEW
QPOINT, 1, 1
QPOINT, 6, 6
DISP, 2, 2
DISP, 6, 6
*BOUNDARY, OP=NEW, AMPLITUDE=STROKE
DISP, 1, 1, 0.025
*OUTPUT, FIELD, NUMBER INTERVAL=1
*NODE OUTPUT
U, RF
*ELEMENT OUTPUT, ELSET=GHOST
SDV
*NODE PRINT, NSET=QPOINT, FREQUENCY=41, SUMMARY=NO, TOTALS=NO
U1, U2, RF1, RF2
*END STEP
*STEP, NAME=CYCLE_51, INC=2000, EXTRAPOLATION=NO
*STATIC
1., 41, 4.1e-06, 1.
*CONTROLS, PARAMETERS=TIME INCREMENTATION
8, 20, 9, 30, 10, 4, 12, 20
*CONTROLS, PARAMETERS=LINE SEARCH
5, , , , 
*BOUNDARY, OP=NEW
QPOINT, 1, 1
QPOINT, 6, 6
DISP, 2, 2
DISP, 6, 6
*BOUNDARY, OP=NEW, AMPLITUDE=STROKE
DISP, 1, 1, 0.025
*OUTPUT, FIELD, NUMBER INTERVAL=1
*NODE OUTPUT
U, RF
*ELEMENT OUTPUT, ELSET=GHOST
SDV
*NODE PRINT, NSET=QPOINT, FREQUENCY=41, SUMMARY=NO, TOTALS=NO
U1, U2, RF1, RF2
*END STEP
*STEP, NAME=CYCLE_52, INC=2000, EXTRAPOLATION=NO
*STATIC
1., 41, 4.1e-06, 1.
*CONTROLS, PARAMETERS=TIME INCREMENTATION
8, 20, 9, 30, 10, 4, 12, 20
*CONTROLS, PARAMETERS=LINE SEARCH
5, , , , 
*BOUNDARY, OP=NEW
QPOINT, 1, 1
QPOINT, 6, 6
DISP, 2, 2
DISP, 6, 6
*BOUNDARY, OP=NEW, AMPLITUDE=STROKE
DISP, 1, 1, 0.025
*OUTPUT, FIELD, NUMBER INTERVAL=1
*NODE OUTPUT
U, RF
*ELEMENT OUTPUT, ELSET=GHOST
SDV
*NODE PRINT, NSET=QPOINT, FREQUENCY=41, SUMMARY=NO, TOTALS=NO
U1, U2, RF1, RF2
*END STEP
*STEP, NAME=CYCLE_53, INC=2000, EXTRAPOLATION=NO
*STATIC
1., 41, 4.1e-06, 1.
*CONTROLS, PARAMETERS=TIME INCREMENTATION
8, 20, 9, 30, 10, 4, 12, 20
*CONTROLS, PARAMETERS=LINE SEARCH
5, , , , 
*BOUNDARY, OP=NEW
QPOINT, 1, 1
QPOINT, 6, 6
DISP, 2, 2
DISP, 6, 6
*BOUNDARY, OP=NEW, AMPLITUDE=STROKE
DISP, 1, 1, 0.025
*OUTPUT, FIELD, NUMBER INTERVAL=1
*NODE OUTPUT
U, RF
*ELEMENT OUTPUT, ELSET=GHOST
SDV
*NODE PRINT, NSET=QPOINT, FREQUENCY=41, SUMMARY=NO, TOTALS=NO
U1, U2, RF1, RF2
*END STEP
*STEP, NAME=CYCLE_54, INC=2000, EXTRAPOLATION=NO
*STATIC
1., 41, 4.1e-06, 1.
*CONTROLS, PARAMETERS=TIME INCREMENTATION
8, 20, 9, 30, 10, 4, 12, 20
*CONTROLS, PARAMETERS=LINE SEARCH
5, , , , 
*BOUNDARY, OP=NEW
QPOINT, 1, 1
QPOINT, 6, 6
DISP, 2, 2
DISP, 6, 6
*BOUNDARY, OP=NEW, AMPLITUDE=STROKE
DISP, 1, 1, 0.025
*OUTPUT, FIELD, NUMBER INTERVAL=1
*NODE OUTPUT
U, RF
*ELEMENT OUTPUT, ELSET=GHOST
SDV
*NODE PRINT, NSET=QPOINT, FREQUENCY=41, SUMMARY=NO, TOTALS=NO
U1, U2, RF1, RF2
*END STEP
*STEP, NAME=CYCLE_55, INC=2000, EXTRAPOLATION=NO
*STATIC
1., 41, 4.1e-06, 1.
*CONTROLS, PARAMETERS=TIME INCREMENTATION
8, 20, 9, 30, 10, 4, 12, 20
*CONTROLS, PARAMETERS=LINE SEARCH
5, , , , 
*BOUNDARY, OP=NEW
QPOINT, 1, 1
QPOINT, 6, 6
DISP, 2, 2
DISP, 6, 6
*BOUNDARY, OP=NEW, AMPLITUDE=STROKE
DISP, 1, 1, 0.025
*OUTPUT, FIELD, NUMBER INTERVAL=1
*NODE OUTPUT
U, RF
*ELEMENT OUTPUT, ELSET=GHOST
SDV
*NODE PRINT, NSET=QPOINT, FREQUENCY=41, SUMMARY=NO, TOTALS=NO
U1, U2, RF1, RF2
*END STEP
*STEP, NAME=CYCLE_56, INC=2000, EXTRAPOLATION=NO
*STATIC
1., 41, 4.1e-06, 1.
*CONTROLS, PARAMETERS=TIME INCREMENTATION
8, 20, 9, 30, 10, 4, 12, 20
*CONTROLS, PARAMETERS=LINE SEARCH
5, , , , 
*BOUNDARY, OP=NEW
QPOINT, 1, 1
QPOINT, 6, 6
DISP, 2, 2
DISP, 6, 6
*BOUNDARY, OP=NEW, AMPLITUDE=STROKE
DISP, 1, 1, 0.025
*OUTPUT, FIELD, NUMBER INTERVAL=1
*NODE OUTPUT
U, RF
*ELEMENT OUTPUT, ELSET=GHOST
SDV
*NODE PRINT, NSET=QPOINT, FREQUENCY=41, SUMMARY=NO, TOTALS=NO
U1, U2, RF1, RF2
*END STEP
*STEP, NAME=CYCLE_57, INC=2000, EXTRAPOLATION=NO
*STATIC
1., 41, 4.1e-06, 1.
*CONTROLS, PARAMETERS=TIME INCREMENTATION
8, 20, 9, 30, 10, 4, 12, 20
*CONTROLS, PARAMETERS=LINE SEARCH
5, , , , 
*BOUNDARY, OP=NEW
QPOINT, 1, 1
QPOINT, 6, 6
DISP, 2, 2
DISP, 6, 6
*BOUNDARY, OP=NEW, AMPLITUDE=STROKE
DISP, 1, 1, 0.025
*OUTPUT, FIELD, NUMBER INTERVAL=1
*NODE OUTPUT
U, RF
*ELEMENT OUTPUT, ELSET=GHOST
SDV
*NODE PRINT, NSET=QPOINT, FREQUENCY=41, SUMMARY=NO, TOTALS=NO
U1, U2, RF1, RF2
*END STEP
*STEP, NAME=CYCLE_58, INC=2000, EXTRAPOLATION=NO
*STATIC
1., 41, 4.1e-06, 1.
*CONTROLS, PARAMETERS=TIME INCREMENTATION
8, 20, 9, 30, 10, 4, 12, 20
*CONTROLS, PARAMETERS=LINE SEARCH
5, , , , 
*BOUNDARY, OP=NEW
QPOINT, 1, 1
QPOINT, 6, 6
DISP, 2, 2
DISP, 6, 6
*BOUNDARY, OP=NEW, AMPLITUDE=STROKE
DISP, 1, 1, 0.025
*OUTPUT, FIELD, NUMBER INTERVAL=1
*NODE OUTPUT
U, RF
*ELEMENT OUTPUT, ELSET=GHOST
SDV
*NODE PRINT, NSET=QPOINT, FREQUENCY=41, SUMMARY=NO, TOTALS=NO
U1, U2, RF1, RF2
*END STEP
*STEP, NAME=CYCLE_59, INC=2000, EXTRAPOLATION=NO
*STATIC
1., 41, 4.1e-06, 1.
*CONTROLS, PARAMETERS=TIME INCREMENTATION
8, 20, 9, 30, 10, 4, 12, 20
*CONTROLS, PARAMETERS=LINE SEARCH
5, , , , 
*BOUNDARY, OP=NEW
QPOINT, 1, 1
QPOINT, 6, 6
DISP, 2, 2
DISP, 6, 6
*BOUNDARY, OP=NEW, AMPLITUDE=STROKE
DISP, 1, 1, 0.025
*OUTPUT, FIELD, NUMBER INTERVAL=1
*NODE OUTPUT
U, RF
*ELEMENT OUTPUT, ELSET=GHOST
SDV
*NODE PRINT, NSET=QPOINT, FREQUENCY=41, SUMMARY=NO, TOTALS=NO
U1, U2, RF1, RF2
*END STEP
*STEP, NAME=CYCLE_60, INC=2000, EXTRAPOLATION=NO
*STATIC
1., 41, 4.1e-06, 1.
*CONTROLS, PARAMETERS=TIME INCREMENTATION
8, 20, 9, 30, 10, 4, 12, 20
*CONTROLS, PARAMETERS=LINE SEARCH
5, , , , 
*BOUNDARY, OP=NEW
QPOINT, 1, 1
QPOINT, 6, 6
DISP, 2, 2
DISP, 6, 6
*BOUNDARY, OP=NEW, AMPLITUDE=STROKE
DISP, 1, 1, 0.025
*OUTPUT, FIELD, NUMBER INTERVAL=1
*NODE OUTPUT
U, RF
*ELEMENT OUTPUT, ELSET=GHOST
SDV
*NODE PRINT, NSET=QPOINT, FREQUENCY=41, SUMMARY=NO, TOTALS=NO
U1, U2, RF1, RF2
*END STEP
*STEP, NAME=CYCLE_61, INC=2000, EXTRAPOLATION=NO
*STATIC
1., 41, 4.1e-06, 1.
*CONTROLS, PARAMETERS=TIME INCREMENTATION
8, 20, 9, 30, 10, 4, 12, 20
*CONTROLS, PARAMETERS=LINE SEARCH
5, , , , 
*BOUNDARY, OP=NEW
QPOINT, 1, 1
QPOINT, 6, 6
DISP, 2, 2
DISP, 6, 6
*BOUNDARY, OP=NEW, AMPLITUDE=STROKE
DISP, 1, 1, 0.025
*OUTPUT, FIELD, NUMBER INTERVAL=1
*NODE OUTPUT
U, RF
*ELEMENT OUTPUT, ELSET=GHOST
SDV
*NODE PRINT, NSET=QPOINT, FREQUENCY=41, SUMMARY=NO, TOTALS=NO
U1, U2, RF1, RF2
*END STEP
*STEP, NAME=CYCLE_62, INC=2000, EXTRAPOLATION=NO
*STATIC
1., 41, 4.1e-06, 1.
*CONTROLS, PARAMETERS=TIME INCREMENTATION
8, 20, 9, 30, 10, 4, 12, 20
*CONTROLS, PARAMETERS=LINE SEARCH
5, , , , 
*BOUNDARY, OP=NEW
QPOINT, 1, 1
QPOINT, 6, 6
DISP, 2, 2
DISP, 6, 6
*BOUNDARY, OP=NEW, AMPLITUDE=STROKE
DISP, 1, 1, 0.025
*OUTPUT, FIELD, NUMBER INTERVAL=1
*NODE OUTPUT
U, RF
*ELEMENT OUTPUT, ELSET=GHOST
SDV
*NODE PRINT, NSET=QPOINT, FREQUENCY=41, SUMMARY=NO, TOTALS=NO
U1, U2, RF1, RF2
*END STEP
*STEP, NAME=CYCLE_63, INC=2000, EXTRAPOLATION=NO
*STATIC
1., 41, 4.1e-06, 1.
*CONTROLS, PARAMETERS=TIME INCREMENTATION
8, 20, 9, 30, 10, 4, 12, 20
*CONTROLS, PARAMETERS=LINE SEARCH
5, , , , 
*BOUNDARY, OP=NEW
QPOINT, 1, 1
QPOINT, 6, 6
DISP, 2, 2
DISP, 6, 6
*BOUNDARY, OP=NEW, AMPLITUDE=STROKE
DISP, 1, 1, 0.025
*OUTPUT, FIELD, NUMBER INTERVAL=1
*NODE OUTPUT
U, RF
*ELEMENT OUTPUT, ELSET=GHOST
SDV
*NODE PRINT, NSET=QPOINT, FREQUENCY=41, SUMMARY=NO, TOTALS=NO
U1, U2, RF1, RF2
*END STEP
*STEP, NAME=CYCLE_64, INC=2000, EXTRAPOLATION=NO
*STATIC
1., 41, 4.1e-06, 1.
*CONTROLS, PARAMETERS=TIME INCREMENTATION
8, 20, 9, 30, 10, 4, 12, 20
*CONTROLS, PARAMETERS=LINE SEARCH
5, , , , 
*BOUNDARY, OP=NEW
QPOINT, 1, 1
QPOINT, 6, 6
DISP, 2, 2
DISP, 6, 6
*BOUNDARY, OP=NEW, AMPLITUDE=STROKE
DISP, 1, 1, 0.025
*OUTPUT, FIELD, NUMBER INTERVAL=1
*NODE OUTPUT
U, RF
*ELEMENT OUTPUT, ELSET=GHOST
SDV
*NODE PRINT, NSET=QPOINT, FREQUENCY=41, SUMMARY=NO, TOTALS=NO
U1, U2, RF1, RF2
*END STEP
*STEP, NAME=CYCLE_65, INC=2000, EXTRAPOLATION=NO
*STATIC
1., 41, 4.1e-06, 1.
*CONTROLS, PARAMETERS=TIME INCREMENTATION
8, 20, 9, 30, 10, 4, 12, 20
*CONTROLS, PARAMETERS=LINE SEARCH
5, , , , 
*BOUNDARY, OP=NEW
QPOINT, 1, 1
QPOINT, 6, 6
DISP, 2, 2
DISP, 6, 6
*BOUNDARY, OP=NEW, AMPLITUDE=STROKE
DISP, 1, 1, 0.025
*OUTPUT, FIELD, NUMBER INTERVAL=1
*NODE OUTPUT
U, RF
*ELEMENT OUTPUT, ELSET=GHOST
SDV
*NODE PRINT, NSET=QPOINT, FREQUENCY=41, SUMMARY=NO, TOTALS=NO
U1, U2, RF1, RF2
*END STEP
*STEP, NAME=CYCLE_66, INC=2000, EXTRAPOLATION=NO
*STATIC
1., 41, 4.1e-06, 1.
*CONTROLS, PARAMETERS=TIME INCREMENTATION
8, 20, 9, 30, 10, 4, 12, 20
*CONTROLS, PARAMETERS=LINE SEARCH
5, , , , 
*BOUNDARY, OP=NEW
QPOINT, 1, 1
QPOINT, 6, 6
DISP, 2, 2
DISP, 6, 6
*BOUNDARY, OP=NEW, AMPLITUDE=STROKE
DISP, 1, 1, 0.025
*OUTPUT, FIELD, NUMBER INTERVAL=1
*NODE OUTPUT
U, RF
*ELEMENT OUTPUT, ELSET=GHOST
SDV
*NODE PRINT, NSET=QPOINT, FREQUENCY=41, SUMMARY=NO, TOTALS=NO
U1, U2, RF1, RF2
*END STEP
*STEP, NAME=CYCLE_67, INC=2000, EXTRAPOLATION=NO
*STATIC
1., 41, 4.1e-06, 1.
*CONTROLS, PARAMETERS=TIME INCREMENTATION
8, 20, 9, 30, 10, 4, 12, 20
*CONTROLS, PARAMETERS=LINE SEARCH
5, , , , 
*BOUNDARY, OP=NEW
QPOINT, 1, 1
QPOINT, 6, 6
DISP, 2, 2
DISP, 6, 6
*BOUNDARY, OP=NEW, AMPLITUDE=STROKE
DISP, 1, 1, 0.025
*OUTPUT, FIELD, NUMBER INTERVAL=1
*NODE OUTPUT
U, RF
*ELEMENT OUTPUT, ELSET=GHOST
SDV
*NODE PRINT, NSET=QPOINT, FREQUENCY=41, SUMMARY=NO, TOTALS=NO
U1, U2, RF1, RF2
*END STEP
*STEP, NAME=CYCLE_68, INC=2000, EXTRAPOLATION=NO
*STATIC
1., 41, 4.1e-06, 1.
*CONTROLS, PARAMETERS=TIME INCREMENTATION
8, 20, 9, 30, 10, 4, 12, 20
*CONTROLS, PARAMETERS=LINE SEARCH
5, , , , 
*BOUNDARY, OP=NEW
QPOINT, 1, 1
QPOINT, 6, 6
DISP, 2, 2
DISP, 6, 6
*BOUNDARY, OP=NEW, AMPLITUDE=STROKE
DISP, 1, 1, 0.025
*OUTPUT, FIELD, NUMBER INTERVAL=1
*NODE OUTPUT
U, RF
*ELEMENT OUTPUT, ELSET=GHOST
SDV
*NODE PRINT, NSET=QPOINT, FREQUENCY=41, SUMMARY=NO, TOTALS=NO
U1, U2, RF1, RF2
*END STEP
*STEP, NAME=CYCLE_69, INC=2000, EXTRAPOLATION=NO
*STATIC
1., 41, 4.1e-06, 1.
*CONTROLS, PARAMETERS=TIME INCREMENTATION
8, 20, 9, 30, 10, 4, 12, 20
*CONTROLS, PARAMETERS=LINE SEARCH
5, , , , 
*BOUNDARY, OP=NEW
QPOINT, 1, 1
QPOINT, 6, 6
DISP, 2, 2
DISP, 6, 6
*BOUNDARY, OP=NEW, AMPLITUDE=STROKE
DISP, 1, 1, 0.025
*OUTPUT, FIELD, NUMBER INTERVAL=1
*NODE OUTPUT
U, RF
*ELEMENT OUTPUT, ELSET=GHOST
SDV
*NODE PRINT, NSET=QPOINT, FREQUENCY=41, SUMMARY=NO, TOTALS=NO
U1, U2, RF1, RF2
*END STEP
*STEP, NAME=CYCLE_70, INC=2000, EXTRAPOLATION=NO
*STATIC
1., 41, 4.1e-06, 1.
*CONTROLS, PARAMETERS=TIME INCREMENTATION
8, 20, 9, 30, 10, 4, 12, 20
*CONTROLS, PARAMETERS=LINE SEARCH
5, , , , 
*BOUNDARY, OP=NEW
QPOINT, 1, 1
QPOINT, 6, 6
DISP, 2, 2
DISP, 6, 6
*BOUNDARY, OP=NEW, AMPLITUDE=STROKE
DISP, 1, 1, 0.025
*OUTPUT, FIELD, NUMBER INTERVAL=1
*NODE OUTPUT
U, RF
*ELEMENT OUTPUT, ELSET=GHOST
SDV
*NODE PRINT, NSET=QPOINT, FREQUENCY=41, SUMMARY=NO, TOTALS=NO
U1, U2, RF1, RF2
*END STEP
*STEP, NAME=CYCLE_71, INC=2000, EXTRAPOLATION=NO
*STATIC
1., 41, 4.1e-06, 1.
*CONTROLS, PARAMETERS=TIME INCREMENTATION
8, 20, 9, 30, 10, 4, 12, 20
*CONTROLS, PARAMETERS=LINE SEARCH
5, , , , 
*BOUNDARY, OP=NEW
QPOINT, 1, 1
QPOINT, 6, 6
DISP, 2, 2
DISP, 6, 6
*BOUNDARY, OP=NEW, AMPLITUDE=STROKE
DISP, 1, 1, 0.025
*OUTPUT, FIELD, NUMBER INTERVAL=1
*NODE OUTPUT
U, RF
*ELEMENT OUTPUT, ELSET=GHOST
SDV
*NODE PRINT, NSET=QPOINT, FREQUENCY=41, SUMMARY=NO, TOTALS=NO
U1, U2, RF1, RF2
*END STEP
*STEP, NAME=CYCLE_72, INC=2000, EXTRAPOLATION=NO
*STATIC
1., 41, 4.1e-06, 1.
*CONTROLS, PARAMETERS=TIME INCREMENTATION
8, 20, 9, 30, 10, 4, 12, 20
*CONTROLS, PARAMETERS=LINE SEARCH
5, , , , 
*BOUNDARY, OP=NEW
QPOINT, 1, 1
QPOINT, 6, 6
DISP, 2, 2
DISP, 6, 6
*BOUNDARY, OP=NEW, AMPLITUDE=STROKE
DISP, 1, 1, 0.025
*OUTPUT, FIELD, NUMBER INTERVAL=1
*NODE OUTPUT
U, RF
*ELEMENT OUTPUT, ELSET=GHOST
SDV
*NODE PRINT, NSET=QPOINT, FREQUENCY=41, SUMMARY=NO, TOTALS=NO
U1, U2, RF1, RF2
*END STEP
*STEP, NAME=CYCLE_73, INC=2000, EXTRAPOLATION=NO
*STATIC
1., 41, 4.1e-06, 1.
*CONTROLS, PARAMETERS=TIME INCREMENTATION
8, 20, 9, 30, 10, 4, 12, 20
*CONTROLS, PARAMETERS=LINE SEARCH
5, , , , 
*BOUNDARY, OP=NEW
QPOINT, 1, 1
QPOINT, 6, 6
DISP, 2, 2
DISP, 6, 6
*BOUNDARY, OP=NEW, AMPLITUDE=STROKE
DISP, 1, 1, 0.025
*OUTPUT, FIELD, NUMBER INTERVAL=1
*NODE OUTPUT
U, RF
*ELEMENT OUTPUT, ELSET=GHOST
SDV
*NODE PRINT, NSET=QPOINT, FREQUENCY=41, SUMMARY=NO, TOTALS=NO
U1, U2, RF1, RF2
*END STEP
*STEP, NAME=CYCLE_74, INC=2000, EXTRAPOLATION=NO
*STATIC
1., 41, 4.1e-06, 1.
*CONTROLS, PARAMETERS=TIME INCREMENTATION
8, 20, 9, 30, 10, 4, 12, 20
*CONTROLS, PARAMETERS=LINE SEARCH
5, , , , 
*BOUNDARY, OP=NEW
QPOINT, 1, 1
QPOINT, 6, 6
DISP, 2, 2
DISP, 6, 6
*BOUNDARY, OP=NEW, AMPLITUDE=STROKE
DISP, 1, 1, 0.025
*OUTPUT, FIELD, NUMBER INTERVAL=1
*NODE OUTPUT
U, RF
*ELEMENT OUTPUT, ELSET=GHOST
SDV
*NODE PRINT, NSET=QPOINT, FREQUENCY=41, SUMMARY=NO, TOTALS=NO
U1, U2, RF1, RF2
*END STEP
*STEP, NAME=CYCLE_75, INC=2000, EXTRAPOLATION=NO
*STATIC
1., 41, 4.1e-06, 1.
*CONTROLS, PARAMETERS=TIME INCREMENTATION
8, 20, 9, 30, 10, 4, 12, 20
*CONTROLS, PARAMETERS=LINE SEARCH
5, , , , 
*BOUNDARY, OP=NEW
QPOINT, 1, 1
QPOINT, 6, 6
DISP, 2, 2
DISP, 6, 6
*BOUNDARY, OP=NEW, AMPLITUDE=STROKE
DISP, 1, 1, 0.025
*OUTPUT, FIELD, NUMBER INTERVAL=1
*NODE OUTPUT
U, RF
*ELEMENT OUTPUT, ELSET=GHOST
SDV
*NODE PRINT, NSET=QPOINT, FREQUENCY=41, SUMMARY=NO, TOTALS=NO
U1, U2, RF1, RF2
*END STEP
*STEP, NAME=CYCLE_76, INC=2000, EXTRAPOLATION=NO
*STATIC
1., 41, 4.1e-06, 1.
*CONTROLS, PARAMETERS=TIME INCREMENTATION
8, 20, 9, 30, 10, 4, 12, 20
*CONTROLS, PARAMETERS=LINE SEARCH
5, , , , 
*BOUNDARY, OP=NEW
QPOINT, 1, 1
QPOINT, 6, 6
DISP, 2, 2
DISP, 6, 6
*BOUNDARY, OP=NEW, AMPLITUDE=STROKE
DISP, 1, 1, 0.025
*OUTPUT, FIELD, NUMBER INTERVAL=1
*NODE OUTPUT
U, RF
*ELEMENT OUTPUT, ELSET=GHOST
SDV
*NODE PRINT, NSET=QPOINT, FREQUENCY=41, SUMMARY=NO, TOTALS=NO
U1, U2, RF1, RF2
*END STEP
*STEP, NAME=CYCLE_77, INC=2000, EXTRAPOLATION=NO
*STATIC
1., 41, 4.1e-06, 1.
*CONTROLS, PARAMETERS=TIME INCREMENTATION
8, 20, 9, 30, 10, 4, 12, 20
*CONTROLS, PARAMETERS=LINE SEARCH
5, , , , 
*BOUNDARY, OP=NEW
QPOINT, 1, 1
QPOINT, 6, 6
DISP, 2, 2
DISP, 6, 6
*BOUNDARY, OP=NEW, AMPLITUDE=STROKE
DISP, 1, 1, 0.025
*OUTPUT, FIELD, NUMBER INTERVAL=1
*NODE OUTPUT
U, RF
*ELEMENT OUTPUT, ELSET=GHOST
SDV
*NODE PRINT, NSET=QPOINT, FREQUENCY=41, SUMMARY=NO, TOTALS=NO
U1, U2, RF1, RF2
*END STEP
*STEP, NAME=CYCLE_78, INC=2000, EXTRAPOLATION=NO
*STATIC
1., 41, 4.1e-06, 1.
*CONTROLS, PARAMETERS=TIME INCREMENTATION
8, 20, 9, 30, 10, 4, 12, 20
*CONTROLS, PARAMETERS=LINE SEARCH
5, , , , 
*BOUNDARY, OP=NEW
QPOINT, 1, 1
QPOINT, 6, 6
DISP, 2, 2
DISP, 6, 6
*BOUNDARY, OP=NEW, AMPLITUDE=STROKE
DISP, 1, 1, 0.025
*OUTPUT, FIELD, NUMBER INTERVAL=1
*NODE OUTPUT
U, RF
*ELEMENT OUTPUT, ELSET=GHOST
SDV
*NODE PRINT, NSET=QPOINT, FREQUENCY=41, SUMMARY=NO, TOTALS=NO
U1, U2, RF1, RF2
*END STEP
*STEP, NAME=CYCLE_79, INC=2000, EXTRAPOLATION=NO
*STATIC
1., 41, 4.1e-06, 1.
*CONTROLS, PARAMETERS=TIME INCREMENTATION
8, 20, 9, 30, 10, 4, 12, 20
*CONTROLS, PARAMETERS=LINE SEARCH
5, , , , 
*BOUNDARY, OP=NEW
QPOINT, 1, 1
QPOINT, 6, 6
DISP, 2, 2
DISP, 6, 6
*BOUNDARY, OP=NEW, AMPLITUDE=STROKE
DISP, 1, 1, 0.025
*OUTPUT, FIELD, NUMBER INTERVAL=1
*NODE OUTPUT
U, RF
*ELEMENT OUTPUT, ELSET=GHOST
SDV
*NODE PRINT, NSET=QPOINT, FREQUENCY=41, SUMMARY=NO, TOTALS=NO
U1, U2, RF1, RF2
*END STEP
*STEP, NAME=CYCLE_80, INC=2000, EXTRAPOLATION=NO
*STATIC
1., 41, 4.1e-06, 1.
*CONTROLS, PARAMETERS=TIME INCREMENTATION
8, 20, 9, 30, 10, 4, 12, 20
*CONTROLS, PARAMETERS=LINE SEARCH
5, , , , 
*BOUNDARY, OP=NEW
QPOINT, 1, 1
QPOINT, 6, 6
DISP, 2, 2
DISP, 6, 6
*BOUNDARY, OP=NEW, AMPLITUDE=STROKE
DISP, 1, 1, 0.025
*OUTPUT, FIELD, NUMBER INTERVAL=1
*NODE OUTPUT
U, RF
*ELEMENT OUTPUT, ELSET=GHOST
SDV
*NODE PRINT, NSET=QPOINT, FREQUENCY=41, SUMMARY=NO, TOTALS=NO
U1, U2, RF1, RF2
*END STEP
*STEP, NAME=CYCLE_81, INC=2000, EXTRAPOLATION=NO
*STATIC
1., 41, 4.1e-06, 1.
*CONTROLS, PARAMETERS=TIME INCREMENTATION
8, 20, 9, 30, 10, 4, 12, 20
*CONTROLS, PARAMETERS=LINE SEARCH
5, , , , 
*BOUNDARY, OP=NEW
QPOINT, 1, 1
QPOINT, 6, 6
DISP, 2, 2
DISP, 6, 6
*BOUNDARY, OP=NEW, AMPLITUDE=STROKE
DISP, 1, 1, 0.025
*OUTPUT, FIELD, NUMBER INTERVAL=1
*NODE OUTPUT
U, RF
*ELEMENT OUTPUT, ELSET=GHOST
SDV
*NODE PRINT, NSET=QPOINT, FREQUENCY=41, SUMMARY=NO, TOTALS=NO
U1, U2, RF1, RF2
*END STEP
*STEP, NAME=CYCLE_82, INC=2000, EXTRAPOLATION=NO
*STATIC
1., 41, 4.1e-06, 1.
*CONTROLS, PARAMETERS=TIME INCREMENTATION
8, 20, 9, 30, 10, 4, 12, 20
*CONTROLS, PARAMETERS=LINE SEARCH
5, , , , 
*BOUNDARY, OP=NEW
QPOINT, 1, 1
QPOINT, 6, 6
DISP, 2, 2
DISP, 6, 6
*BOUNDARY, OP=NEW, AMPLITUDE=STROKE
DISP, 1, 1, 0.025
*OUTPUT, FIELD, NUMBER INTERVAL=1
*NODE OUTPUT
U, RF
*ELEMENT OUTPUT, ELSET=GHOST
SDV
*NODE PRINT, NSET=QPOINT, FREQUENCY=41, SUMMARY=NO, TOTALS=NO
U1, U2, RF1, RF2
*END STEP
*STEP, NAME=CYCLE_83, INC=2000, EXTRAPOLATION=NO
*STATIC
1., 41, 4.1e-06, 1.
*CONTROLS, PARAMETERS=TIME INCREMENTATION
8, 20, 9, 30, 10, 4, 12, 20
*CONTROLS, PARAMETERS=LINE SEARCH
5, , , , 
*BOUNDARY, OP=NEW
QPOINT, 1, 1
QPOINT, 6, 6
DISP, 2, 2
DISP, 6, 6
*BOUNDARY, OP=NEW, AMPLITUDE=STROKE
DISP, 1, 1, 0.025
*OUTPUT, FIELD, NUMBER INTERVAL=1
*NODE OUTPUT
U, RF
*ELEMENT OUTPUT, ELSET=GHOST
SDV
*NODE PRINT, NSET=QPOINT, FREQUENCY=41, SUMMARY=NO, TOTALS=NO
U1, U2, RF1, RF2
*END STEP
*STEP, NAME=CYCLE_84, INC=2000, EXTRAPOLATION=NO
*STATIC
1., 41, 4.1e-06, 1.
*CONTROLS, PARAMETERS=TIME INCREMENTATION
8, 20, 9, 30, 10, 4, 12, 20
*CONTROLS, PARAMETERS=LINE SEARCH
5, , , , 
*BOUNDARY, OP=NEW
QPOINT, 1, 1
QPOINT, 6, 6
DISP, 2, 2
DISP, 6, 6
*BOUNDARY, OP=NEW, AMPLITUDE=STROKE
DISP, 1, 1, 0.025
*OUTPUT, FIELD, NUMBER INTERVAL=1
*NODE OUTPUT
U, RF
*ELEMENT OUTPUT, ELSET=GHOST
SDV
*NODE PRINT, NSET=QPOINT, FREQUENCY=41, SUMMARY=NO, TOTALS=NO
U1, U2, RF1, RF2
*END STEP
*STEP, NAME=CYCLE_85, INC=2000, EXTRAPOLATION=NO
*STATIC
1., 41, 4.1e-06, 1.
*CONTROLS, PARAMETERS=TIME INCREMENTATION
8, 20, 9, 30, 10, 4, 12, 20
*CONTROLS, PARAMETERS=LINE SEARCH
5, , , , 
*BOUNDARY, OP=NEW
QPOINT, 1, 1
QPOINT, 6, 6
DISP, 2, 2
DISP, 6, 6
*BOUNDARY, OP=NEW, AMPLITUDE=STROKE
DISP, 1, 1, 0.025
*OUTPUT, FIELD, NUMBER INTERVAL=1
*NODE OUTPUT
U, RF
*ELEMENT OUTPUT, ELSET=GHOST
SDV
*NODE PRINT, NSET=QPOINT, FREQUENCY=41, SUMMARY=NO, TOTALS=NO
U1, U2, RF1, RF2
*END STEP
*STEP, NAME=CYCLE_86, INC=2000, EXTRAPOLATION=NO
*STATIC
1., 41, 4.1e-06, 1.
*CONTROLS, PARAMETERS=TIME INCREMENTATION
8, 20, 9, 30, 10, 4, 12, 20
*CONTROLS, PARAMETERS=LINE SEARCH
5, , , , 
*BOUNDARY, OP=NEW
QPOINT, 1, 1
QPOINT, 6, 6
DISP, 2, 2
DISP, 6, 6
*BOUNDARY, OP=NEW, AMPLITUDE=STROKE
DISP, 1, 1, 0.025
*OUTPUT, FIELD, NUMBER INTERVAL=1
*NODE OUTPUT
U, RF
*ELEMENT OUTPUT, ELSET=GHOST
SDV
*NODE PRINT, NSET=QPOINT, FREQUENCY=41, SUMMARY=NO, TOTALS=NO
U1, U2, RF1, RF2
*END STEP
*STEP, NAME=CYCLE_87, INC=2000, EXTRAPOLATION=NO
*STATIC
1., 41, 4.1e-06, 1.
*CONTROLS, PARAMETERS=TIME INCREMENTATION
8, 20, 9, 30, 10, 4, 12, 20
*CONTROLS, PARAMETERS=LINE SEARCH
5, , , , 
*BOUNDARY, OP=NEW
QPOINT, 1, 1
QPOINT, 6, 6
DISP, 2, 2
DISP, 6, 6
*BOUNDARY, OP=NEW, AMPLITUDE=STROKE
DISP, 1, 1, 0.025
*OUTPUT, FIELD, NUMBER INTERVAL=1
*NODE OUTPUT
U, RF
*ELEMENT OUTPUT, ELSET=GHOST
SDV
*NODE PRINT, NSET=QPOINT, FREQUENCY=41, SUMMARY=NO, TOTALS=NO
U1, U2, RF1, RF2
*END STEP
*STEP, NAME=CYCLE_88, INC=2000, EXTRAPOLATION=NO
*STATIC
1., 41, 4.1e-06, 1.
*CONTROLS, PARAMETERS=TIME INCREMENTATION
8, 20, 9, 30, 10, 4, 12, 20
*CONTROLS, PARAMETERS=LINE SEARCH
5, , , , 
*BOUNDARY, OP=NEW
QPOINT, 1, 1
QPOINT, 6, 6
DISP, 2, 2
DISP, 6, 6
*BOUNDARY, OP=NEW, AMPLITUDE=STROKE
DISP, 1, 1, 0.025
*OUTPUT, FIELD, NUMBER INTERVAL=1
*NODE OUTPUT
U, RF
*ELEMENT OUTPUT, ELSET=GHOST
SDV
*NODE PRINT, NSET=QPOINT, FREQUENCY=41, SUMMARY=NO, TOTALS=NO
U1, U2, RF1, RF2
*END STEP
*STEP, NAME=CYCLE_89, INC=2000, EXTRAPOLATION=NO
*STATIC
1., 41, 4.1e-06, 1.
*CONTROLS, PARAMETERS=TIME INCREMENTATION
8, 20, 9, 30, 10, 4, 12, 20
*CONTROLS, PARAMETERS=LINE SEARCH
5, , , , 
*BOUNDARY, OP=NEW
QPOINT, 1, 1
QPOINT, 6, 6
DISP, 2, 2
DISP, 6, 6
*BOUNDARY, OP=NEW, AMPLITUDE=STROKE
DISP, 1, 1, 0.025
*OUTPUT, FIELD, NUMBER INTERVAL=1
*NODE OUTPUT
U, RF
*ELEMENT OUTPUT, ELSET=GHOST
SDV
*NODE PRINT, NSET=QPOINT, FREQUENCY=41, SUMMARY=NO, TOTALS=NO
U1, U2, RF1, RF2
*END STEP
*STEP, NAME=CYCLE_90, INC=2000, EXTRAPOLATION=NO
*STATIC
1., 41, 4.1e-06, 1.
*CONTROLS, PARAMETERS=TIME INCREMENTATION
8, 20, 9, 30, 10, 4, 12, 20
*CONTROLS, PARAMETERS=LINE SEARCH
5, , , , 
*BOUNDARY, OP=NEW
QPOINT, 1, 1
QPOINT, 6, 6
DISP, 2, 2
DISP, 6, 6
*BOUNDARY, OP=NEW, AMPLITUDE=STROKE
DISP, 1, 1, 0.025
*OUTPUT, FIELD, NUMBER INTERVAL=1
*NODE OUTPUT
U, RF
*ELEMENT OUTPUT, ELSET=GHOST
SDV
*NODE PRINT, NSET=QPOINT, FREQUENCY=41, SUMMARY=NO, TOTALS=NO
U1, U2, RF1, RF2
*END STEP
*STEP, NAME=CYCLE_91, INC=2000, EXTRAPOLATION=NO
*STATIC
1., 41, 4.1e-06, 1.
*CONTROLS, PARAMETERS=TIME INCREMENTATION
8, 20, 9, 30, 10, 4, 12, 20
*CONTROLS, PARAMETERS=LINE SEARCH
5, , , , 
*BOUNDARY, OP=NEW
QPOINT, 1, 1
QPOINT, 6, 6
DISP, 2, 2
DISP, 6, 6
*BOUNDARY, OP=NEW, AMPLITUDE=STROKE
DISP, 1, 1, 0.025
*OUTPUT, FIELD, NUMBER INTERVAL=1
*NODE OUTPUT
U, RF
*ELEMENT OUTPUT, ELSET=GHOST
SDV
*NODE PRINT, NSET=QPOINT, FREQUENCY=41, SUMMARY=NO, TOTALS=NO
U1, U2, RF1, RF2
*END STEP
*STEP, NAME=CYCLE_92, INC=2000, EXTRAPOLATION=NO
*STATIC
1., 41, 4.1e-06, 1.
*CONTROLS, PARAMETERS=TIME INCREMENTATION
8, 20, 9, 30, 10, 4, 12, 20
*CONTROLS, PARAMETERS=LINE SEARCH
5, , , , 
*BOUNDARY, OP=NEW
QPOINT, 1, 1
QPOINT, 6, 6
DISP, 2, 2
DISP, 6, 6
*BOUNDARY, OP=NEW, AMPLITUDE=STROKE
DISP, 1, 1, 0.025
*OUTPUT, FIELD, NUMBER INTERVAL=1
*NODE OUTPUT
U, RF
*ELEMENT OUTPUT, ELSET=GHOST
SDV
*NODE PRINT, NSET=QPOINT, FREQUENCY=41, SUMMARY=NO, TOTALS=NO
U1, U2, RF1, RF2
*END STEP
*STEP, NAME=CYCLE_93, INC=2000, EXTRAPOLATION=NO
*STATIC
1., 41, 4.1e-06, 1.
*CONTROLS, PARAMETERS=TIME INCREMENTATION
8, 20, 9, 30, 10, 4, 12, 20
*CONTROLS, PARAMETERS=LINE SEARCH
5, , , , 
*BOUNDARY, OP=NEW
QPOINT, 1, 1
QPOINT, 6, 6
DISP, 2, 2
DISP, 6, 6
*BOUNDARY, OP=NEW, AMPLITUDE=STROKE
DISP, 1, 1, 0.025
*OUTPUT, FIELD, NUMBER INTERVAL=1
*NODE OUTPUT
U, RF
*ELEMENT OUTPUT, ELSET=GHOST
SDV
*NODE PRINT, NSET=QPOINT, FREQUENCY=41, SUMMARY=NO, TOTALS=NO
U1, U2, RF1, RF2
*END STEP
*STEP, NAME=CYCLE_94, INC=2000, EXTRAPOLATION=NO
*STATIC
1., 41, 4.1e-06, 1.
*CONTROLS, PARAMETERS=TIME INCREMENTATION
8, 20, 9, 30, 10, 4, 12, 20
*CONTROLS, PARAMETERS=LINE SEARCH
5, , , , 
*BOUNDARY, OP=NEW
QPOINT, 1, 1
QPOINT, 6, 6
DISP, 2, 2
DISP, 6, 6
*BOUNDARY, OP=NEW, AMPLITUDE=STROKE
DISP, 1, 1, 0.025
*OUTPUT, FIELD, NUMBER INTERVAL=1
*NODE OUTPUT
U, RF
*ELEMENT OUTPUT, ELSET=GHOST
SDV
*NODE PRINT, NSET=QPOINT, FREQUENCY=41, SUMMARY=NO, TOTALS=NO
U1, U2, RF1, RF2
*END STEP
*STEP, NAME=CYCLE_95, INC=2000, EXTRAPOLATION=NO
*STATIC
1., 41, 4.1e-06, 1.
*CONTROLS, PARAMETERS=TIME INCREMENTATION
8, 20, 9, 30, 10, 4, 12, 20
*CONTROLS, PARAMETERS=LINE SEARCH
5, , , , 
*BOUNDARY, OP=NEW
QPOINT, 1, 1
QPOINT, 6, 6
DISP, 2, 2
DISP, 6, 6
*BOUNDARY, OP=NEW, AMPLITUDE=STROKE
DISP, 1, 1, 0.025
*OUTPUT, FIELD, NUMBER INTERVAL=1
*NODE OUTPUT
U, RF
*ELEMENT OUTPUT, ELSET=GHOST
SDV
*NODE PRINT, NSET=QPOINT, FREQUENCY=41, SUMMARY=NO, TOTALS=NO
U1, U2, RF1, RF2
*END STEP
*STEP, NAME=CYCLE_96, INC=2000, EXTRAPOLATION=NO
*STATIC
1., 41, 4.1e-06, 1.
*CONTROLS, PARAMETERS=TIME INCREMENTATION
8, 20, 9, 30, 10, 4, 12, 20
*CONTROLS, PARAMETERS=LINE SEARCH
5, , , , 
*BOUNDARY, OP=NEW
QPOINT, 1, 1
QPOINT, 6, 6
DISP, 2, 2
DISP, 6, 6
*BOUNDARY, OP=NEW, AMPLITUDE=STROKE
DISP, 1, 1, 0.025
*OUTPUT, FIELD, NUMBER INTERVAL=1
*NODE OUTPUT
U, RF
*ELEMENT OUTPUT, ELSET=GHOST
SDV
*NODE PRINT, NSET=QPOINT, FREQUENCY=41, SUMMARY=NO, TOTALS=NO
U1, U2, RF1, RF2
*END STEP
*STEP, NAME=CYCLE_97, INC=2000, EXTRAPOLATION=NO
*STATIC
1., 41, 4.1e-06, 1.
*CONTROLS, PARAMETERS=TIME INCREMENTATION
8, 20, 9, 30, 10, 4, 12, 20
*CONTROLS, PARAMETERS=LINE SEARCH
5, , , , 
*BOUNDARY, OP=NEW
QPOINT, 1, 1
QPOINT, 6, 6
DISP, 2, 2
DISP, 6, 6
*BOUNDARY, OP=NEW, AMPLITUDE=STROKE
DISP, 1, 1, 0.025
*OUTPUT, FIELD, NUMBER INTERVAL=1
*NODE OUTPUT
U, RF
*ELEMENT OUTPUT, ELSET=GHOST
SDV
*NODE PRINT, NSET=QPOINT, FREQUENCY=41, SUMMARY=NO, TOTALS=NO
U1, U2, RF1, RF2
*END STEP
*STEP, NAME=CYCLE_98, INC=2000, EXTRAPOLATION=NO
*STATIC
1., 41, 4.1e-06, 1.
*CONTROLS, PARAMETERS=TIME INCREMENTATION
8, 20, 9, 30, 10, 4, 12, 20
*CONTROLS, PARAMETERS=LINE SEARCH
5, , , , 
*BOUNDARY, OP=NEW
QPOINT, 1, 1
QPOINT, 6, 6
DISP, 2, 2
DISP, 6, 6
*BOUNDARY, OP=NEW, AMPLITUDE=STROKE
DISP, 1, 1, 0.025
*OUTPUT, FIELD, NUMBER INTERVAL=1
*NODE OUTPUT
U, RF
*ELEMENT OUTPUT, ELSET=GHOST
SDV
*NODE PRINT, NSET=QPOINT, FREQUENCY=41, SUMMARY=NO, TOTALS=NO
U1, U2, RF1, RF2
*END STEP
*STEP, NAME=CYCLE_99, INC=2000, EXTRAPOLATION=NO
*STATIC
1., 41, 4.1e-06, 1.
*CONTROLS, PARAMETERS=TIME INCREMENTATION
8, 20, 9, 30, 10, 4, 12, 20
*CONTROLS, PARAMETERS=LINE SEARCH
5, , , , 
*BOUNDARY, OP=NEW
QPOINT, 1, 1
QPOINT, 6, 6
DISP, 2, 2
DISP, 6, 6
*BOUNDARY, OP=NEW, AMPLITUDE=STROKE
DISP, 1, 1, 0.025
*OUTPUT, FIELD, NUMBER INTERVAL=1
*NODE OUTPUT
U, RF
*ELEMENT OUTPUT, ELSET=GHOST
SDV
*NODE PRINT, NSET=QPOINT, FREQUENCY=41, SUMMARY=NO, TOTALS=NO
U1, U2, RF1, RF2
*END STEP
*STEP, NAME=CYCLE_100, INC=2000, EXTRAPOLATION=NO
*STATIC
1., 41, 4.1e-06, 1.
*CONTROLS, PARAMETERS=TIME INCREMENTATION
8, 20, 9, 30, 10, 4, 12, 20
*CONTROLS, PARAMETERS=LINE SEARCH
5, , , , 
*BOUNDARY, OP=NEW
QPOINT, 1, 1
QPOINT, 6, 6
DISP, 2, 2
DISP, 6, 6
*BOUNDARY, OP=NEW, AMPLITUDE=STROKE
DISP, 1, 1, 0.025
*OUTPUT, FIELD, NUMBER INTERVAL=1
*NODE OUTPUT
U, RF
*ELEMENT OUTPUT, ELSET=GHOST
SDV
*NODE PRINT, NSET=QPOINT, FREQUENCY=41, SUMMARY=NO, TOTALS=NO
U1, U2, RF1, RF2
*END STEP
*STEP, NAME=CYCLE_101, INC=2000, EXTRAPOLATION=NO
*STATIC
1., 41, 4.1e-06, 1.
*CONTROLS, PARAMETERS=TIME INCREMENTATION
8, 20, 9, 30, 10, 4, 12, 20
*CONTROLS, PARAMETERS=LINE SEARCH
5, , , , 
*BOUNDARY, OP=NEW
QPOINT, 1, 1
QPOINT, 6, 6
DISP, 2, 2
DISP, 6, 6
*BOUNDARY, OP=NEW, AMPLITUDE=STROKE
DISP, 1, 1, 0.025
*OUTPUT, FIELD, NUMBER INTERVAL=1
*NODE OUTPUT
U, RF
*ELEMENT OUTPUT, ELSET=GHOST
SDV
*NODE PRINT, NSET=QPOINT, FREQUENCY=41, SUMMARY=NO, TOTALS=NO
U1, U2, RF1, RF2
*END STEP
*STEP, NAME=CYCLE_102, INC=2000, EXTRAPOLATION=NO
*STATIC
1., 41, 4.1e-06, 1.
*CONTROLS, PARAMETERS=TIME INCREMENTATION
8, 20, 9, 30, 10, 4, 12, 20
*CONTROLS, PARAMETERS=LINE SEARCH
5, , , , 
*BOUNDARY, OP=NEW
QPOINT, 1, 1
QPOINT, 6, 6
DISP, 2, 2
DISP, 6, 6
*BOUNDARY, OP=NEW, AMPLITUDE=STROKE
DISP, 1, 1, 0.025
*OUTPUT, FIELD, NUMBER INTERVAL=1
*NODE OUTPUT
U, RF
*ELEMENT OUTPUT, ELSET=GHOST
SDV
*NODE PRINT, NSET=QPOINT, FREQUENCY=41, SUMMARY=NO, TOTALS=NO
U1, U2, RF1, RF2
*END STEP
*STEP, NAME=CYCLE_103, INC=2000, EXTRAPOLATION=NO
*STATIC
1., 41, 4.1e-06, 1.
*CONTROLS, PARAMETERS=TIME INCREMENTATION
8, 20, 9, 30, 10, 4, 12, 20
*CONTROLS, PARAMETERS=LINE SEARCH
5, , , , 
*BOUNDARY, OP=NEW
QPOINT, 1, 1
QPOINT, 6, 6
DISP, 2, 2
DISP, 6, 6
*BOUNDARY, OP=NEW, AMPLITUDE=STROKE
DISP, 1, 1, 0.025
*OUTPUT, FIELD, NUMBER INTERVAL=1
*NODE OUTPUT
U, RF
*ELEMENT OUTPUT, ELSET=GHOST
SDV
*NODE PRINT, NSET=QPOINT, FREQUENCY=41, SUMMARY=NO, TOTALS=NO
U1, U2, RF1, RF2
*END STEP
*STEP, NAME=CYCLE_104, INC=2000, EXTRAPOLATION=NO
*STATIC
1., 41, 4.1e-06, 1.
*CONTROLS, PARAMETERS=TIME INCREMENTATION
8, 20, 9, 30, 10, 4, 12, 20
*CONTROLS, PARAMETERS=LINE SEARCH
5, , , , 
*BOUNDARY, OP=NEW
QPOINT, 1, 1
QPOINT, 6, 6
DISP, 2, 2
DISP, 6, 6
*BOUNDARY, OP=NEW, AMPLITUDE=STROKE
DISP, 1, 1, 0.025
*OUTPUT, FIELD, NUMBER INTERVAL=1
*NODE OUTPUT
U, RF
*ELEMENT OUTPUT, ELSET=GHOST
SDV
*NODE PRINT, NSET=QPOINT, FREQUENCY=41, SUMMARY=NO, TOTALS=NO
U1, U2, RF1, RF2
*END STEP
*STEP, NAME=CYCLE_105, INC=2000, EXTRAPOLATION=NO
*STATIC
1., 41, 4.1e-06, 1.
*CONTROLS, PARAMETERS=TIME INCREMENTATION
8, 20, 9, 30, 10, 4, 12, 20
*CONTROLS, PARAMETERS=LINE SEARCH
5, , , , 
*BOUNDARY, OP=NEW
QPOINT, 1, 1
QPOINT, 6, 6
DISP, 2, 2
DISP, 6, 6
*BOUNDARY, OP=NEW, AMPLITUDE=STROKE
DISP, 1, 1, 0.025
*OUTPUT, FIELD, NUMBER INTERVAL=1
*NODE OUTPUT
U, RF
*ELEMENT OUTPUT, ELSET=GHOST
SDV
*NODE PRINT, NSET=QPOINT, FREQUENCY=41, SUMMARY=NO, TOTALS=NO
U1, U2, RF1, RF2
*END STEP
*STEP, NAME=CYCLE_106, INC=2000, EXTRAPOLATION=NO
*STATIC
1., 41, 4.1e-06, 1.
*CONTROLS, PARAMETERS=TIME INCREMENTATION
8, 20, 9, 30, 10, 4, 12, 20
*CONTROLS, PARAMETERS=LINE SEARCH
5, , , , 
*BOUNDARY, OP=NEW
QPOINT, 1, 1
QPOINT, 6, 6
DISP, 2, 2
DISP, 6, 6
*BOUNDARY, OP=NEW, AMPLITUDE=STROKE
DISP, 1, 1, 0.025
*OUTPUT, FIELD, NUMBER INTERVAL=1
*NODE OUTPUT
U, RF
*ELEMENT OUTPUT, ELSET=GHOST
SDV
*NODE PRINT, NSET=QPOINT, FREQUENCY=41, SUMMARY=NO, TOTALS=NO
U1, U2, RF1, RF2
*END STEP
*STEP, NAME=CYCLE_107, INC=2000, EXTRAPOLATION=NO
*STATIC
1., 41, 4.1e-06, 1.
*CONTROLS, PARAMETERS=TIME INCREMENTATION
8, 20, 9, 30, 10, 4, 12, 20
*CONTROLS, PARAMETERS=LINE SEARCH
5, , , , 
*BOUNDARY, OP=NEW
QPOINT, 1, 1
QPOINT, 6, 6
DISP, 2, 2
DISP, 6, 6
*BOUNDARY, OP=NEW, AMPLITUDE=STROKE
DISP, 1, 1, 0.025
*OUTPUT, FIELD, NUMBER INTERVAL=1
*NODE OUTPUT
U, RF
*ELEMENT OUTPUT, ELSET=GHOST
SDV
*NODE PRINT, NSET=QPOINT, FREQUENCY=41, SUMMARY=NO, TOTALS=NO
U1, U2, RF1, RF2
*END STEP
*STEP, NAME=CYCLE_108, INC=2000, EXTRAPOLATION=NO
*STATIC
1., 41, 4.1e-06, 1.
*CONTROLS, PARAMETERS=TIME INCREMENTATION
8, 20, 9, 30, 10, 4, 12, 20
*CONTROLS, PARAMETERS=LINE SEARCH
5, , , , 
*BOUNDARY, OP=NEW
QPOINT, 1, 1
QPOINT, 6, 6
DISP, 2, 2
DISP, 6, 6
*BOUNDARY, OP=NEW, AMPLITUDE=STROKE
DISP, 1, 1, 0.025
*OUTPUT, FIELD, NUMBER INTERVAL=1
*NODE OUTPUT
U, RF
*ELEMENT OUTPUT, ELSET=GHOST
SDV
*NODE PRINT, NSET=QPOINT, FREQUENCY=41, SUMMARY=NO, TOTALS=NO
U1, U2, RF1, RF2
*END STEP
*STEP, NAME=CYCLE_109, INC=2000, EXTRAPOLATION=NO
*STATIC
1., 41, 4.1e-06, 1.
*CONTROLS, PARAMETERS=TIME INCREMENTATION
8, 20, 9, 30, 10, 4, 12, 20
*CONTROLS, PARAMETERS=LINE SEARCH
5, , , , 
*BOUNDARY, OP=NEW
QPOINT, 1, 1
QPOINT, 6, 6
DISP, 2, 2
DISP, 6, 6
*BOUNDARY, OP=NEW, AMPLITUDE=STROKE
DISP, 1, 1, 0.025
*OUTPUT, FIELD, NUMBER INTERVAL=1
*NODE OUTPUT
U, RF
*ELEMENT OUTPUT, ELSET=GHOST
SDV
*NODE PRINT, NSET=QPOINT, FREQUENCY=41, SUMMARY=NO, TOTALS=NO
U1, U2, RF1, RF2
*END STEP
*STEP, NAME=CYCLE_110, INC=2000, EXTRAPOLATION=NO
*STATIC
1., 41, 4.1e-06, 1.
*CONTROLS, PARAMETERS=TIME INCREMENTATION
8, 20, 9, 30, 10, 4, 12, 20
*CONTROLS, PARAMETERS=LINE SEARCH
5, , , , 
*BOUNDARY, OP=NEW
QPOINT, 1, 1
QPOINT, 6, 6
DISP, 2, 2
DISP, 6, 6
*BOUNDARY, OP=NEW, AMPLITUDE=STROKE
DISP, 1, 1, 0.025
*OUTPUT, FIELD, NUMBER INTERVAL=1
*NODE OUTPUT
U, RF
*ELEMENT OUTPUT, ELSET=GHOST
SDV
*NODE PRINT, NSET=QPOINT, FREQUENCY=41, SUMMARY=NO, TOTALS=NO
U1, U2, RF1, RF2
*END STEP
*STEP, NAME=CYCLE_111, INC=2000, EXTRAPOLATION=NO
*STATIC
1., 41, 4.1e-06, 1.
*CONTROLS, PARAMETERS=TIME INCREMENTATION
8, 20, 9, 30, 10, 4, 12, 20
*CONTROLS, PARAMETERS=LINE SEARCH
5, , , , 
*BOUNDARY, OP=NEW
QPOINT, 1, 1
QPOINT, 6, 6
DISP, 2, 2
DISP, 6, 6
*BOUNDARY, OP=NEW, AMPLITUDE=STROKE
DISP, 1, 1, 0.025
*OUTPUT, FIELD, NUMBER INTERVAL=1
*NODE OUTPUT
U, RF
*ELEMENT OUTPUT, ELSET=GHOST
SDV
*NODE PRINT, NSET=QPOINT, FREQUENCY=41, SUMMARY=NO, TOTALS=NO
U1, U2, RF1, RF2
*END STEP
*STEP, NAME=CYCLE_112, INC=2000, EXTRAPOLATION=NO
*STATIC
1., 41, 4.1e-06, 1.
*CONTROLS, PARAMETERS=TIME INCREMENTATION
8, 20, 9, 30, 10, 4, 12, 20
*CONTROLS, PARAMETERS=LINE SEARCH
5, , , , 
*BOUNDARY, OP=NEW
QPOINT, 1, 1
QPOINT, 6, 6
DISP, 2, 2
DISP, 6, 6
*BOUNDARY, OP=NEW, AMPLITUDE=STROKE
DISP, 1, 1, 0.025
*OUTPUT, FIELD, NUMBER INTERVAL=1
*NODE OUTPUT
U, RF
*ELEMENT OUTPUT, ELSET=GHOST
SDV
*NODE PRINT, NSET=QPOINT, FREQUENCY=41, SUMMARY=NO, TOTALS=NO
U1, U2, RF1, RF2
*END STEP
*STEP, NAME=CYCLE_113, INC=2000, EXTRAPOLATION=NO
*STATIC
1., 41, 4.1e-06, 1.
*CONTROLS, PARAMETERS=TIME INCREMENTATION
8, 20, 9, 30, 10, 4, 12, 20
*CONTROLS, PARAMETERS=LINE SEARCH
5, , , , 
*BOUNDARY, OP=NEW
QPOINT, 1, 1
QPOINT, 6, 6
DISP, 2, 2
DISP, 6, 6
*BOUNDARY, OP=NEW, AMPLITUDE=STROKE
DISP, 1, 1, 0.025
*OUTPUT, FIELD, NUMBER INTERVAL=1
*NODE OUTPUT
U, RF
*ELEMENT OUTPUT, ELSET=GHOST
SDV
*NODE PRINT, NSET=QPOINT, FREQUENCY=41, SUMMARY=NO, TOTALS=NO
U1, U2, RF1, RF2
*END STEP
*STEP, NAME=CYCLE_114, INC=2000, EXTRAPOLATION=NO
*STATIC
1., 41, 4.1e-06, 1.
*CONTROLS, PARAMETERS=TIME INCREMENTATION
8, 20, 9, 30, 10, 4, 12, 20
*CONTROLS, PARAMETERS=LINE SEARCH
5, , , , 
*BOUNDARY, OP=NEW
QPOINT, 1, 1
QPOINT, 6, 6
DISP, 2, 2
DISP, 6, 6
*BOUNDARY, OP=NEW, AMPLITUDE=STROKE
DISP, 1, 1, 0.025
*OUTPUT, FIELD, NUMBER INTERVAL=1
*NODE OUTPUT
U, RF
*ELEMENT OUTPUT, ELSET=GHOST
SDV
*NODE PRINT, NSET=QPOINT, FREQUENCY=41, SUMMARY=NO, TOTALS=NO
U1, U2, RF1, RF2
*END STEP
*STEP, NAME=CYCLE_115, INC=2000, EXTRAPOLATION=NO
*STATIC
1., 41, 4.1e-06, 1.
*CONTROLS, PARAMETERS=TIME INCREMENTATION
8, 20, 9, 30, 10, 4, 12, 20
*CONTROLS, PARAMETERS=LINE SEARCH
5, , , , 
*BOUNDARY, OP=NEW
QPOINT, 1, 1
QPOINT, 6, 6
DISP, 2, 2
DISP, 6, 6
*BOUNDARY, OP=NEW, AMPLITUDE=STROKE
DISP, 1, 1, 0.025
*OUTPUT, FIELD, NUMBER INTERVAL=1
*NODE OUTPUT
U, RF
*ELEMENT OUTPUT, ELSET=GHOST
SDV
*NODE PRINT, NSET=QPOINT, FREQUENCY=41, SUMMARY=NO, TOTALS=NO
U1, U2, RF1, RF2
*END STEP
*STEP, NAME=CYCLE_116, INC=2000, EXTRAPOLATION=NO
*STATIC
1., 41, 4.1e-06, 1.
*CONTROLS, PARAMETERS=TIME INCREMENTATION
8, 20, 9, 30, 10, 4, 12, 20
*CONTROLS, PARAMETERS=LINE SEARCH
5, , , , 
*BOUNDARY, OP=NEW
QPOINT, 1, 1
QPOINT, 6, 6
DISP, 2, 2
DISP, 6, 6
*BOUNDARY, OP=NEW, AMPLITUDE=STROKE
DISP, 1, 1, 0.025
*OUTPUT, FIELD, NUMBER INTERVAL=1
*NODE OUTPUT
U, RF
*ELEMENT OUTPUT, ELSET=GHOST
SDV
*NODE PRINT, NSET=QPOINT, FREQUENCY=41, SUMMARY=NO, TOTALS=NO
U1, U2, RF1, RF2
*END STEP
*STEP, NAME=CYCLE_117, INC=2000, EXTRAPOLATION=NO
*STATIC
1., 41, 4.1e-06, 1.
*CONTROLS, PARAMETERS=TIME INCREMENTATION
8, 20, 9, 30, 10, 4, 12, 20
*CONTROLS, PARAMETERS=LINE SEARCH
5, , , , 
*BOUNDARY, OP=NEW
QPOINT, 1, 1
QPOINT, 6, 6
DISP, 2, 2
DISP, 6, 6
*BOUNDARY, OP=NEW, AMPLITUDE=STROKE
DISP, 1, 1, 0.025
*OUTPUT, FIELD, NUMBER INTERVAL=1
*NODE OUTPUT
U, RF
*ELEMENT OUTPUT, ELSET=GHOST
SDV
*NODE PRINT, NSET=QPOINT, FREQUENCY=41, SUMMARY=NO, TOTALS=NO
U1, U2, RF1, RF2
*END STEP
*STEP, NAME=CYCLE_118, INC=2000, EXTRAPOLATION=NO
*STATIC
1., 41, 4.1e-06, 1.
*CONTROLS, PARAMETERS=TIME INCREMENTATION
8, 20, 9, 30, 10, 4, 12, 20
*CONTROLS, PARAMETERS=LINE SEARCH
5, , , , 
*BOUNDARY, OP=NEW
QPOINT, 1, 1
QPOINT, 6, 6
DISP, 2, 2
DISP, 6, 6
*BOUNDARY, OP=NEW, AMPLITUDE=STROKE
DISP, 1, 1, 0.025
*OUTPUT, FIELD, NUMBER INTERVAL=1
*NODE OUTPUT
U, RF
*ELEMENT OUTPUT, ELSET=GHOST
SDV
*NODE PRINT, NSET=QPOINT, FREQUENCY=41, SUMMARY=NO, TOTALS=NO
U1, U2, RF1, RF2
*END STEP
*STEP, NAME=CYCLE_119, INC=2000, EXTRAPOLATION=NO
*STATIC
1., 41, 4.1e-06, 1.
*CONTROLS, PARAMETERS=TIME INCREMENTATION
8, 20, 9, 30, 10, 4, 12, 20
*CONTROLS, PARAMETERS=LINE SEARCH
5, , , , 
*BOUNDARY, OP=NEW
QPOINT, 1, 1
QPOINT, 6, 6
DISP, 2, 2
DISP, 6, 6
*BOUNDARY, OP=NEW, AMPLITUDE=STROKE
DISP, 1, 1, 0.025
*OUTPUT, FIELD, NUMBER INTERVAL=1
*NODE OUTPUT
U, RF
*ELEMENT OUTPUT, ELSET=GHOST
SDV
*NODE PRINT, NSET=QPOINT, FREQUENCY=41, SUMMARY=NO, TOTALS=NO
U1, U2, RF1, RF2
*END STEP
*STEP, NAME=CYCLE_120, INC=2000, EXTRAPOLATION=NO
*STATIC
1., 41, 4.1e-06, 1.
*CONTROLS, PARAMETERS=TIME INCREMENTATION
8, 20, 9, 30, 10, 4, 12, 20
*CONTROLS, PARAMETERS=LINE SEARCH
5, , , , 
*BOUNDARY, OP=NEW
QPOINT, 1, 1
QPOINT, 6, 6
DISP, 2, 2
DISP, 6, 6
*BOUNDARY, OP=NEW, AMPLITUDE=STROKE
DISP, 1, 1, 0.025
*OUTPUT, FIELD, NUMBER INTERVAL=1
*NODE OUTPUT
U, RF
*ELEMENT OUTPUT, ELSET=GHOST
SDV
*NODE PRINT, NSET=QPOINT, FREQUENCY=41, SUMMARY=NO, TOTALS=NO
U1, U2, RF1, RF2
*END STEP
*STEP, NAME=CYCLE_121, INC=2000, EXTRAPOLATION=NO
*STATIC
1., 41, 4.1e-06, 1.
*CONTROLS, PARAMETERS=TIME INCREMENTATION
8, 20, 9, 30, 10, 4, 12, 20
*CONTROLS, PARAMETERS=LINE SEARCH
5, , , , 
*BOUNDARY, OP=NEW
QPOINT, 1, 1
QPOINT, 6, 6
DISP, 2, 2
DISP, 6, 6
*BOUNDARY, OP=NEW, AMPLITUDE=STROKE
DISP, 1, 1, 0.025
*OUTPUT, FIELD, NUMBER INTERVAL=1
*NODE OUTPUT
U, RF
*ELEMENT OUTPUT, ELSET=GHOST
SDV
*NODE PRINT, NSET=QPOINT, FREQUENCY=41, SUMMARY=NO, TOTALS=NO
U1, U2, RF1, RF2
*END STEP
*STEP, NAME=CYCLE_122, INC=2000, EXTRAPOLATION=NO
*STATIC
1., 41, 4.1e-06, 1.
*CONTROLS, PARAMETERS=TIME INCREMENTATION
8, 20, 9, 30, 10, 4, 12, 20
*CONTROLS, PARAMETERS=LINE SEARCH
5, , , , 
*BOUNDARY, OP=NEW
QPOINT, 1, 1
QPOINT, 6, 6
DISP, 2, 2
DISP, 6, 6
*BOUNDARY, OP=NEW, AMPLITUDE=STROKE
DISP, 1, 1, 0.025
*OUTPUT, FIELD, NUMBER INTERVAL=1
*NODE OUTPUT
U, RF
*ELEMENT OUTPUT, ELSET=GHOST
SDV
*NODE PRINT, NSET=QPOINT, FREQUENCY=41, SUMMARY=NO, TOTALS=NO
U1, U2, RF1, RF2
*END STEP
*STEP, NAME=CYCLE_123, INC=2000, EXTRAPOLATION=NO
*STATIC
1., 41, 4.1e-06, 1.
*CONTROLS, PARAMETERS=TIME INCREMENTATION
8, 20, 9, 30, 10, 4, 12, 20
*CONTROLS, PARAMETERS=LINE SEARCH
5, , , , 
*BOUNDARY, OP=NEW
QPOINT, 1, 1
QPOINT, 6, 6
DISP, 2, 2
DISP, 6, 6
*BOUNDARY, OP=NEW, AMPLITUDE=STROKE
DISP, 1, 1, 0.025
*OUTPUT, FIELD, NUMBER INTERVAL=1
*NODE OUTPUT
U, RF
*ELEMENT OUTPUT, ELSET=GHOST
SDV
*NODE PRINT, NSET=QPOINT, FREQUENCY=41, SUMMARY=NO, TOTALS=NO
U1, U2, RF1, RF2
*END STEP
*STEP, NAME=CYCLE_124, INC=2000, EXTRAPOLATION=NO
*STATIC
1., 41, 4.1e-06, 1.
*CONTROLS, PARAMETERS=TIME INCREMENTATION
8, 20, 9, 30, 10, 4, 12, 20
*CONTROLS, PARAMETERS=LINE SEARCH
5, , , , 
*BOUNDARY, OP=NEW
QPOINT, 1, 1
QPOINT, 6, 6
DISP, 2, 2
DISP, 6, 6
*BOUNDARY, OP=NEW, AMPLITUDE=STROKE
DISP, 1, 1, 0.025
*OUTPUT, FIELD, NUMBER INTERVAL=1
*NODE OUTPUT
U, RF
*ELEMENT OUTPUT, ELSET=GHOST
SDV
*NODE PRINT, NSET=QPOINT, FREQUENCY=41, SUMMARY=NO, TOTALS=NO
U1, U2, RF1, RF2
*END STEP
*STEP, NAME=CYCLE_125, INC=2000, EXTRAPOLATION=NO
*STATIC
1., 41, 4.1e-06, 1.
*CONTROLS, PARAMETERS=TIME INCREMENTATION
8, 20, 9, 30, 10, 4, 12, 20
*CONTROLS, PARAMETERS=LINE SEARCH
5, , , , 
*BOUNDARY, OP=NEW
QPOINT, 1, 1
QPOINT, 6, 6
DISP, 2, 2
DISP, 6, 6
*BOUNDARY, OP=NEW, AMPLITUDE=STROKE
DISP, 1, 1, 0.025
*OUTPUT, FIELD, NUMBER INTERVAL=1
*NODE OUTPUT
U, RF
*ELEMENT OUTPUT, ELSET=GHOST
SDV
*NODE PRINT, NSET=QPOINT, FREQUENCY=41, SUMMARY=NO, TOTALS=NO
U1, U2, RF1, RF2
*END STEP
*STEP, NAME=CYCLE_126, INC=2000, EXTRAPOLATION=NO
*STATIC
1., 41, 4.1e-06, 1.
*CONTROLS, PARAMETERS=TIME INCREMENTATION
8, 20, 9, 30, 10, 4, 12, 20
*CONTROLS, PARAMETERS=LINE SEARCH
5, , , , 
*BOUNDARY, OP=NEW
QPOINT, 1, 1
QPOINT, 6, 6
DISP, 2, 2
DISP, 6, 6
*BOUNDARY, OP=NEW, AMPLITUDE=STROKE
DISP, 1, 1, 0.025
*OUTPUT, FIELD, NUMBER INTERVAL=1
*NODE OUTPUT
U, RF
*ELEMENT OUTPUT, ELSET=GHOST
SDV
*NODE PRINT, NSET=QPOINT, FREQUENCY=41, SUMMARY=NO, TOTALS=NO
U1, U2, RF1, RF2
*END STEP
*STEP, NAME=CYCLE_127, INC=2000, EXTRAPOLATION=NO
*STATIC
1., 41, 4.1e-06, 1.
*CONTROLS, PARAMETERS=TIME INCREMENTATION
8, 20, 9, 30, 10, 4, 12, 20
*CONTROLS, PARAMETERS=LINE SEARCH
5, , , , 
*BOUNDARY, OP=NEW
QPOINT, 1, 1
QPOINT, 6, 6
DISP, 2, 2
DISP, 6, 6
*BOUNDARY, OP=NEW, AMPLITUDE=STROKE
DISP, 1, 1, 0.025
*OUTPUT, FIELD, NUMBER INTERVAL=1
*NODE OUTPUT
U, RF
*ELEMENT OUTPUT, ELSET=GHOST
SDV
*NODE PRINT, NSET=QPOINT, FREQUENCY=41, SUMMARY=NO, TOTALS=NO
U1, U2, RF1, RF2
*END STEP
*STEP, NAME=CYCLE_128, INC=2000, EXTRAPOLATION=NO
*STATIC
1., 41, 4.1e-06, 1.
*CONTROLS, PARAMETERS=TIME INCREMENTATION
8, 20, 9, 30, 10, 4, 12, 20
*CONTROLS, PARAMETERS=LINE SEARCH
5, , , , 
*BOUNDARY, OP=NEW
QPOINT, 1, 1
QPOINT, 6, 6
DISP, 2, 2
DISP, 6, 6
*BOUNDARY, OP=NEW, AMPLITUDE=STROKE
DISP, 1, 1, 0.025
*OUTPUT, FIELD, NUMBER INTERVAL=1
*NODE OUTPUT
U, RF
*ELEMENT OUTPUT, ELSET=GHOST
SDV
*NODE PRINT, NSET=QPOINT, FREQUENCY=41, SUMMARY=NO, TOTALS=NO
U1, U2, RF1, RF2
*END STEP
*STEP, NAME=CYCLE_129, INC=2000, EXTRAPOLATION=NO
*STATIC
1., 41, 4.1e-06, 1.
*CONTROLS, PARAMETERS=TIME INCREMENTATION
8, 20, 9, 30, 10, 4, 12, 20
*CONTROLS, PARAMETERS=LINE SEARCH
5, , , , 
*BOUNDARY, OP=NEW
QPOINT, 1, 1
QPOINT, 6, 6
DISP, 2, 2
DISP, 6, 6
*BOUNDARY, OP=NEW, AMPLITUDE=STROKE
DISP, 1, 1, 0.025
*OUTPUT, FIELD, NUMBER INTERVAL=1
*NODE OUTPUT
U, RF
*ELEMENT OUTPUT, ELSET=GHOST
SDV
*NODE PRINT, NSET=QPOINT, FREQUENCY=41, SUMMARY=NO, TOTALS=NO
U1, U2, RF1, RF2
*END STEP
*STEP, NAME=CYCLE_130, INC=2000, EXTRAPOLATION=NO
*STATIC
1., 41, 4.1e-06, 1.
*CONTROLS, PARAMETERS=TIME INCREMENTATION
8, 20, 9, 30, 10, 4, 12, 20
*CONTROLS, PARAMETERS=LINE SEARCH
5, , , , 
*BOUNDARY, OP=NEW
QPOINT, 1, 1
QPOINT, 6, 6
DISP, 2, 2
DISP, 6, 6
*BOUNDARY, OP=NEW, AMPLITUDE=STROKE
DISP, 1, 1, 0.025
*OUTPUT, FIELD, NUMBER INTERVAL=1
*NODE OUTPUT
U, RF
*ELEMENT OUTPUT, ELSET=GHOST
SDV
*NODE PRINT, NSET=QPOINT, FREQUENCY=41, SUMMARY=NO, TOTALS=NO
U1, U2, RF1, RF2
*END STEP
*STEP, NAME=CYCLE_131, INC=2000, EXTRAPOLATION=NO
*STATIC
1., 41, 4.1e-06, 1.
*CONTROLS, PARAMETERS=TIME INCREMENTATION
8, 20, 9, 30, 10, 4, 12, 20
*CONTROLS, PARAMETERS=LINE SEARCH
5, , , , 
*BOUNDARY, OP=NEW
QPOINT, 1, 1
QPOINT, 6, 6
DISP, 2, 2
DISP, 6, 6
*BOUNDARY, OP=NEW, AMPLITUDE=STROKE
DISP, 1, 1, 0.025
*OUTPUT, FIELD, NUMBER INTERVAL=1
*NODE OUTPUT
U, RF
*ELEMENT OUTPUT, ELSET=GHOST
SDV
*NODE PRINT, NSET=QPOINT, FREQUENCY=41, SUMMARY=NO, TOTALS=NO
U1, U2, RF1, RF2
*END STEP
*STEP, NAME=CYCLE_132, INC=2000, EXTRAPOLATION=NO
*STATIC
1., 41, 4.1e-06, 1.
*CONTROLS, PARAMETERS=TIME INCREMENTATION
8, 20, 9, 30, 10, 4, 12, 20
*CONTROLS, PARAMETERS=LINE SEARCH
5, , , , 
*BOUNDARY, OP=NEW
QPOINT, 1, 1
QPOINT, 6, 6
DISP, 2, 2
DISP, 6, 6
*BOUNDARY, OP=NEW, AMPLITUDE=STROKE
DISP, 1, 1, 0.025
*OUTPUT, FIELD, NUMBER INTERVAL=1
*NODE OUTPUT
U, RF
*ELEMENT OUTPUT, ELSET=GHOST
SDV
*NODE PRINT, NSET=QPOINT, FREQUENCY=41, SUMMARY=NO, TOTALS=NO
U1, U2, RF1, RF2
*END STEP
*STEP, NAME=CYCLE_133, INC=2000, EXTRAPOLATION=NO
*STATIC
1., 41, 4.1e-06, 1.
*CONTROLS, PARAMETERS=TIME INCREMENTATION
8, 20, 9, 30, 10, 4, 12, 20
*CONTROLS, PARAMETERS=LINE SEARCH
5, , , , 
*BOUNDARY, OP=NEW
QPOINT, 1, 1
QPOINT, 6, 6
DISP, 2, 2
DISP, 6, 6
*BOUNDARY, OP=NEW, AMPLITUDE=STROKE
DISP, 1, 1, 0.025
*OUTPUT, FIELD, NUMBER INTERVAL=1
*NODE OUTPUT
U, RF
*ELEMENT OUTPUT, ELSET=GHOST
SDV
*NODE PRINT, NSET=QPOINT, FREQUENCY=41, SUMMARY=NO, TOTALS=NO
U1, U2, RF1, RF2
*END STEP
*STEP, NAME=CYCLE_134, INC=2000, EXTRAPOLATION=NO
*STATIC
1., 41, 4.1e-06, 1.
*CONTROLS, PARAMETERS=TIME INCREMENTATION
8, 20, 9, 30, 10, 4, 12, 20
*CONTROLS, PARAMETERS=LINE SEARCH
5, , , , 
*BOUNDARY, OP=NEW
QPOINT, 1, 1
QPOINT, 6, 6
DISP, 2, 2
DISP, 6, 6
*BOUNDARY, OP=NEW, AMPLITUDE=STROKE
DISP, 1, 1, 0.025
*OUTPUT, FIELD, NUMBER INTERVAL=1
*NODE OUTPUT
U, RF
*ELEMENT OUTPUT, ELSET=GHOST
SDV
*NODE PRINT, NSET=QPOINT, FREQUENCY=41, SUMMARY=NO, TOTALS=NO
U1, U2, RF1, RF2
*END STEP
*STEP, NAME=CYCLE_135, INC=2000, EXTRAPOLATION=NO
*STATIC
1., 41, 4.1e-06, 1.
*CONTROLS, PARAMETERS=TIME INCREMENTATION
8, 20, 9, 30, 10, 4, 12, 20
*CONTROLS, PARAMETERS=LINE SEARCH
5, , , , 
*BOUNDARY, OP=NEW
QPOINT, 1, 1
QPOINT, 6, 6
DISP, 2, 2
DISP, 6, 6
*BOUNDARY, OP=NEW, AMPLITUDE=STROKE
DISP, 1, 1, 0.025
*OUTPUT, FIELD, NUMBER INTERVAL=1
*NODE OUTPUT
U, RF
*ELEMENT OUTPUT, ELSET=GHOST
SDV
*NODE PRINT, NSET=QPOINT, FREQUENCY=41, SUMMARY=NO, TOTALS=NO
U1, U2, RF1, RF2
*END STEP
*STEP, NAME=CYCLE_136, INC=2000, EXTRAPOLATION=NO
*STATIC
1., 41, 4.1e-06, 1.
*CONTROLS, PARAMETERS=TIME INCREMENTATION
8, 20, 9, 30, 10, 4, 12, 20
*CONTROLS, PARAMETERS=LINE SEARCH
5, , , , 
*BOUNDARY, OP=NEW
QPOINT, 1, 1
QPOINT, 6, 6
DISP, 2, 2
DISP, 6, 6
*BOUNDARY, OP=NEW, AMPLITUDE=STROKE
DISP, 1, 1, 0.025
*OUTPUT, FIELD, NUMBER INTERVAL=1
*NODE OUTPUT
U, RF
*ELEMENT OUTPUT, ELSET=GHOST
SDV
*NODE PRINT, NSET=QPOINT, FREQUENCY=41, SUMMARY=NO, TOTALS=NO
U1, U2, RF1, RF2
*END STEP
*STEP, NAME=CYCLE_137, INC=2000, EXTRAPOLATION=NO
*STATIC
1., 41, 4.1e-06, 1.
*CONTROLS, PARAMETERS=TIME INCREMENTATION
8, 20, 9, 30, 10, 4, 12, 20
*CONTROLS, PARAMETERS=LINE SEARCH
5, , , , 
*BOUNDARY, OP=NEW
QPOINT, 1, 1
QPOINT, 6, 6
DISP, 2, 2
DISP, 6, 6
*BOUNDARY, OP=NEW, AMPLITUDE=STROKE
DISP, 1, 1, 0.025
*OUTPUT, FIELD, NUMBER INTERVAL=1
*NODE OUTPUT
U, RF
*ELEMENT OUTPUT, ELSET=GHOST
SDV
*NODE PRINT, NSET=QPOINT, FREQUENCY=41, SUMMARY=NO, TOTALS=NO
U1, U2, RF1, RF2
*END STEP
*STEP, NAME=CYCLE_138, INC=2000, EXTRAPOLATION=NO
*STATIC
1., 41, 4.1e-06, 1.
*CONTROLS, PARAMETERS=TIME INCREMENTATION
8, 20, 9, 30, 10, 4, 12, 20
*CONTROLS, PARAMETERS=LINE SEARCH
5, , , , 
*BOUNDARY, OP=NEW
QPOINT, 1, 1
QPOINT, 6, 6
DISP, 2, 2
DISP, 6, 6
*BOUNDARY, OP=NEW, AMPLITUDE=STROKE
DISP, 1, 1, 0.025
*OUTPUT, FIELD, NUMBER INTERVAL=1
*NODE OUTPUT
U, RF
*ELEMENT OUTPUT, ELSET=GHOST
SDV
*NODE PRINT, NSET=QPOINT, FREQUENCY=41, SUMMARY=NO, TOTALS=NO
U1, U2, RF1, RF2
*END STEP
*STEP, NAME=CYCLE_139, INC=2000, EXTRAPOLATION=NO
*STATIC
1., 41, 4.1e-06, 1.
*CONTROLS, PARAMETERS=TIME INCREMENTATION
8, 20, 9, 30, 10, 4, 12, 20
*CONTROLS, PARAMETERS=LINE SEARCH
5, , , , 
*BOUNDARY, OP=NEW
QPOINT, 1, 1
QPOINT, 6, 6
DISP, 2, 2
DISP, 6, 6
*BOUNDARY, OP=NEW, AMPLITUDE=STROKE
DISP, 1, 1, 0.025
*OUTPUT, FIELD, NUMBER INTERVAL=1
*NODE OUTPUT
U, RF
*ELEMENT OUTPUT, ELSET=GHOST
SDV
*NODE PRINT, NSET=QPOINT, FREQUENCY=41, SUMMARY=NO, TOTALS=NO
U1, U2, RF1, RF2
*END STEP
*STEP, NAME=CYCLE_140, INC=2000, EXTRAPOLATION=NO
*STATIC
1., 41, 4.1e-06, 1.
*CONTROLS, PARAMETERS=TIME INCREMENTATION
8, 20, 9, 30, 10, 4, 12, 20
*CONTROLS, PARAMETERS=LINE SEARCH
5, , , , 
*BOUNDARY, OP=NEW
QPOINT, 1, 1
QPOINT, 6, 6
DISP, 2, 2
DISP, 6, 6
*BOUNDARY, OP=NEW, AMPLITUDE=STROKE
DISP, 1, 1, 0.025
*OUTPUT, FIELD, NUMBER INTERVAL=1
*NODE OUTPUT
U, RF
*ELEMENT OUTPUT, ELSET=GHOST
SDV
*NODE PRINT, NSET=QPOINT, FREQUENCY=41, SUMMARY=NO, TOTALS=NO
U1, U2, RF1, RF2
*END STEP
*STEP, NAME=CYCLE_141, INC=2000, EXTRAPOLATION=NO
*STATIC
1., 41, 4.1e-06, 1.
*CONTROLS, PARAMETERS=TIME INCREMENTATION
8, 20, 9, 30, 10, 4, 12, 20
*CONTROLS, PARAMETERS=LINE SEARCH
5, , , , 
*BOUNDARY, OP=NEW
QPOINT, 1, 1
QPOINT, 6, 6
DISP, 2, 2
DISP, 6, 6
*BOUNDARY, OP=NEW, AMPLITUDE=STROKE
DISP, 1, 1, 0.025
*OUTPUT, FIELD, NUMBER INTERVAL=1
*NODE OUTPUT
U, RF
*ELEMENT OUTPUT, ELSET=GHOST
SDV
*NODE PRINT, NSET=QPOINT, FREQUENCY=41, SUMMARY=NO, TOTALS=NO
U1, U2, RF1, RF2
*END STEP
*STEP, NAME=CYCLE_142, INC=2000, EXTRAPOLATION=NO
*STATIC
1., 41, 4.1e-06, 1.
*CONTROLS, PARAMETERS=TIME INCREMENTATION
8, 20, 9, 30, 10, 4, 12, 20
*CONTROLS, PARAMETERS=LINE SEARCH
5, , , , 
*BOUNDARY, OP=NEW
QPOINT, 1, 1
QPOINT, 6, 6
DISP, 2, 2
DISP, 6, 6
*BOUNDARY, OP=NEW, AMPLITUDE=STROKE
DISP, 1, 1, 0.025
*OUTPUT, FIELD, NUMBER INTERVAL=1
*NODE OUTPUT
U, RF
*ELEMENT OUTPUT, ELSET=GHOST
SDV
*NODE PRINT, NSET=QPOINT, FREQUENCY=41, SUMMARY=NO, TOTALS=NO
U1, U2, RF1, RF2
*END STEP
*STEP, NAME=CYCLE_143, INC=2000, EXTRAPOLATION=NO
*STATIC
1., 41, 4.1e-06, 1.
*CONTROLS, PARAMETERS=TIME INCREMENTATION
8, 20, 9, 30, 10, 4, 12, 20
*CONTROLS, PARAMETERS=LINE SEARCH
5, , , , 
*BOUNDARY, OP=NEW
QPOINT, 1, 1
QPOINT, 6, 6
DISP, 2, 2
DISP, 6, 6
*BOUNDARY, OP=NEW, AMPLITUDE=STROKE
DISP, 1, 1, 0.025
*OUTPUT, FIELD, NUMBER INTERVAL=1
*NODE OUTPUT
U, RF
*ELEMENT OUTPUT, ELSET=GHOST
SDV
*NODE PRINT, NSET=QPOINT, FREQUENCY=41, SUMMARY=NO, TOTALS=NO
U1, U2, RF1, RF2
*END STEP
*STEP, NAME=CYCLE_144, INC=2000, EXTRAPOLATION=NO
*STATIC
1., 41, 4.1e-06, 1.
*CONTROLS, PARAMETERS=TIME INCREMENTATION
8, 20, 9, 30, 10, 4, 12, 20
*CONTROLS, PARAMETERS=LINE SEARCH
5, , , , 
*BOUNDARY, OP=NEW
QPOINT, 1, 1
QPOINT, 6, 6
DISP, 2, 2
DISP, 6, 6
*BOUNDARY, OP=NEW, AMPLITUDE=STROKE
DISP, 1, 1, 0.025
*OUTPUT, FIELD, NUMBER INTERVAL=1
*NODE OUTPUT
U, RF
*ELEMENT OUTPUT, ELSET=GHOST
SDV
*NODE PRINT, NSET=QPOINT, FREQUENCY=41, SUMMARY=NO, TOTALS=NO
U1, U2, RF1, RF2
*END STEP
*STEP, NAME=CYCLE_145, INC=2000, EXTRAPOLATION=NO
*STATIC
1., 41, 4.1e-06, 1.
*CONTROLS, PARAMETERS=TIME INCREMENTATION
8, 20, 9, 30, 10, 4, 12, 20
*CONTROLS, PARAMETERS=LINE SEARCH
5, , , , 
*BOUNDARY, OP=NEW
QPOINT, 1, 1
QPOINT, 6, 6
DISP, 2, 2
DISP, 6, 6
*BOUNDARY, OP=NEW, AMPLITUDE=STROKE
DISP, 1, 1, 0.025
*OUTPUT, FIELD, NUMBER INTERVAL=1
*NODE OUTPUT
U, RF
*ELEMENT OUTPUT, ELSET=GHOST
SDV
*NODE PRINT, NSET=QPOINT, FREQUENCY=41, SUMMARY=NO, TOTALS=NO
U1, U2, RF1, RF2
*END STEP
*STEP, NAME=CYCLE_146, INC=2000, EXTRAPOLATION=NO
*STATIC
1., 41, 4.1e-06, 1.
*CONTROLS, PARAMETERS=TIME INCREMENTATION
8, 20, 9, 30, 10, 4, 12, 20
*CONTROLS, PARAMETERS=LINE SEARCH
5, , , , 
*BOUNDARY, OP=NEW
QPOINT, 1, 1
QPOINT, 6, 6
DISP, 2, 2
DISP, 6, 6
*BOUNDARY, OP=NEW, AMPLITUDE=STROKE
DISP, 1, 1, 0.025
*OUTPUT, FIELD, NUMBER INTERVAL=1
*NODE OUTPUT
U, RF
*ELEMENT OUTPUT, ELSET=GHOST
SDV
*NODE PRINT, NSET=QPOINT, FREQUENCY=41, SUMMARY=NO, TOTALS=NO
U1, U2, RF1, RF2
*END STEP
*STEP, NAME=CYCLE_147, INC=2000, EXTRAPOLATION=NO
*STATIC
1., 41, 4.1e-06, 1.
*CONTROLS, PARAMETERS=TIME INCREMENTATION
8, 20, 9, 30, 10, 4, 12, 20
*CONTROLS, PARAMETERS=LINE SEARCH
5, , , , 
*BOUNDARY, OP=NEW
QPOINT, 1, 1
QPOINT, 6, 6
DISP, 2, 2
DISP, 6, 6
*BOUNDARY, OP=NEW, AMPLITUDE=STROKE
DISP, 1, 1, 0.025
*OUTPUT, FIELD, NUMBER INTERVAL=1
*NODE OUTPUT
U, RF
*ELEMENT OUTPUT, ELSET=GHOST
SDV
*NODE PRINT, NSET=QPOINT, FREQUENCY=41, SUMMARY=NO, TOTALS=NO
U1, U2, RF1, RF2
*END STEP
*STEP, NAME=CYCLE_148, INC=2000, EXTRAPOLATION=NO
*STATIC
1., 41, 4.1e-06, 1.
*CONTROLS, PARAMETERS=TIME INCREMENTATION
8, 20, 9, 30, 10, 4, 12, 20
*CONTROLS, PARAMETERS=LINE SEARCH
5, , , , 
*BOUNDARY, OP=NEW
QPOINT, 1, 1
QPOINT, 6, 6
DISP, 2, 2
DISP, 6, 6
*BOUNDARY, OP=NEW, AMPLITUDE=STROKE
DISP, 1, 1, 0.025
*OUTPUT, FIELD, NUMBER INTERVAL=1
*NODE OUTPUT
U, RF
*ELEMENT OUTPUT, ELSET=GHOST
SDV
*NODE PRINT, NSET=QPOINT, FREQUENCY=41, SUMMARY=NO, TOTALS=NO
U1, U2, RF1, RF2
*END STEP
*STEP, NAME=CYCLE_149, INC=2000, EXTRAPOLATION=NO
*STATIC
1., 41, 4.1e-06, 1.
*CONTROLS, PARAMETERS=TIME INCREMENTATION
8, 20, 9, 30, 10, 4, 12, 20
*CONTROLS, PARAMETERS=LINE SEARCH
5, , , , 
*BOUNDARY, OP=NEW
QPOINT, 1, 1
QPOINT, 6, 6
DISP, 2, 2
DISP, 6, 6
*BOUNDARY, OP=NEW, AMPLITUDE=STROKE
DISP, 1, 1, 0.025
*OUTPUT, FIELD, NUMBER INTERVAL=1
*NODE OUTPUT
U, RF
*ELEMENT OUTPUT, ELSET=GHOST
SDV
*NODE PRINT, NSET=QPOINT, FREQUENCY=41, SUMMARY=NO, TOTALS=NO
U1, U2, RF1, RF2
*END STEP
*STEP, NAME=CYCLE_150, INC=2000, EXTRAPOLATION=NO
*STATIC
1., 41, 4.1e-06, 1.
*CONTROLS, PARAMETERS=TIME INCREMENTATION
8, 20, 9, 30, 10, 4, 12, 20
*CONTROLS, PARAMETERS=LINE SEARCH
5, , , , 
*BOUNDARY, OP=NEW
QPOINT, 1, 1
QPOINT, 6, 6
DISP, 2, 2
DISP, 6, 6
*BOUNDARY, OP=NEW, AMPLITUDE=STROKE
DISP, 1, 1, 0.025
*OUTPUT, FIELD, NUMBER INTERVAL=1
*NODE OUTPUT
U, RF
*ELEMENT OUTPUT, ELSET=GHOST
SDV
*NODE PRINT, NSET=QPOINT, FREQUENCY=41, SUMMARY=NO, TOTALS=NO
U1, U2, RF1, RF2
*END STEP
*STEP, NAME=CYCLE_151, INC=2000, EXTRAPOLATION=NO
*STATIC
1., 41, 4.1e-06, 1.
*CONTROLS, PARAMETERS=TIME INCREMENTATION
8, 20, 9, 30, 10, 4, 12, 20
*CONTROLS, PARAMETERS=LINE SEARCH
5, , , , 
*BOUNDARY, OP=NEW
QPOINT, 1, 1
QPOINT, 6, 6
DISP, 2, 2
DISP, 6, 6
*BOUNDARY, OP=NEW, AMPLITUDE=STROKE
DISP, 1, 1, 0.025
*OUTPUT, FIELD, NUMBER INTERVAL=1
*NODE OUTPUT
U, RF
*ELEMENT OUTPUT, ELSET=GHOST
SDV
*NODE PRINT, NSET=QPOINT, FREQUENCY=41, SUMMARY=NO, TOTALS=NO
U1, U2, RF1, RF2
*END STEP
*STEP, NAME=CYCLE_152, INC=2000, EXTRAPOLATION=NO
*STATIC
1., 41, 4.1e-06, 1.
*CONTROLS, PARAMETERS=TIME INCREMENTATION
8, 20, 9, 30, 10, 4, 12, 20
*CONTROLS, PARAMETERS=LINE SEARCH
5, , , , 
*BOUNDARY, OP=NEW
QPOINT, 1, 1
QPOINT, 6, 6
DISP, 2, 2
DISP, 6, 6
*BOUNDARY, OP=NEW, AMPLITUDE=STROKE
DISP, 1, 1, 0.025
*OUTPUT, FIELD, NUMBER INTERVAL=1
*NODE OUTPUT
U, RF
*ELEMENT OUTPUT, ELSET=GHOST
SDV
*NODE PRINT, NSET=QPOINT, FREQUENCY=41, SUMMARY=NO, TOTALS=NO
U1, U2, RF1, RF2
*END STEP
*STEP, NAME=CYCLE_153, INC=2000, EXTRAPOLATION=NO
*STATIC
1., 41, 4.1e-06, 1.
*CONTROLS, PARAMETERS=TIME INCREMENTATION
8, 20, 9, 30, 10, 4, 12, 20
*CONTROLS, PARAMETERS=LINE SEARCH
5, , , , 
*BOUNDARY, OP=NEW
QPOINT, 1, 1
QPOINT, 6, 6
DISP, 2, 2
DISP, 6, 6
*BOUNDARY, OP=NEW, AMPLITUDE=STROKE
DISP, 1, 1, 0.025
*OUTPUT, FIELD, NUMBER INTERVAL=1
*NODE OUTPUT
U, RF
*ELEMENT OUTPUT, ELSET=GHOST
SDV
*NODE PRINT, NSET=QPOINT, FREQUENCY=41, SUMMARY=NO, TOTALS=NO
U1, U2, RF1, RF2
*END STEP
*STEP, NAME=CYCLE_154, INC=2000, EXTRAPOLATION=NO
*STATIC
1., 41, 4.1e-06, 1.
*CONTROLS, PARAMETERS=TIME INCREMENTATION
8, 20, 9, 30, 10, 4, 12, 20
*CONTROLS, PARAMETERS=LINE SEARCH
5, , , , 
*BOUNDARY, OP=NEW
QPOINT, 1, 1
QPOINT, 6, 6
DISP, 2, 2
DISP, 6, 6
*BOUNDARY, OP=NEW, AMPLITUDE=STROKE
DISP, 1, 1, 0.025
*OUTPUT, FIELD, NUMBER INTERVAL=1
*NODE OUTPUT
U, RF
*ELEMENT OUTPUT, ELSET=GHOST
SDV
*NODE PRINT, NSET=QPOINT, FREQUENCY=41, SUMMARY=NO, TOTALS=NO
U1, U2, RF1, RF2
*END STEP
*STEP, NAME=CYCLE_155, INC=2000, EXTRAPOLATION=NO
*STATIC
1., 41, 4.1e-06, 1.
*CONTROLS, PARAMETERS=TIME INCREMENTATION
8, 20, 9, 30, 10, 4, 12, 20
*CONTROLS, PARAMETERS=LINE SEARCH
5, , , , 
*BOUNDARY, OP=NEW
QPOINT, 1, 1
QPOINT, 6, 6
DISP, 2, 2
DISP, 6, 6
*BOUNDARY, OP=NEW, AMPLITUDE=STROKE
DISP, 1, 1, 0.025
*OUTPUT, FIELD, NUMBER INTERVAL=1
*NODE OUTPUT
U, RF
*ELEMENT OUTPUT, ELSET=GHOST
SDV
*NODE PRINT, NSET=QPOINT, FREQUENCY=41, SUMMARY=NO, TOTALS=NO
U1, U2, RF1, RF2
*END STEP
*STEP, NAME=CYCLE_156, INC=2000, EXTRAPOLATION=NO
*STATIC
1., 41, 4.1e-06, 1.
*CONTROLS, PARAMETERS=TIME INCREMENTATION
8, 20, 9, 30, 10, 4, 12, 20
*CONTROLS, PARAMETERS=LINE SEARCH
5, , , , 
*BOUNDARY, OP=NEW
QPOINT, 1, 1
QPOINT, 6, 6
DISP, 2, 2
DISP, 6, 6
*BOUNDARY, OP=NEW, AMPLITUDE=STROKE
DISP, 1, 1, 0.025
*OUTPUT, FIELD, NUMBER INTERVAL=1
*NODE OUTPUT
U, RF
*ELEMENT OUTPUT, ELSET=GHOST
SDV
*NODE PRINT, NSET=QPOINT, FREQUENCY=41, SUMMARY=NO, TOTALS=NO
U1, U2, RF1, RF2
*END STEP
*STEP, NAME=CYCLE_157, INC=2000, EXTRAPOLATION=NO
*STATIC
1., 41, 4.1e-06, 1.
*CONTROLS, PARAMETERS=TIME INCREMENTATION
8, 20, 9, 30, 10, 4, 12, 20
*CONTROLS, PARAMETERS=LINE SEARCH
5, , , , 
*BOUNDARY, OP=NEW
QPOINT, 1, 1
QPOINT, 6, 6
DISP, 2, 2
DISP, 6, 6
*BOUNDARY, OP=NEW, AMPLITUDE=STROKE
DISP, 1, 1, 0.025
*OUTPUT, FIELD, NUMBER INTERVAL=1
*NODE OUTPUT
U, RF
*ELEMENT OUTPUT, ELSET=GHOST
SDV
*NODE PRINT, NSET=QPOINT, FREQUENCY=41, SUMMARY=NO, TOTALS=NO
U1, U2, RF1, RF2
*END STEP
*STEP, NAME=CYCLE_158, INC=2000, EXTRAPOLATION=NO
*STATIC
1., 41, 4.1e-06, 1.
*CONTROLS, PARAMETERS=TIME INCREMENTATION
8, 20, 9, 30, 10, 4, 12, 20
*CONTROLS, PARAMETERS=LINE SEARCH
5, , , , 
*BOUNDARY, OP=NEW
QPOINT, 1, 1
QPOINT, 6, 6
DISP, 2, 2
DISP, 6, 6
*BOUNDARY, OP=NEW, AMPLITUDE=STROKE
DISP, 1, 1, 0.025
*OUTPUT, FIELD, NUMBER INTERVAL=1
*NODE OUTPUT
U, RF
*ELEMENT OUTPUT, ELSET=GHOST
SDV
*NODE PRINT, NSET=QPOINT, FREQUENCY=41, SUMMARY=NO, TOTALS=NO
U1, U2, RF1, RF2
*END STEP
*STEP, NAME=CYCLE_159, INC=2000, EXTRAPOLATION=NO
*STATIC
1., 41, 4.1e-06, 1.
*CONTROLS, PARAMETERS=TIME INCREMENTATION
8, 20, 9, 30, 10, 4, 12, 20
*CONTROLS, PARAMETERS=LINE SEARCH
5, , , , 
*BOUNDARY, OP=NEW
QPOINT, 1, 1
QPOINT, 6, 6
DISP, 2, 2
DISP, 6, 6
*BOUNDARY, OP=NEW, AMPLITUDE=STROKE
DISP, 1, 1, 0.025
*OUTPUT, FIELD, NUMBER INTERVAL=1
*NODE OUTPUT
U, RF
*ELEMENT OUTPUT, ELSET=GHOST
SDV
*NODE PRINT, NSET=QPOINT, FREQUENCY=41, SUMMARY=NO, TOTALS=NO
U1, U2, RF1, RF2
*END STEP
*STEP, NAME=CYCLE_160, INC=2000, EXTRAPOLATION=NO
*STATIC
1., 41, 4.1e-06, 1.
*CONTROLS, PARAMETERS=TIME INCREMENTATION
8, 20, 9, 30, 10, 4, 12, 20
*CONTROLS, PARAMETERS=LINE SEARCH
5, , , , 
*BOUNDARY, OP=NEW
QPOINT, 1, 1
QPOINT, 6, 6
DISP, 2, 2
DISP, 6, 6
*BOUNDARY, OP=NEW, AMPLITUDE=STROKE
DISP, 1, 1, 0.025
*OUTPUT, FIELD, NUMBER INTERVAL=1
*NODE OUTPUT
U, RF
*ELEMENT OUTPUT, ELSET=GHOST
SDV
*NODE PRINT, NSET=QPOINT, FREQUENCY=41, SUMMARY=NO, TOTALS=NO
U1, U2, RF1, RF2
*END STEP
*STEP, NAME=CYCLE_161, INC=2000, EXTRAPOLATION=NO
*STATIC
1., 41, 4.1e-06, 1.
*CONTROLS, PARAMETERS=TIME INCREMENTATION
8, 20, 9, 30, 10, 4, 12, 20
*CONTROLS, PARAMETERS=LINE SEARCH
5, , , , 
*BOUNDARY, OP=NEW
QPOINT, 1, 1
QPOINT, 6, 6
DISP, 2, 2
DISP, 6, 6
*BOUNDARY, OP=NEW, AMPLITUDE=STROKE
DISP, 1, 1, 0.025
*OUTPUT, FIELD, NUMBER INTERVAL=1
*NODE OUTPUT
U, RF
*ELEMENT OUTPUT, ELSET=GHOST
SDV
*NODE PRINT, NSET=QPOINT, FREQUENCY=41, SUMMARY=NO, TOTALS=NO
U1, U2, RF1, RF2
*END STEP
*STEP, NAME=CYCLE_162, INC=2000, EXTRAPOLATION=NO
*STATIC
1., 41, 4.1e-06, 1.
*CONTROLS, PARAMETERS=TIME INCREMENTATION
8, 20, 9, 30, 10, 4, 12, 20
*CONTROLS, PARAMETERS=LINE SEARCH
5, , , , 
*BOUNDARY, OP=NEW
QPOINT, 1, 1
QPOINT, 6, 6
DISP, 2, 2
DISP, 6, 6
*BOUNDARY, OP=NEW, AMPLITUDE=STROKE
DISP, 1, 1, 0.025
*OUTPUT, FIELD, NUMBER INTERVAL=1
*NODE OUTPUT
U, RF
*ELEMENT OUTPUT, ELSET=GHOST
SDV
*NODE PRINT, NSET=QPOINT, FREQUENCY=41, SUMMARY=NO, TOTALS=NO
U1, U2, RF1, RF2
*END STEP
*STEP, NAME=CYCLE_163, INC=2000, EXTRAPOLATION=NO
*STATIC
1., 41, 4.1e-06, 1.
*CONTROLS, PARAMETERS=TIME INCREMENTATION
8, 20, 9, 30, 10, 4, 12, 20
*CONTROLS, PARAMETERS=LINE SEARCH
5, , , , 
*BOUNDARY, OP=NEW
QPOINT, 1, 1
QPOINT, 6, 6
DISP, 2, 2
DISP, 6, 6
*BOUNDARY, OP=NEW, AMPLITUDE=STROKE
DISP, 1, 1, 0.025
*OUTPUT, FIELD, NUMBER INTERVAL=1
*NODE OUTPUT
U, RF
*ELEMENT OUTPUT, ELSET=GHOST
SDV
*NODE PRINT, NSET=QPOINT, FREQUENCY=41, SUMMARY=NO, TOTALS=NO
U1, U2, RF1, RF2
*END STEP
*STEP, NAME=CYCLE_164, INC=2000, EXTRAPOLATION=NO
*STATIC
1., 41, 4.1e-06, 1.
*CONTROLS, PARAMETERS=TIME INCREMENTATION
8, 20, 9, 30, 10, 4, 12, 20
*CONTROLS, PARAMETERS=LINE SEARCH
5, , , , 
*BOUNDARY, OP=NEW
QPOINT, 1, 1
QPOINT, 6, 6
DISP, 2, 2
DISP, 6, 6
*BOUNDARY, OP=NEW, AMPLITUDE=STROKE
DISP, 1, 1, 0.025
*OUTPUT, FIELD, NUMBER INTERVAL=1
*NODE OUTPUT
U, RF
*ELEMENT OUTPUT, ELSET=GHOST
SDV
*NODE PRINT, NSET=QPOINT, FREQUENCY=41, SUMMARY=NO, TOTALS=NO
U1, U2, RF1, RF2
*END STEP
*STEP, NAME=CYCLE_165, INC=2000, EXTRAPOLATION=NO
*STATIC
1., 41, 4.1e-06, 1.
*CONTROLS, PARAMETERS=TIME INCREMENTATION
8, 20, 9, 30, 10, 4, 12, 20
*CONTROLS, PARAMETERS=LINE SEARCH
5, , , , 
*BOUNDARY, OP=NEW
QPOINT, 1, 1
QPOINT, 6, 6
DISP, 2, 2
DISP, 6, 6
*BOUNDARY, OP=NEW, AMPLITUDE=STROKE
DISP, 1, 1, 0.025
*OUTPUT, FIELD, NUMBER INTERVAL=1
*NODE OUTPUT
U, RF
*ELEMENT OUTPUT, ELSET=GHOST
SDV
*NODE PRINT, NSET=QPOINT, FREQUENCY=41, SUMMARY=NO, TOTALS=NO
U1, U2, RF1, RF2
*END STEP
*STEP, NAME=CYCLE_166, INC=2000, EXTRAPOLATION=NO
*STATIC
1., 41, 4.1e-06, 1.
*CONTROLS, PARAMETERS=TIME INCREMENTATION
8, 20, 9, 30, 10, 4, 12, 20
*CONTROLS, PARAMETERS=LINE SEARCH
5, , , , 
*BOUNDARY, OP=NEW
QPOINT, 1, 1
QPOINT, 6, 6
DISP, 2, 2
DISP, 6, 6
*BOUNDARY, OP=NEW, AMPLITUDE=STROKE
DISP, 1, 1, 0.025
*OUTPUT, FIELD, NUMBER INTERVAL=1
*NODE OUTPUT
U, RF
*ELEMENT OUTPUT, ELSET=GHOST
SDV
*NODE PRINT, NSET=QPOINT, FREQUENCY=41, SUMMARY=NO, TOTALS=NO
U1, U2, RF1, RF2
*END STEP
*STEP, NAME=CYCLE_167, INC=2000, EXTRAPOLATION=NO
*STATIC
1., 41, 4.1e-06, 1.
*CONTROLS, PARAMETERS=TIME INCREMENTATION
8, 20, 9, 30, 10, 4, 12, 20
*CONTROLS, PARAMETERS=LINE SEARCH
5, , , , 
*BOUNDARY, OP=NEW
QPOINT, 1, 1
QPOINT, 6, 6
DISP, 2, 2
DISP, 6, 6
*BOUNDARY, OP=NEW, AMPLITUDE=STROKE
DISP, 1, 1, 0.025
*OUTPUT, FIELD, NUMBER INTERVAL=1
*NODE OUTPUT
U, RF
*ELEMENT OUTPUT, ELSET=GHOST
SDV
*NODE PRINT, NSET=QPOINT, FREQUENCY=41, SUMMARY=NO, TOTALS=NO
U1, U2, RF1, RF2
*END STEP
*STEP, NAME=CYCLE_168, INC=2000, EXTRAPOLATION=NO
*STATIC
1., 41, 4.1e-06, 1.
*CONTROLS, PARAMETERS=TIME INCREMENTATION
8, 20, 9, 30, 10, 4, 12, 20
*CONTROLS, PARAMETERS=LINE SEARCH
5, , , , 
*BOUNDARY, OP=NEW
QPOINT, 1, 1
QPOINT, 6, 6
DISP, 2, 2
DISP, 6, 6
*BOUNDARY, OP=NEW, AMPLITUDE=STROKE
DISP, 1, 1, 0.025
*OUTPUT, FIELD, NUMBER INTERVAL=1
*NODE OUTPUT
U, RF
*ELEMENT OUTPUT, ELSET=GHOST
SDV
*NODE PRINT, NSET=QPOINT, FREQUENCY=41, SUMMARY=NO, TOTALS=NO
U1, U2, RF1, RF2
*END STEP
*STEP, NAME=CYCLE_169, INC=2000, EXTRAPOLATION=NO
*STATIC
1., 41, 4.1e-06, 1.
*CONTROLS, PARAMETERS=TIME INCREMENTATION
8, 20, 9, 30, 10, 4, 12, 20
*CONTROLS, PARAMETERS=LINE SEARCH
5, , , , 
*BOUNDARY, OP=NEW
QPOINT, 1, 1
QPOINT, 6, 6
DISP, 2, 2
DISP, 6, 6
*BOUNDARY, OP=NEW, AMPLITUDE=STROKE
DISP, 1, 1, 0.025
*OUTPUT, FIELD, NUMBER INTERVAL=1
*NODE OUTPUT
U, RF
*ELEMENT OUTPUT, ELSET=GHOST
SDV
*NODE PRINT, NSET=QPOINT, FREQUENCY=41, SUMMARY=NO, TOTALS=NO
U1, U2, RF1, RF2
*END STEP
*STEP, NAME=CYCLE_170, INC=2000, EXTRAPOLATION=NO
*STATIC
1., 41, 4.1e-06, 1.
*CONTROLS, PARAMETERS=TIME INCREMENTATION
8, 20, 9, 30, 10, 4, 12, 20
*CONTROLS, PARAMETERS=LINE SEARCH
5, , , , 
*BOUNDARY, OP=NEW
QPOINT, 1, 1
QPOINT, 6, 6
DISP, 2, 2
DISP, 6, 6
*BOUNDARY, OP=NEW, AMPLITUDE=STROKE
DISP, 1, 1, 0.025
*OUTPUT, FIELD, NUMBER INTERVAL=1
*NODE OUTPUT
U, RF
*ELEMENT OUTPUT, ELSET=GHOST
SDV
*NODE PRINT, NSET=QPOINT, FREQUENCY=41, SUMMARY=NO, TOTALS=NO
U1, U2, RF1, RF2
*END STEP
*STEP, NAME=CYCLE_171, INC=2000, EXTRAPOLATION=NO
*STATIC
1., 41, 4.1e-06, 1.
*CONTROLS, PARAMETERS=TIME INCREMENTATION
8, 20, 9, 30, 10, 4, 12, 20
*CONTROLS, PARAMETERS=LINE SEARCH
5, , , , 
*BOUNDARY, OP=NEW
QPOINT, 1, 1
QPOINT, 6, 6
DISP, 2, 2
DISP, 6, 6
*BOUNDARY, OP=NEW, AMPLITUDE=STROKE
DISP, 1, 1, 0.025
*OUTPUT, FIELD, NUMBER INTERVAL=1
*NODE OUTPUT
U, RF
*ELEMENT OUTPUT, ELSET=GHOST
SDV
*NODE PRINT, NSET=QPOINT, FREQUENCY=41, SUMMARY=NO, TOTALS=NO
U1, U2, RF1, RF2
*END STEP
*STEP, NAME=CYCLE_172, INC=2000, EXTRAPOLATION=NO
*STATIC
1., 41, 4.1e-06, 1.
*CONTROLS, PARAMETERS=TIME INCREMENTATION
8, 20, 9, 30, 10, 4, 12, 20
*CONTROLS, PARAMETERS=LINE SEARCH
5, , , , 
*BOUNDARY, OP=NEW
QPOINT, 1, 1
QPOINT, 6, 6
DISP, 2, 2
DISP, 6, 6
*BOUNDARY, OP=NEW, AMPLITUDE=STROKE
DISP, 1, 1, 0.025
*OUTPUT, FIELD, NUMBER INTERVAL=1
*NODE OUTPUT
U, RF
*ELEMENT OUTPUT, ELSET=GHOST
SDV
*NODE PRINT, NSET=QPOINT, FREQUENCY=41, SUMMARY=NO, TOTALS=NO
U1, U2, RF1, RF2
*END STEP
*STEP, NAME=CYCLE_173, INC=2000, EXTRAPOLATION=NO
*STATIC
1., 41, 4.1e-06, 1.
*CONTROLS, PARAMETERS=TIME INCREMENTATION
8, 20, 9, 30, 10, 4, 12, 20
*CONTROLS, PARAMETERS=LINE SEARCH
5, , , , 
*BOUNDARY, OP=NEW
QPOINT, 1, 1
QPOINT, 6, 6
DISP, 2, 2
DISP, 6, 6
*BOUNDARY, OP=NEW, AMPLITUDE=STROKE
DISP, 1, 1, 0.025
*OUTPUT, FIELD, NUMBER INTERVAL=1
*NODE OUTPUT
U, RF
*ELEMENT OUTPUT, ELSET=GHOST
SDV
*NODE PRINT, NSET=QPOINT, FREQUENCY=41, SUMMARY=NO, TOTALS=NO
U1, U2, RF1, RF2
*END STEP
*STEP, NAME=CYCLE_174, INC=2000, EXTRAPOLATION=NO
*STATIC
1., 41, 4.1e-06, 1.
*CONTROLS, PARAMETERS=TIME INCREMENTATION
8, 20, 9, 30, 10, 4, 12, 20
*CONTROLS, PARAMETERS=LINE SEARCH
5, , , , 
*BOUNDARY, OP=NEW
QPOINT, 1, 1
QPOINT, 6, 6
DISP, 2, 2
DISP, 6, 6
*BOUNDARY, OP=NEW, AMPLITUDE=STROKE
DISP, 1, 1, 0.025
*OUTPUT, FIELD, NUMBER INTERVAL=1
*NODE OUTPUT
U, RF
*ELEMENT OUTPUT, ELSET=GHOST
SDV
*NODE PRINT, NSET=QPOINT, FREQUENCY=41, SUMMARY=NO, TOTALS=NO
U1, U2, RF1, RF2
*END STEP
*STEP, NAME=CYCLE_175, INC=2000, EXTRAPOLATION=NO
*STATIC
1., 41, 4.1e-06, 1.
*CONTROLS, PARAMETERS=TIME INCREMENTATION
8, 20, 9, 30, 10, 4, 12, 20
*CONTROLS, PARAMETERS=LINE SEARCH
5, , , , 
*BOUNDARY, OP=NEW
QPOINT, 1, 1
QPOINT, 6, 6
DISP, 2, 2
DISP, 6, 6
*BOUNDARY, OP=NEW, AMPLITUDE=STROKE
DISP, 1, 1, 0.025
*OUTPUT, FIELD, NUMBER INTERVAL=1
*NODE OUTPUT
U, RF
*ELEMENT OUTPUT, ELSET=GHOST
SDV
*NODE PRINT, NSET=QPOINT, FREQUENCY=41, SUMMARY=NO, TOTALS=NO
U1, U2, RF1, RF2
*END STEP
*STEP, NAME=CYCLE_176, INC=2000, EXTRAPOLATION=NO
*STATIC
1., 41, 4.1e-06, 1.
*CONTROLS, PARAMETERS=TIME INCREMENTATION
8, 20, 9, 30, 10, 4, 12, 20
*CONTROLS, PARAMETERS=LINE SEARCH
5, , , , 
*BOUNDARY, OP=NEW
QPOINT, 1, 1
QPOINT, 6, 6
DISP, 2, 2
DISP, 6, 6
*BOUNDARY, OP=NEW, AMPLITUDE=STROKE
DISP, 1, 1, 0.025
*OUTPUT, FIELD, NUMBER INTERVAL=1
*NODE OUTPUT
U, RF
*ELEMENT OUTPUT, ELSET=GHOST
SDV
*NODE PRINT, NSET=QPOINT, FREQUENCY=41, SUMMARY=NO, TOTALS=NO
U1, U2, RF1, RF2
*END STEP
*STEP, NAME=CYCLE_177, INC=2000, EXTRAPOLATION=NO
*STATIC
1., 41, 4.1e-06, 1.
*CONTROLS, PARAMETERS=TIME INCREMENTATION
8, 20, 9, 30, 10, 4, 12, 20
*CONTROLS, PARAMETERS=LINE SEARCH
5, , , , 
*BOUNDARY, OP=NEW
QPOINT, 1, 1
QPOINT, 6, 6
DISP, 2, 2
DISP, 6, 6
*BOUNDARY, OP=NEW, AMPLITUDE=STROKE
DISP, 1, 1, 0.025
*OUTPUT, FIELD, NUMBER INTERVAL=1
*NODE OUTPUT
U, RF
*ELEMENT OUTPUT, ELSET=GHOST
SDV
*NODE PRINT, NSET=QPOINT, FREQUENCY=41, SUMMARY=NO, TOTALS=NO
U1, U2, RF1, RF2
*END STEP
*STEP, NAME=CYCLE_178, INC=2000, EXTRAPOLATION=NO
*STATIC
1., 41, 4.1e-06, 1.
*CONTROLS, PARAMETERS=TIME INCREMENTATION
8, 20, 9, 30, 10, 4, 12, 20
*CONTROLS, PARAMETERS=LINE SEARCH
5, , , , 
*BOUNDARY, OP=NEW
QPOINT, 1, 1
QPOINT, 6, 6
DISP, 2, 2
DISP, 6, 6
*BOUNDARY, OP=NEW, AMPLITUDE=STROKE
DISP, 1, 1, 0.025
*OUTPUT, FIELD, NUMBER INTERVAL=1
*NODE OUTPUT
U, RF
*ELEMENT OUTPUT, ELSET=GHOST
SDV
*NODE PRINT, NSET=QPOINT, FREQUENCY=41, SUMMARY=NO, TOTALS=NO
U1, U2, RF1, RF2
*END STEP
*STEP, NAME=CYCLE_179, INC=2000, EXTRAPOLATION=NO
*STATIC
1., 41, 4.1e-06, 1.
*CONTROLS, PARAMETERS=TIME INCREMENTATION
8, 20, 9, 30, 10, 4, 12, 20
*CONTROLS, PARAMETERS=LINE SEARCH
5, , , , 
*BOUNDARY, OP=NEW
QPOINT, 1, 1
QPOINT, 6, 6
DISP, 2, 2
DISP, 6, 6
*BOUNDARY, OP=NEW, AMPLITUDE=STROKE
DISP, 1, 1, 0.025
*OUTPUT, FIELD, NUMBER INTERVAL=1
*NODE OUTPUT
U, RF
*ELEMENT OUTPUT, ELSET=GHOST
SDV
*NODE PRINT, NSET=QPOINT, FREQUENCY=41, SUMMARY=NO, TOTALS=NO
U1, U2, RF1, RF2
*END STEP
*STEP, NAME=CYCLE_180, INC=2000, EXTRAPOLATION=NO
*STATIC
1., 41, 4.1e-06, 1.
*CONTROLS, PARAMETERS=TIME INCREMENTATION
8, 20, 9, 30, 10, 4, 12, 20
*CONTROLS, PARAMETERS=LINE SEARCH
5, , , , 
*BOUNDARY, OP=NEW
QPOINT, 1, 1
QPOINT, 6, 6
DISP, 2, 2
DISP, 6, 6
*BOUNDARY, OP=NEW, AMPLITUDE=STROKE
DISP, 1, 1, 0.025
*OUTPUT, FIELD, NUMBER INTERVAL=1
*NODE OUTPUT
U, RF
*ELEMENT OUTPUT, ELSET=GHOST
SDV
*NODE PRINT, NSET=QPOINT, FREQUENCY=41, SUMMARY=NO, TOTALS=NO
U1, U2, RF1, RF2
*END STEP
