** ======================================================================
** LevelSetWear, input file of an example
**
** Written by Inigo Llavori
**
** I. Llavori, Wear simulation on a fixed mesh with level sets
** and immersed frictional contact,
** submitted for publication. Mondragon Unibertsitatea.
** https://github.com/illavori/LevelSetWear       BSD 3-Clause
** ======================================================================
*HEADING
Plate with a hole (Kirsch), fixed 64 x 64 grid, cut elements
*NODE, NSET=NALL
1, 0, 0
2, 0.0625, 0
3, 0.125, 0
4, 0.1875, 0
5, 0.25, 0
6, 0.3125, 0
7, 0.375, 0
8, 0.4375, 0
9, 0.5, 0
10, 0.5625, 0
11, 0.625, 0
12, 0.6875, 0
13, 0.75, 0
14, 0.8125, 0
15, 0.875, 0
16, 0.9375, 0
17, 1, 0
18, 1.0625, 0
19, 1.125, 0
20, 1.1875, 0
21, 1.25, 0
22, 1.3125, 0
23, 1.375, 0
24, 1.4375, 0
25, 1.5, 0
26, 1.5625, 0
27, 1.625, 0
28, 1.6875, 0
29, 1.75, 0
30, 1.8125, 0
31, 1.875, 0
32, 1.9375, 0
33, 2, 0
34, 2.0625, 0
35, 2.125, 0
36, 2.1875, 0
37, 2.25, 0
38, 2.3125, 0
39, 2.375, 0
40, 2.4375, 0
41, 2.5, 0
42, 2.5625, 0
43, 2.625, 0
44, 2.6875, 0
45, 2.75, 0
46, 2.8125, 0
47, 2.875, 0
48, 2.9375, 0
49, 3, 0
50, 3.0625, 0
51, 3.125, 0
52, 3.1875, 0
53, 3.25, 0
54, 3.3125, 0
55, 3.375, 0
56, 3.4375, 0
57, 3.5, 0
58, 3.5625, 0
59, 3.625, 0
60, 3.6875, 0
61, 3.75, 0
62, 3.8125, 0
63, 3.875, 0
64, 3.9375, 0
65, 4, 0
66, 0, 0.0625
67, 0.0625, 0.0625
68, 0.125, 0.0625
69, 0.1875, 0.0625
70, 0.25, 0.0625
71, 0.3125, 0.0625
72, 0.375, 0.0625
73, 0.4375, 0.0625
74, 0.5, 0.0625
75, 0.5625, 0.0625
76, 0.625, 0.0625
77, 0.6875, 0.0625
78, 0.75, 0.0625
79, 0.8125, 0.0625
80, 0.875, 0.0625
81, 0.9375, 0.0625
82, 1, 0.0625
83, 1.0625, 0.0625
84, 1.125, 0.0625
85, 1.1875, 0.0625
86, 1.25, 0.0625
87, 1.3125, 0.0625
88, 1.375, 0.0625
89, 1.4375, 0.0625
90, 1.5, 0.0625
91, 1.5625, 0.0625
92, 1.625, 0.0625
93, 1.6875, 0.0625
94, 1.75, 0.0625
95, 1.8125, 0.0625
96, 1.875, 0.0625
97, 1.9375, 0.0625
98, 2, 0.0625
99, 2.0625, 0.0625
100, 2.125, 0.0625
101, 2.1875, 0.0625
102, 2.25, 0.0625
103, 2.3125, 0.0625
104, 2.375, 0.0625
105, 2.4375, 0.0625
106, 2.5, 0.0625
107, 2.5625, 0.0625
108, 2.625, 0.0625
109, 2.6875, 0.0625
110, 2.75, 0.0625
111, 2.8125, 0.0625
112, 2.875, 0.0625
113, 2.9375, 0.0625
114, 3, 0.0625
115, 3.0625, 0.0625
116, 3.125, 0.0625
117, 3.1875, 0.0625
118, 3.25, 0.0625
119, 3.3125, 0.0625
120, 3.375, 0.0625
121, 3.4375, 0.0625
122, 3.5, 0.0625
123, 3.5625, 0.0625
124, 3.625, 0.0625
125, 3.6875, 0.0625
126, 3.75, 0.0625
127, 3.8125, 0.0625
128, 3.875, 0.0625
129, 3.9375, 0.0625
130, 4, 0.0625
131, 0, 0.125
132, 0.0625, 0.125
133, 0.125, 0.125
134, 0.1875, 0.125
135, 0.25, 0.125
136, 0.3125, 0.125
137, 0.375, 0.125
138, 0.4375, 0.125
139, 0.5, 0.125
140, 0.5625, 0.125
141, 0.625, 0.125
142, 0.6875, 0.125
143, 0.75, 0.125
144, 0.8125, 0.125
145, 0.875, 0.125
146, 0.9375, 0.125
147, 1, 0.125
148, 1.0625, 0.125
149, 1.125, 0.125
150, 1.1875, 0.125
151, 1.25, 0.125
152, 1.3125, 0.125
153, 1.375, 0.125
154, 1.4375, 0.125
155, 1.5, 0.125
156, 1.5625, 0.125
157, 1.625, 0.125
158, 1.6875, 0.125
159, 1.75, 0.125
160, 1.8125, 0.125
161, 1.875, 0.125
162, 1.9375, 0.125
163, 2, 0.125
164, 2.0625, 0.125
165, 2.125, 0.125
166, 2.1875, 0.125
167, 2.25, 0.125
168, 2.3125, 0.125
169, 2.375, 0.125
170, 2.4375, 0.125
171, 2.5, 0.125
172, 2.5625, 0.125
173, 2.625, 0.125
174, 2.6875, 0.125
175, 2.75, 0.125
176, 2.8125, 0.125
177, 2.875, 0.125
178, 2.9375, 0.125
179, 3, 0.125
180, 3.0625, 0.125
181, 3.125, 0.125
182, 3.1875, 0.125
183, 3.25, 0.125
184, 3.3125, 0.125
185, 3.375, 0.125
186, 3.4375, 0.125
187, 3.5, 0.125
188, 3.5625, 0.125
189, 3.625, 0.125
190, 3.6875, 0.125
191, 3.75, 0.125
192, 3.8125, 0.125
193, 3.875, 0.125
194, 3.9375, 0.125
195, 4, 0.125
196, 0, 0.1875
197, 0.0625, 0.1875
198, 0.125, 0.1875
199, 0.1875, 0.1875
200, 0.25, 0.1875
201, 0.3125, 0.1875
202, 0.375, 0.1875
203, 0.4375, 0.1875
204, 0.5, 0.1875
205, 0.5625, 0.1875
206, 0.625, 0.1875
207, 0.6875, 0.1875
208, 0.75, 0.1875
209, 0.8125, 0.1875
210, 0.875, 0.1875
211, 0.9375, 0.1875
212, 1, 0.1875
213, 1.0625, 0.1875
214, 1.125, 0.1875
215, 1.1875, 0.1875
216, 1.25, 0.1875
217, 1.3125, 0.1875
218, 1.375, 0.1875
219, 1.4375, 0.1875
220, 1.5, 0.1875
221, 1.5625, 0.1875
222, 1.625, 0.1875
223, 1.6875, 0.1875
224, 1.75, 0.1875
225, 1.8125, 0.1875
226, 1.875, 0.1875
227, 1.9375, 0.1875
228, 2, 0.1875
229, 2.0625, 0.1875
230, 2.125, 0.1875
231, 2.1875, 0.1875
232, 2.25, 0.1875
233, 2.3125, 0.1875
234, 2.375, 0.1875
235, 2.4375, 0.1875
236, 2.5, 0.1875
237, 2.5625, 0.1875
238, 2.625, 0.1875
239, 2.6875, 0.1875
240, 2.75, 0.1875
241, 2.8125, 0.1875
242, 2.875, 0.1875
243, 2.9375, 0.1875
244, 3, 0.1875
245, 3.0625, 0.1875
246, 3.125, 0.1875
247, 3.1875, 0.1875
248, 3.25, 0.1875
249, 3.3125, 0.1875
250, 3.375, 0.1875
251, 3.4375, 0.1875
252, 3.5, 0.1875
253, 3.5625, 0.1875
254, 3.625, 0.1875
255, 3.6875, 0.1875
256, 3.75, 0.1875
257, 3.8125, 0.1875
258, 3.875, 0.1875
259, 3.9375, 0.1875
260, 4, 0.1875
261, 0, 0.25
262, 0.0625, 0.25
263, 0.125, 0.25
264, 0.1875, 0.25
265, 0.25, 0.25
266, 0.3125, 0.25
267, 0.375, 0.25
268, 0.4375, 0.25
269, 0.5, 0.25
270, 0.5625, 0.25
271, 0.625, 0.25
272, 0.6875, 0.25
273, 0.75, 0.25
274, 0.8125, 0.25
275, 0.875, 0.25
276, 0.9375, 0.25
277, 1, 0.25
278, 1.0625, 0.25
279, 1.125, 0.25
280, 1.1875, 0.25
281, 1.25, 0.25
282, 1.3125, 0.25
283, 1.375, 0.25
284, 1.4375, 0.25
285, 1.5, 0.25
286, 1.5625, 0.25
287, 1.625, 0.25
288, 1.6875, 0.25
289, 1.75, 0.25
290, 1.8125, 0.25
291, 1.875, 0.25
292, 1.9375, 0.25
293, 2, 0.25
294, 2.0625, 0.25
295, 2.125, 0.25
296, 2.1875, 0.25
297, 2.25, 0.25
298, 2.3125, 0.25
299, 2.375, 0.25
300, 2.4375, 0.25
301, 2.5, 0.25
302, 2.5625, 0.25
303, 2.625, 0.25
304, 2.6875, 0.25
305, 2.75, 0.25
306, 2.8125, 0.25
307, 2.875, 0.25
308, 2.9375, 0.25
309, 3, 0.25
310, 3.0625, 0.25
311, 3.125, 0.25
312, 3.1875, 0.25
313, 3.25, 0.25
314, 3.3125, 0.25
315, 3.375, 0.25
316, 3.4375, 0.25
317, 3.5, 0.25
318, 3.5625, 0.25
319, 3.625, 0.25
320, 3.6875, 0.25
321, 3.75, 0.25
322, 3.8125, 0.25
323, 3.875, 0.25
324, 3.9375, 0.25
325, 4, 0.25
326, 0, 0.3125
327, 0.0625, 0.3125
328, 0.125, 0.3125
329, 0.1875, 0.3125
330, 0.25, 0.3125
331, 0.3125, 0.3125
332, 0.375, 0.3125
333, 0.4375, 0.3125
334, 0.5, 0.3125
335, 0.5625, 0.3125
336, 0.625, 0.3125
337, 0.6875, 0.3125
338, 0.75, 0.3125
339, 0.8125, 0.3125
340, 0.875, 0.3125
341, 0.9375, 0.3125
342, 1, 0.3125
343, 1.0625, 0.3125
344, 1.125, 0.3125
345, 1.1875, 0.3125
346, 1.25, 0.3125
347, 1.3125, 0.3125
348, 1.375, 0.3125
349, 1.4375, 0.3125
350, 1.5, 0.3125
351, 1.5625, 0.3125
352, 1.625, 0.3125
353, 1.6875, 0.3125
354, 1.75, 0.3125
355, 1.8125, 0.3125
356, 1.875, 0.3125
357, 1.9375, 0.3125
358, 2, 0.3125
359, 2.0625, 0.3125
360, 2.125, 0.3125
361, 2.1875, 0.3125
362, 2.25, 0.3125
363, 2.3125, 0.3125
364, 2.375, 0.3125
365, 2.4375, 0.3125
366, 2.5, 0.3125
367, 2.5625, 0.3125
368, 2.625, 0.3125
369, 2.6875, 0.3125
370, 2.75, 0.3125
371, 2.8125, 0.3125
372, 2.875, 0.3125
373, 2.9375, 0.3125
374, 3, 0.3125
375, 3.0625, 0.3125
376, 3.125, 0.3125
377, 3.1875, 0.3125
378, 3.25, 0.3125
379, 3.3125, 0.3125
380, 3.375, 0.3125
381, 3.4375, 0.3125
382, 3.5, 0.3125
383, 3.5625, 0.3125
384, 3.625, 0.3125
385, 3.6875, 0.3125
386, 3.75, 0.3125
387, 3.8125, 0.3125
388, 3.875, 0.3125
389, 3.9375, 0.3125
390, 4, 0.3125
391, 0, 0.375
392, 0.0625, 0.375
393, 0.125, 0.375
394, 0.1875, 0.375
395, 0.25, 0.375
396, 0.3125, 0.375
397, 0.375, 0.375
398, 0.4375, 0.375
399, 0.5, 0.375
400, 0.5625, 0.375
401, 0.625, 0.375
402, 0.6875, 0.375
403, 0.75, 0.375
404, 0.8125, 0.375
405, 0.875, 0.375
406, 0.9375, 0.375
407, 1, 0.375
408, 1.0625, 0.375
409, 1.125, 0.375
410, 1.1875, 0.375
411, 1.25, 0.375
412, 1.3125, 0.375
413, 1.375, 0.375
414, 1.4375, 0.375
415, 1.5, 0.375
416, 1.5625, 0.375
417, 1.625, 0.375
418, 1.6875, 0.375
419, 1.75, 0.375
420, 1.8125, 0.375
421, 1.875, 0.375
422, 1.9375, 0.375
423, 2, 0.375
424, 2.0625, 0.375
425, 2.125, 0.375
426, 2.1875, 0.375
427, 2.25, 0.375
428, 2.3125, 0.375
429, 2.375, 0.375
430, 2.4375, 0.375
431, 2.5, 0.375
432, 2.5625, 0.375
433, 2.625, 0.375
434, 2.6875, 0.375
435, 2.75, 0.375
436, 2.8125, 0.375
437, 2.875, 0.375
438, 2.9375, 0.375
439, 3, 0.375
440, 3.0625, 0.375
441, 3.125, 0.375
442, 3.1875, 0.375
443, 3.25, 0.375
444, 3.3125, 0.375
445, 3.375, 0.375
446, 3.4375, 0.375
447, 3.5, 0.375
448, 3.5625, 0.375
449, 3.625, 0.375
450, 3.6875, 0.375
451, 3.75, 0.375
452, 3.8125, 0.375
453, 3.875, 0.375
454, 3.9375, 0.375
455, 4, 0.375
456, 0, 0.4375
457, 0.0625, 0.4375
458, 0.125, 0.4375
459, 0.1875, 0.4375
460, 0.25, 0.4375
461, 0.3125, 0.4375
462, 0.375, 0.4375
463, 0.4375, 0.4375
464, 0.5, 0.4375
465, 0.5625, 0.4375
466, 0.625, 0.4375
467, 0.6875, 0.4375
468, 0.75, 0.4375
469, 0.8125, 0.4375
470, 0.875, 0.4375
471, 0.9375, 0.4375
472, 1, 0.4375
473, 1.0625, 0.4375
474, 1.125, 0.4375
475, 1.1875, 0.4375
476, 1.25, 0.4375
477, 1.3125, 0.4375
478, 1.375, 0.4375
479, 1.4375, 0.4375
480, 1.5, 0.4375
481, 1.5625, 0.4375
482, 1.625, 0.4375
483, 1.6875, 0.4375
484, 1.75, 0.4375
485, 1.8125, 0.4375
486, 1.875, 0.4375
487, 1.9375, 0.4375
488, 2, 0.4375
489, 2.0625, 0.4375
490, 2.125, 0.4375
491, 2.1875, 0.4375
492, 2.25, 0.4375
493, 2.3125, 0.4375
494, 2.375, 0.4375
495, 2.4375, 0.4375
496, 2.5, 0.4375
497, 2.5625, 0.4375
498, 2.625, 0.4375
499, 2.6875, 0.4375
500, 2.75, 0.4375
501, 2.8125, 0.4375
502, 2.875, 0.4375
503, 2.9375, 0.4375
504, 3, 0.4375
505, 3.0625, 0.4375
506, 3.125, 0.4375
507, 3.1875, 0.4375
508, 3.25, 0.4375
509, 3.3125, 0.4375
510, 3.375, 0.4375
511, 3.4375, 0.4375
512, 3.5, 0.4375
513, 3.5625, 0.4375
514, 3.625, 0.4375
515, 3.6875, 0.4375
516, 3.75, 0.4375
517, 3.8125, 0.4375
518, 3.875, 0.4375
519, 3.9375, 0.4375
520, 4, 0.4375
521, 0, 0.5
522, 0.0625, 0.5
523, 0.125, 0.5
524, 0.1875, 0.5
525, 0.25, 0.5
526, 0.3125, 0.5
527, 0.375, 0.5
528, 0.4375, 0.5
529, 0.5, 0.5
530, 0.5625, 0.5
531, 0.625, 0.5
532, 0.6875, 0.5
533, 0.75, 0.5
534, 0.8125, 0.5
535, 0.875, 0.5
536, 0.9375, 0.5
537, 1, 0.5
538, 1.0625, 0.5
539, 1.125, 0.5
540, 1.1875, 0.5
541, 1.25, 0.5
542, 1.3125, 0.5
543, 1.375, 0.5
544, 1.4375, 0.5
545, 1.5, 0.5
546, 1.5625, 0.5
547, 1.625, 0.5
548, 1.6875, 0.5
549, 1.75, 0.5
550, 1.8125, 0.5
551, 1.875, 0.5
552, 1.9375, 0.5
553, 2, 0.5
554, 2.0625, 0.5
555, 2.125, 0.5
556, 2.1875, 0.5
557, 2.25, 0.5
558, 2.3125, 0.5
559, 2.375, 0.5
560, 2.4375, 0.5
561, 2.5, 0.5
562, 2.5625, 0.5
563, 2.625, 0.5
564, 2.6875, 0.5
565, 2.75, 0.5
566, 2.8125, 0.5
567, 2.875, 0.5
568, 2.9375, 0.5
569, 3, 0.5
570, 3.0625, 0.5
571, 3.125, 0.5
572, 3.1875, 0.5
573, 3.25, 0.5
574, 3.3125, 0.5
575, 3.375, 0.5
576, 3.4375, 0.5
577, 3.5, 0.5
578, 3.5625, 0.5
579, 3.625, 0.5
580, 3.6875, 0.5
581, 3.75, 0.5
582, 3.8125, 0.5
583, 3.875, 0.5
584, 3.9375, 0.5
585, 4, 0.5
586, 0, 0.5625
587, 0.0625, 0.5625
588, 0.125, 0.5625
589, 0.1875, 0.5625
590, 0.25, 0.5625
591, 0.3125, 0.5625
592, 0.375, 0.5625
593, 0.4375, 0.5625
594, 0.5, 0.5625
595, 0.5625, 0.5625
596, 0.625, 0.5625
597, 0.6875, 0.5625
598, 0.75, 0.5625
599, 0.8125, 0.5625
600, 0.875, 0.5625
601, 0.9375, 0.5625
602, 1, 0.5625
603, 1.0625, 0.5625
604, 1.125, 0.5625
605, 1.1875, 0.5625
606, 1.25, 0.5625
607, 1.3125, 0.5625
608, 1.375, 0.5625
609, 1.4375, 0.5625
610, 1.5, 0.5625
611, 1.5625, 0.5625
612, 1.625, 0.5625
613, 1.6875, 0.5625
614, 1.75, 0.5625
615, 1.8125, 0.5625
616, 1.875, 0.5625
617, 1.9375, 0.5625
618, 2, 0.5625
619, 2.0625, 0.5625
620, 2.125, 0.5625
621, 2.1875, 0.5625
622, 2.25, 0.5625
623, 2.3125, 0.5625
624, 2.375, 0.5625
625, 2.4375, 0.5625
626, 2.5, 0.5625
627, 2.5625, 0.5625
628, 2.625, 0.5625
629, 2.6875, 0.5625
630, 2.75, 0.5625
631, 2.8125, 0.5625
632, 2.875, 0.5625
633, 2.9375, 0.5625
634, 3, 0.5625
635, 3.0625, 0.5625
636, 3.125, 0.5625
637, 3.1875, 0.5625
638, 3.25, 0.5625
639, 3.3125, 0.5625
640, 3.375, 0.5625
641, 3.4375, 0.5625
642, 3.5, 0.5625
643, 3.5625, 0.5625
644, 3.625, 0.5625
645, 3.6875, 0.5625
646, 3.75, 0.5625
647, 3.8125, 0.5625
648, 3.875, 0.5625
649, 3.9375, 0.5625
650, 4, 0.5625
651, 0, 0.625
652, 0.0625, 0.625
653, 0.125, 0.625
654, 0.1875, 0.625
655, 0.25, 0.625
656, 0.3125, 0.625
657, 0.375, 0.625
658, 0.4375, 0.625
659, 0.5, 0.625
660, 0.5625, 0.625
661, 0.625, 0.625
662, 0.6875, 0.625
663, 0.75, 0.625
664, 0.8125, 0.625
665, 0.875, 0.625
666, 0.9375, 0.625
667, 1, 0.625
668, 1.0625, 0.625
669, 1.125, 0.625
670, 1.1875, 0.625
671, 1.25, 0.625
672, 1.3125, 0.625
673, 1.375, 0.625
674, 1.4375, 0.625
675, 1.5, 0.625
676, 1.5625, 0.625
677, 1.625, 0.625
678, 1.6875, 0.625
679, 1.75, 0.625
680, 1.8125, 0.625
681, 1.875, 0.625
682, 1.9375, 0.625
683, 2, 0.625
684, 2.0625, 0.625
685, 2.125, 0.625
686, 2.1875, 0.625
687, 2.25, 0.625
688, 2.3125, 0.625
689, 2.375, 0.625
690, 2.4375, 0.625
691, 2.5, 0.625
692, 2.5625, 0.625
693, 2.625, 0.625
694, 2.6875, 0.625
695, 2.75, 0.625
696, 2.8125, 0.625
697, 2.875, 0.625
698, 2.9375, 0.625
699, 3, 0.625
700, 3.0625, 0.625
701, 3.125, 0.625
702, 3.1875, 0.625
703, 3.25, 0.625
704, 3.3125, 0.625
705, 3.375, 0.625
706, 3.4375, 0.625
707, 3.5, 0.625
708, 3.5625, 0.625
709, 3.625, 0.625
710, 3.6875, 0.625
711, 3.75, 0.625
712, 3.8125, 0.625
713, 3.875, 0.625
714, 3.9375, 0.625
715, 4, 0.625
716, 0, 0.6875
717, 0.0625, 0.6875
718, 0.125, 0.6875
719, 0.1875, 0.6875
720, 0.25, 0.6875
721, 0.3125, 0.6875
722, 0.375, 0.6875
723, 0.4375, 0.6875
724, 0.5, 0.6875
725, 0.5625, 0.6875
726, 0.625, 0.6875
727, 0.6875, 0.6875
728, 0.75, 0.6875
729, 0.8125, 0.6875
730, 0.875, 0.6875
731, 0.9375, 0.6875
732, 1, 0.6875
733, 1.0625, 0.6875
734, 1.125, 0.6875
735, 1.1875, 0.6875
736, 1.25, 0.6875
737, 1.3125, 0.6875
738, 1.375, 0.6875
739, 1.4375, 0.6875
740, 1.5, 0.6875
741, 1.5625, 0.6875
742, 1.625, 0.6875
743, 1.6875, 0.6875
744, 1.75, 0.6875
745, 1.8125, 0.6875
746, 1.875, 0.6875
747, 1.9375, 0.6875
748, 2, 0.6875
749, 2.0625, 0.6875
750, 2.125, 0.6875
751, 2.1875, 0.6875
752, 2.25, 0.6875
753, 2.3125, 0.6875
754, 2.375, 0.6875
755, 2.4375, 0.6875
756, 2.5, 0.6875
757, 2.5625, 0.6875
758, 2.625, 0.6875
759, 2.6875, 0.6875
760, 2.75, 0.6875
761, 2.8125, 0.6875
762, 2.875, 0.6875
763, 2.9375, 0.6875
764, 3, 0.6875
765, 3.0625, 0.6875
766, 3.125, 0.6875
767, 3.1875, 0.6875
768, 3.25, 0.6875
769, 3.3125, 0.6875
770, 3.375, 0.6875
771, 3.4375, 0.6875
772, 3.5, 0.6875
773, 3.5625, 0.6875
774, 3.625, 0.6875
775, 3.6875, 0.6875
776, 3.75, 0.6875
777, 3.8125, 0.6875
778, 3.875, 0.6875
779, 3.9375, 0.6875
780, 4, 0.6875
781, 0, 0.75
782, 0.0625, 0.75
783, 0.125, 0.75
784, 0.1875, 0.75
785, 0.25, 0.75
786, 0.3125, 0.75
787, 0.375, 0.75
788, 0.4375, 0.75
789, 0.5, 0.75
790, 0.5625, 0.75
791, 0.625, 0.75
792, 0.6875, 0.75
793, 0.75, 0.75
794, 0.8125, 0.75
795, 0.875, 0.75
796, 0.9375, 0.75
797, 1, 0.75
798, 1.0625, 0.75
799, 1.125, 0.75
800, 1.1875, 0.75
801, 1.25, 0.75
802, 1.3125, 0.75
803, 1.375, 0.75
804, 1.4375, 0.75
805, 1.5, 0.75
806, 1.5625, 0.75
807, 1.625, 0.75
808, 1.6875, 0.75
809, 1.75, 0.75
810, 1.8125, 0.75
811, 1.875, 0.75
812, 1.9375, 0.75
813, 2, 0.75
814, 2.0625, 0.75
815, 2.125, 0.75
816, 2.1875, 0.75
817, 2.25, 0.75
818, 2.3125, 0.75
819, 2.375, 0.75
820, 2.4375, 0.75
821, 2.5, 0.75
822, 2.5625, 0.75
823, 2.625, 0.75
824, 2.6875, 0.75
825, 2.75, 0.75
826, 2.8125, 0.75
827, 2.875, 0.75
828, 2.9375, 0.75
829, 3, 0.75
830, 3.0625, 0.75
831, 3.125, 0.75
832, 3.1875, 0.75
833, 3.25, 0.75
834, 3.3125, 0.75
835, 3.375, 0.75
836, 3.4375, 0.75
837, 3.5, 0.75
838, 3.5625, 0.75
839, 3.625, 0.75
840, 3.6875, 0.75
841, 3.75, 0.75
842, 3.8125, 0.75
843, 3.875, 0.75
844, 3.9375, 0.75
845, 4, 0.75
846, 0, 0.8125
847, 0.0625, 0.8125
848, 0.125, 0.8125
849, 0.1875, 0.8125
850, 0.25, 0.8125
851, 0.3125, 0.8125
852, 0.375, 0.8125
853, 0.4375, 0.8125
854, 0.5, 0.8125
855, 0.5625, 0.8125
856, 0.625, 0.8125
857, 0.6875, 0.8125
858, 0.75, 0.8125
859, 0.8125, 0.8125
860, 0.875, 0.8125
861, 0.9375, 0.8125
862, 1, 0.8125
863, 1.0625, 0.8125
864, 1.125, 0.8125
865, 1.1875, 0.8125
866, 1.25, 0.8125
867, 1.3125, 0.8125
868, 1.375, 0.8125
869, 1.4375, 0.8125
870, 1.5, 0.8125
871, 1.5625, 0.8125
872, 1.625, 0.8125
873, 1.6875, 0.8125
874, 1.75, 0.8125
875, 1.8125, 0.8125
876, 1.875, 0.8125
877, 1.9375, 0.8125
878, 2, 0.8125
879, 2.0625, 0.8125
880, 2.125, 0.8125
881, 2.1875, 0.8125
882, 2.25, 0.8125
883, 2.3125, 0.8125
884, 2.375, 0.8125
885, 2.4375, 0.8125
886, 2.5, 0.8125
887, 2.5625, 0.8125
888, 2.625, 0.8125
889, 2.6875, 0.8125
890, 2.75, 0.8125
891, 2.8125, 0.8125
892, 2.875, 0.8125
893, 2.9375, 0.8125
894, 3, 0.8125
895, 3.0625, 0.8125
896, 3.125, 0.8125
897, 3.1875, 0.8125
898, 3.25, 0.8125
899, 3.3125, 0.8125
900, 3.375, 0.8125
901, 3.4375, 0.8125
902, 3.5, 0.8125
903, 3.5625, 0.8125
904, 3.625, 0.8125
905, 3.6875, 0.8125
906, 3.75, 0.8125
907, 3.8125, 0.8125
908, 3.875, 0.8125
909, 3.9375, 0.8125
910, 4, 0.8125
911, 0, 0.875
912, 0.0625, 0.875
913, 0.125, 0.875
914, 0.1875, 0.875
915, 0.25, 0.875
916, 0.3125, 0.875
917, 0.375, 0.875
918, 0.4375, 0.875
919, 0.5, 0.875
920, 0.5625, 0.875
921, 0.625, 0.875
922, 0.6875, 0.875
923, 0.75, 0.875
924, 0.8125, 0.875
925, 0.875, 0.875
926, 0.9375, 0.875
927, 1, 0.875
928, 1.0625, 0.875
929, 1.125, 0.875
930, 1.1875, 0.875
931, 1.25, 0.875
932, 1.3125, 0.875
933, 1.375, 0.875
934, 1.4375, 0.875
935, 1.5, 0.875
936, 1.5625, 0.875
937, 1.625, 0.875
938, 1.6875, 0.875
939, 1.75, 0.875
940, 1.8125, 0.875
941, 1.875, 0.875
942, 1.9375, 0.875
943, 2, 0.875
944, 2.0625, 0.875
945, 2.125, 0.875
946, 2.1875, 0.875
947, 2.25, 0.875
948, 2.3125, 0.875
949, 2.375, 0.875
950, 2.4375, 0.875
951, 2.5, 0.875
952, 2.5625, 0.875
953, 2.625, 0.875
954, 2.6875, 0.875
955, 2.75, 0.875
956, 2.8125, 0.875
957, 2.875, 0.875
958, 2.9375, 0.875
959, 3, 0.875
960, 3.0625, 0.875
961, 3.125, 0.875
962, 3.1875, 0.875
963, 3.25, 0.875
964, 3.3125, 0.875
965, 3.375, 0.875
966, 3.4375, 0.875
967, 3.5, 0.875
968, 3.5625, 0.875
969, 3.625, 0.875
970, 3.6875, 0.875
971, 3.75, 0.875
972, 3.8125, 0.875
973, 3.875, 0.875
974, 3.9375, 0.875
975, 4, 0.875
976, 0, 0.9375
977, 0.0625, 0.9375
978, 0.125, 0.9375
979, 0.1875, 0.9375
980, 0.25, 0.9375
981, 0.3125, 0.9375
982, 0.375, 0.9375
983, 0.4375, 0.9375
984, 0.5, 0.9375
985, 0.5625, 0.9375
986, 0.625, 0.9375
987, 0.6875, 0.9375
988, 0.75, 0.9375
989, 0.8125, 0.9375
990, 0.875, 0.9375
991, 0.9375, 0.9375
992, 1, 0.9375
993, 1.0625, 0.9375
994, 1.125, 0.9375
995, 1.1875, 0.9375
996, 1.25, 0.9375
997, 1.3125, 0.9375
998, 1.375, 0.9375
999, 1.4375, 0.9375
1000, 1.5, 0.9375
1001, 1.5625, 0.9375
1002, 1.625, 0.9375
1003, 1.6875, 0.9375
1004, 1.75, 0.9375
1005, 1.8125, 0.9375
1006, 1.875, 0.9375
1007, 1.9375, 0.9375
1008, 2, 0.9375
1009, 2.0625, 0.9375
1010, 2.125, 0.9375
1011, 2.1875, 0.9375
1012, 2.25, 0.9375
1013, 2.3125, 0.9375
1014, 2.375, 0.9375
1015, 2.4375, 0.9375
1016, 2.5, 0.9375
1017, 2.5625, 0.9375
1018, 2.625, 0.9375
1019, 2.6875, 0.9375
1020, 2.75, 0.9375
1021, 2.8125, 0.9375
1022, 2.875, 0.9375
1023, 2.9375, 0.9375
1024, 3, 0.9375
1025, 3.0625, 0.9375
1026, 3.125, 0.9375
1027, 3.1875, 0.9375
1028, 3.25, 0.9375
1029, 3.3125, 0.9375
1030, 3.375, 0.9375
1031, 3.4375, 0.9375
1032, 3.5, 0.9375
1033, 3.5625, 0.9375
1034, 3.625, 0.9375
1035, 3.6875, 0.9375
1036, 3.75, 0.9375
1037, 3.8125, 0.9375
1038, 3.875, 0.9375
1039, 3.9375, 0.9375
1040, 4, 0.9375
1041, 0, 1
1042, 0.0625, 1
1043, 0.125, 1
1044, 0.1875, 1
1045, 0.25, 1
1046, 0.3125, 1
1047, 0.375, 1
1048, 0.4375, 1
1049, 0.5, 1
1050, 0.5625, 1
1051, 0.625, 1
1052, 0.6875, 1
1053, 0.75, 1
1054, 0.8125, 1
1055, 0.875, 1
1056, 0.9375, 1
1057, 1, 1
1058, 1.0625, 1
1059, 1.125, 1
1060, 1.1875, 1
1061, 1.25, 1
1062, 1.3125, 1
1063, 1.375, 1
1064, 1.4375, 1
1065, 1.5, 1
1066, 1.5625, 1
1067, 1.625, 1
1068, 1.6875, 1
1069, 1.75, 1
1070, 1.8125, 1
1071, 1.875, 1
1072, 1.9375, 1
1073, 2, 1
1074, 2.0625, 1
1075, 2.125, 1
1076, 2.1875, 1
1077, 2.25, 1
1078, 2.3125, 1
1079, 2.375, 1
1080, 2.4375, 1
1081, 2.5, 1
1082, 2.5625, 1
1083, 2.625, 1
1084, 2.6875, 1
1085, 2.75, 1
1086, 2.8125, 1
1087, 2.875, 1
1088, 2.9375, 1
1089, 3, 1
1090, 3.0625, 1
1091, 3.125, 1
1092, 3.1875, 1
1093, 3.25, 1
1094, 3.3125, 1
1095, 3.375, 1
1096, 3.4375, 1
1097, 3.5, 1
1098, 3.5625, 1
1099, 3.625, 1
1100, 3.6875, 1
1101, 3.75, 1
1102, 3.8125, 1
1103, 3.875, 1
1104, 3.9375, 1
1105, 4, 1
1106, 0, 1.0625
1107, 0.0625, 1.0625
1108, 0.125, 1.0625
1109, 0.1875, 1.0625
1110, 0.25, 1.0625
1111, 0.3125, 1.0625
1112, 0.375, 1.0625
1113, 0.4375, 1.0625
1114, 0.5, 1.0625
1115, 0.5625, 1.0625
1116, 0.625, 1.0625
1117, 0.6875, 1.0625
1118, 0.75, 1.0625
1119, 0.8125, 1.0625
1120, 0.875, 1.0625
1121, 0.9375, 1.0625
1122, 1, 1.0625
1123, 1.0625, 1.0625
1124, 1.125, 1.0625
1125, 1.1875, 1.0625
1126, 1.25, 1.0625
1127, 1.3125, 1.0625
1128, 1.375, 1.0625
1129, 1.4375, 1.0625
1130, 1.5, 1.0625
1131, 1.5625, 1.0625
1132, 1.625, 1.0625
1133, 1.6875, 1.0625
1134, 1.75, 1.0625
1135, 1.8125, 1.0625
1136, 1.875, 1.0625
1137, 1.9375, 1.0625
1138, 2, 1.0625
1139, 2.0625, 1.0625
1140, 2.125, 1.0625
1141, 2.1875, 1.0625
1142, 2.25, 1.0625
1143, 2.3125, 1.0625
1144, 2.375, 1.0625
1145, 2.4375, 1.0625
1146, 2.5, 1.0625
1147, 2.5625, 1.0625
1148, 2.625, 1.0625
1149, 2.6875, 1.0625
1150, 2.75, 1.0625
1151, 2.8125, 1.0625
1152, 2.875, 1.0625
1153, 2.9375, 1.0625
1154, 3, 1.0625
1155, 3.0625, 1.0625
1156, 3.125, 1.0625
1157, 3.1875, 1.0625
1158, 3.25, 1.0625
1159, 3.3125, 1.0625
1160, 3.375, 1.0625
1161, 3.4375, 1.0625
1162, 3.5, 1.0625
1163, 3.5625, 1.0625
1164, 3.625, 1.0625
1165, 3.6875, 1.0625
1166, 3.75, 1.0625
1167, 3.8125, 1.0625
1168, 3.875, 1.0625
1169, 3.9375, 1.0625
1170, 4, 1.0625
1171, 0, 1.125
1172, 0.0625, 1.125
1173, 0.125, 1.125
1174, 0.1875, 1.125
1175, 0.25, 1.125
1176, 0.3125, 1.125
1177, 0.375, 1.125
1178, 0.4375, 1.125
1179, 0.5, 1.125
1180, 0.5625, 1.125
1181, 0.625, 1.125
1182, 0.6875, 1.125
1183, 0.75, 1.125
1184, 0.8125, 1.125
1185, 0.875, 1.125
1186, 0.9375, 1.125
1187, 1, 1.125
1188, 1.0625, 1.125
1189, 1.125, 1.125
1190, 1.1875, 1.125
1191, 1.25, 1.125
1192, 1.3125, 1.125
1193, 1.375, 1.125
1194, 1.4375, 1.125
1195, 1.5, 1.125
1196, 1.5625, 1.125
1197, 1.625, 1.125
1198, 1.6875, 1.125
1199, 1.75, 1.125
1200, 1.8125, 1.125
1201, 1.875, 1.125
1202, 1.9375, 1.125
1203, 2, 1.125
1204, 2.0625, 1.125
1205, 2.125, 1.125
1206, 2.1875, 1.125
1207, 2.25, 1.125
1208, 2.3125, 1.125
1209, 2.375, 1.125
1210, 2.4375, 1.125
1211, 2.5, 1.125
1212, 2.5625, 1.125
1213, 2.625, 1.125
1214, 2.6875, 1.125
1215, 2.75, 1.125
1216, 2.8125, 1.125
1217, 2.875, 1.125
1218, 2.9375, 1.125
1219, 3, 1.125
1220, 3.0625, 1.125
1221, 3.125, 1.125
1222, 3.1875, 1.125
1223, 3.25, 1.125
1224, 3.3125, 1.125
1225, 3.375, 1.125
1226, 3.4375, 1.125
1227, 3.5, 1.125
1228, 3.5625, 1.125
1229, 3.625, 1.125
1230, 3.6875, 1.125
1231, 3.75, 1.125
1232, 3.8125, 1.125
1233, 3.875, 1.125
1234, 3.9375, 1.125
1235, 4, 1.125
1236, 0, 1.1875
1237, 0.0625, 1.1875
1238, 0.125, 1.1875
1239, 0.1875, 1.1875
1240, 0.25, 1.1875
1241, 0.3125, 1.1875
1242, 0.375, 1.1875
1243, 0.4375, 1.1875
1244, 0.5, 1.1875
1245, 0.5625, 1.1875
1246, 0.625, 1.1875
1247, 0.6875, 1.1875
1248, 0.75, 1.1875
1249, 0.8125, 1.1875
1250, 0.875, 1.1875
1251, 0.9375, 1.1875
1252, 1, 1.1875
1253, 1.0625, 1.1875
1254, 1.125, 1.1875
1255, 1.1875, 1.1875
1256, 1.25, 1.1875
1257, 1.3125, 1.1875
1258, 1.375, 1.1875
1259, 1.4375, 1.1875
1260, 1.5, 1.1875
1261, 1.5625, 1.1875
1262, 1.625, 1.1875
1263, 1.6875, 1.1875
1264, 1.75, 1.1875
1265, 1.8125, 1.1875
1266, 1.875, 1.1875
1267, 1.9375, 1.1875
1268, 2, 1.1875
1269, 2.0625, 1.1875
1270, 2.125, 1.1875
1271, 2.1875, 1.1875
1272, 2.25, 1.1875
1273, 2.3125, 1.1875
1274, 2.375, 1.1875
1275, 2.4375, 1.1875
1276, 2.5, 1.1875
1277, 2.5625, 1.1875
1278, 2.625, 1.1875
1279, 2.6875, 1.1875
1280, 2.75, 1.1875
1281, 2.8125, 1.1875
1282, 2.875, 1.1875
1283, 2.9375, 1.1875
1284, 3, 1.1875
1285, 3.0625, 1.1875
1286, 3.125, 1.1875
1287, 3.1875, 1.1875
1288, 3.25, 1.1875
1289, 3.3125, 1.1875
1290, 3.375, 1.1875
1291, 3.4375, 1.1875
1292, 3.5, 1.1875
1293, 3.5625, 1.1875
1294, 3.625, 1.1875
1295, 3.6875, 1.1875
1296, 3.75, 1.1875
1297, 3.8125, 1.1875
1298, 3.875, 1.1875
1299, 3.9375, 1.1875
1300, 4, 1.1875
1301, 0, 1.25
1302, 0.0625, 1.25
1303, 0.125, 1.25
1304, 0.1875, 1.25
1305, 0.25, 1.25
1306, 0.3125, 1.25
1307, 0.375, 1.25
1308, 0.4375, 1.25
1309, 0.5, 1.25
1310, 0.5625, 1.25
1311, 0.625, 1.25
1312, 0.6875, 1.25
1313, 0.75, 1.25
1314, 0.8125, 1.25
1315, 0.875, 1.25
1316, 0.9375, 1.25
1317, 1, 1.25
1318, 1.0625, 1.25
1319, 1.125, 1.25
1320, 1.1875, 1.25
1321, 1.25, 1.25
1322, 1.3125, 1.25
1323, 1.375, 1.25
1324, 1.4375, 1.25
1325, 1.5, 1.25
1326, 1.5625, 1.25
1327, 1.625, 1.25
1328, 1.6875, 1.25
1329, 1.75, 1.25
1330, 1.8125, 1.25
1331, 1.875, 1.25
1332, 1.9375, 1.25
1333, 2, 1.25
1334, 2.0625, 1.25
1335, 2.125, 1.25
1336, 2.1875, 1.25
1337, 2.25, 1.25
1338, 2.3125, 1.25
1339, 2.375, 1.25
1340, 2.4375, 1.25
1341, 2.5, 1.25
1342, 2.5625, 1.25
1343, 2.625, 1.25
1344, 2.6875, 1.25
1345, 2.75, 1.25
1346, 2.8125, 1.25
1347, 2.875, 1.25
1348, 2.9375, 1.25
1349, 3, 1.25
1350, 3.0625, 1.25
1351, 3.125, 1.25
1352, 3.1875, 1.25
1353, 3.25, 1.25
1354, 3.3125, 1.25
1355, 3.375, 1.25
1356, 3.4375, 1.25
1357, 3.5, 1.25
1358, 3.5625, 1.25
1359, 3.625, 1.25
1360, 3.6875, 1.25
1361, 3.75, 1.25
1362, 3.8125, 1.25
1363, 3.875, 1.25
1364, 3.9375, 1.25
1365, 4, 1.25
1366, 0, 1.3125
1367, 0.0625, 1.3125
1368, 0.125, 1.3125
1369, 0.1875, 1.3125
1370, 0.25, 1.3125
1371, 0.3125, 1.3125
1372, 0.375, 1.3125
1373, 0.4375, 1.3125
1374, 0.5, 1.3125
1375, 0.5625, 1.3125
1376, 0.625, 1.3125
1377, 0.6875, 1.3125
1378, 0.75, 1.3125
1379, 0.8125, 1.3125
1380, 0.875, 1.3125
1381, 0.9375, 1.3125
1382, 1, 1.3125
1383, 1.0625, 1.3125
1384, 1.125, 1.3125
1385, 1.1875, 1.3125
1386, 1.25, 1.3125
1387, 1.3125, 1.3125
1388, 1.375, 1.3125
1389, 1.4375, 1.3125
1390, 1.5, 1.3125
1391, 1.5625, 1.3125
1392, 1.625, 1.3125
1393, 1.6875, 1.3125
1394, 1.75, 1.3125
1395, 1.8125, 1.3125
1396, 1.875, 1.3125
1397, 1.9375, 1.3125
1398, 2, 1.3125
1399, 2.0625, 1.3125
1400, 2.125, 1.3125
1401, 2.1875, 1.3125
1402, 2.25, 1.3125
1403, 2.3125, 1.3125
1404, 2.375, 1.3125
1405, 2.4375, 1.3125
1406, 2.5, 1.3125
1407, 2.5625, 1.3125
1408, 2.625, 1.3125
1409, 2.6875, 1.3125
1410, 2.75, 1.3125
1411, 2.8125, 1.3125
1412, 2.875, 1.3125
1413, 2.9375, 1.3125
1414, 3, 1.3125
1415, 3.0625, 1.3125
1416, 3.125, 1.3125
1417, 3.1875, 1.3125
1418, 3.25, 1.3125
1419, 3.3125, 1.3125
1420, 3.375, 1.3125
1421, 3.4375, 1.3125
1422, 3.5, 1.3125
1423, 3.5625, 1.3125
1424, 3.625, 1.3125
1425, 3.6875, 1.3125
1426, 3.75, 1.3125
1427, 3.8125, 1.3125
1428, 3.875, 1.3125
1429, 3.9375, 1.3125
1430, 4, 1.3125
1431, 0, 1.375
1432, 0.0625, 1.375
1433, 0.125, 1.375
1434, 0.1875, 1.375
1435, 0.25, 1.375
1436, 0.3125, 1.375
1437, 0.375, 1.375
1438, 0.4375, 1.375
1439, 0.5, 1.375
1440, 0.5625, 1.375
1441, 0.625, 1.375
1442, 0.6875, 1.375
1443, 0.75, 1.375
1444, 0.8125, 1.375
1445, 0.875, 1.375
1446, 0.9375, 1.375
1447, 1, 1.375
1448, 1.0625, 1.375
1449, 1.125, 1.375
1450, 1.1875, 1.375
1451, 1.25, 1.375
1452, 1.3125, 1.375
1453, 1.375, 1.375
1454, 1.4375, 1.375
1455, 1.5, 1.375
1456, 1.5625, 1.375
1457, 1.625, 1.375
1458, 1.6875, 1.375
1459, 1.75, 1.375
1460, 1.8125, 1.375
1461, 1.875, 1.375
1462, 1.9375, 1.375
1463, 2, 1.375
1464, 2.0625, 1.375
1465, 2.125, 1.375
1466, 2.1875, 1.375
1467, 2.25, 1.375
1468, 2.3125, 1.375
1469, 2.375, 1.375
1470, 2.4375, 1.375
1471, 2.5, 1.375
1472, 2.5625, 1.375
1473, 2.625, 1.375
1474, 2.6875, 1.375
1475, 2.75, 1.375
1476, 2.8125, 1.375
1477, 2.875, 1.375
1478, 2.9375, 1.375
1479, 3, 1.375
1480, 3.0625, 1.375
1481, 3.125, 1.375
1482, 3.1875, 1.375
1483, 3.25, 1.375
1484, 3.3125, 1.375
1485, 3.375, 1.375
1486, 3.4375, 1.375
1487, 3.5, 1.375
1488, 3.5625, 1.375
1489, 3.625, 1.375
1490, 3.6875, 1.375
1491, 3.75, 1.375
1492, 3.8125, 1.375
1493, 3.875, 1.375
1494, 3.9375, 1.375
1495, 4, 1.375
1496, 0, 1.4375
1497, 0.0625, 1.4375
1498, 0.125, 1.4375
1499, 0.1875, 1.4375
1500, 0.25, 1.4375
1501, 0.3125, 1.4375
1502, 0.375, 1.4375
1503, 0.4375, 1.4375
1504, 0.5, 1.4375
1505, 0.5625, 1.4375
1506, 0.625, 1.4375
1507, 0.6875, 1.4375
1508, 0.75, 1.4375
1509, 0.8125, 1.4375
1510, 0.875, 1.4375
1511, 0.9375, 1.4375
1512, 1, 1.4375
1513, 1.0625, 1.4375
1514, 1.125, 1.4375
1515, 1.1875, 1.4375
1516, 1.25, 1.4375
1517, 1.3125, 1.4375
1518, 1.375, 1.4375
1519, 1.4375, 1.4375
1520, 1.5, 1.4375
1521, 1.5625, 1.4375
1522, 1.625, 1.4375
1523, 1.6875, 1.4375
1524, 1.75, 1.4375
1525, 1.8125, 1.4375
1526, 1.875, 1.4375
1527, 1.9375, 1.4375
1528, 2, 1.4375
1529, 2.0625, 1.4375
1530, 2.125, 1.4375
1531, 2.1875, 1.4375
1532, 2.25, 1.4375
1533, 2.3125, 1.4375
1534, 2.375, 1.4375
1535, 2.4375, 1.4375
1536, 2.5, 1.4375
1537, 2.5625, 1.4375
1538, 2.625, 1.4375
1539, 2.6875, 1.4375
1540, 2.75, 1.4375
1541, 2.8125, 1.4375
1542, 2.875, 1.4375
1543, 2.9375, 1.4375
1544, 3, 1.4375
1545, 3.0625, 1.4375
1546, 3.125, 1.4375
1547, 3.1875, 1.4375
1548, 3.25, 1.4375
1549, 3.3125, 1.4375
1550, 3.375, 1.4375
1551, 3.4375, 1.4375
1552, 3.5, 1.4375
1553, 3.5625, 1.4375
1554, 3.625, 1.4375
1555, 3.6875, 1.4375
1556, 3.75, 1.4375
1557, 3.8125, 1.4375
1558, 3.875, 1.4375
1559, 3.9375, 1.4375
1560, 4, 1.4375
1561, 0, 1.5
1562, 0.0625, 1.5
1563, 0.125, 1.5
1564, 0.1875, 1.5
1565, 0.25, 1.5
1566, 0.3125, 1.5
1567, 0.375, 1.5
1568, 0.4375, 1.5
1569, 0.5, 1.5
1570, 0.5625, 1.5
1571, 0.625, 1.5
1572, 0.6875, 1.5
1573, 0.75, 1.5
1574, 0.8125, 1.5
1575, 0.875, 1.5
1576, 0.9375, 1.5
1577, 1, 1.5
1578, 1.0625, 1.5
1579, 1.125, 1.5
1580, 1.1875, 1.5
1581, 1.25, 1.5
1582, 1.3125, 1.5
1583, 1.375, 1.5
1584, 1.4375, 1.5
1585, 1.5, 1.5
1586, 1.5625, 1.5
1587, 1.625, 1.5
1588, 1.6875, 1.5
1589, 1.75, 1.5
1590, 1.8125, 1.5
1591, 1.875, 1.5
1592, 1.9375, 1.5
1593, 2, 1.5
1594, 2.0625, 1.5
1595, 2.125, 1.5
1596, 2.1875, 1.5
1597, 2.25, 1.5
1598, 2.3125, 1.5
1599, 2.375, 1.5
1600, 2.4375, 1.5
1601, 2.5, 1.5
1602, 2.5625, 1.5
1603, 2.625, 1.5
1604, 2.6875, 1.5
1605, 2.75, 1.5
1606, 2.8125, 1.5
1607, 2.875, 1.5
1608, 2.9375, 1.5
1609, 3, 1.5
1610, 3.0625, 1.5
1611, 3.125, 1.5
1612, 3.1875, 1.5
1613, 3.25, 1.5
1614, 3.3125, 1.5
1615, 3.375, 1.5
1616, 3.4375, 1.5
1617, 3.5, 1.5
1618, 3.5625, 1.5
1619, 3.625, 1.5
1620, 3.6875, 1.5
1621, 3.75, 1.5
1622, 3.8125, 1.5
1623, 3.875, 1.5
1624, 3.9375, 1.5
1625, 4, 1.5
1626, 0, 1.5625
1627, 0.0625, 1.5625
1628, 0.125, 1.5625
1629, 0.1875, 1.5625
1630, 0.25, 1.5625
1631, 0.3125, 1.5625
1632, 0.375, 1.5625
1633, 0.4375, 1.5625
1634, 0.5, 1.5625
1635, 0.5625, 1.5625
1636, 0.625, 1.5625
1637, 0.6875, 1.5625
1638, 0.75, 1.5625
1639, 0.8125, 1.5625
1640, 0.875, 1.5625
1641, 0.9375, 1.5625
1642, 1, 1.5625
1643, 1.0625, 1.5625
1644, 1.125, 1.5625
1645, 1.1875, 1.5625
1646, 1.25, 1.5625
1647, 1.3125, 1.5625
1648, 1.375, 1.5625
1649, 1.4375, 1.5625
1650, 1.5, 1.5625
1651, 1.5625, 1.5625
1652, 1.625, 1.5625
1653, 1.6875, 1.5625
1654, 1.75, 1.5625
1655, 1.8125, 1.5625
1656, 1.875, 1.5625
1657, 1.9375, 1.5625
1658, 2, 1.5625
1659, 2.0625, 1.5625
1660, 2.125, 1.5625
1661, 2.1875, 1.5625
1662, 2.25, 1.5625
1663, 2.3125, 1.5625
1664, 2.375, 1.5625
1665, 2.4375, 1.5625
1666, 2.5, 1.5625
1667, 2.5625, 1.5625
1668, 2.625, 1.5625
1669, 2.6875, 1.5625
1670, 2.75, 1.5625
1671, 2.8125, 1.5625
1672, 2.875, 1.5625
1673, 2.9375, 1.5625
1674, 3, 1.5625
1675, 3.0625, 1.5625
1676, 3.125, 1.5625
1677, 3.1875, 1.5625
1678, 3.25, 1.5625
1679, 3.3125, 1.5625
1680, 3.375, 1.5625
1681, 3.4375, 1.5625
1682, 3.5, 1.5625
1683, 3.5625, 1.5625
1684, 3.625, 1.5625
1685, 3.6875, 1.5625
1686, 3.75, 1.5625
1687, 3.8125, 1.5625
1688, 3.875, 1.5625
1689, 3.9375, 1.5625
1690, 4, 1.5625
1691, 0, 1.625
1692, 0.0625, 1.625
1693, 0.125, 1.625
1694, 0.1875, 1.625
1695, 0.25, 1.625
1696, 0.3125, 1.625
1697, 0.375, 1.625
1698, 0.4375, 1.625
1699, 0.5, 1.625
1700, 0.5625, 1.625
1701, 0.625, 1.625
1702, 0.6875, 1.625
1703, 0.75, 1.625
1704, 0.8125, 1.625
1705, 0.875, 1.625
1706, 0.9375, 1.625
1707, 1, 1.625
1708, 1.0625, 1.625
1709, 1.125, 1.625
1710, 1.1875, 1.625
1711, 1.25, 1.625
1712, 1.3125, 1.625
1713, 1.375, 1.625
1714, 1.4375, 1.625
1715, 1.5, 1.625
1716, 1.5625, 1.625
1717, 1.625, 1.625
1718, 1.6875, 1.625
1719, 1.75, 1.625
1720, 1.8125, 1.625
1721, 1.875, 1.625
1722, 1.9375, 1.625
1723, 2, 1.625
1724, 2.0625, 1.625
1725, 2.125, 1.625
1726, 2.1875, 1.625
1727, 2.25, 1.625
1728, 2.3125, 1.625
1729, 2.375, 1.625
1730, 2.4375, 1.625
1731, 2.5, 1.625
1732, 2.5625, 1.625
1733, 2.625, 1.625
1734, 2.6875, 1.625
1735, 2.75, 1.625
1736, 2.8125, 1.625
1737, 2.875, 1.625
1738, 2.9375, 1.625
1739, 3, 1.625
1740, 3.0625, 1.625
1741, 3.125, 1.625
1742, 3.1875, 1.625
1743, 3.25, 1.625
1744, 3.3125, 1.625
1745, 3.375, 1.625
1746, 3.4375, 1.625
1747, 3.5, 1.625
1748, 3.5625, 1.625
1749, 3.625, 1.625
1750, 3.6875, 1.625
1751, 3.75, 1.625
1752, 3.8125, 1.625
1753, 3.875, 1.625
1754, 3.9375, 1.625
1755, 4, 1.625
1756, 0, 1.6875
1757, 0.0625, 1.6875
1758, 0.125, 1.6875
1759, 0.1875, 1.6875
1760, 0.25, 1.6875
1761, 0.3125, 1.6875
1762, 0.375, 1.6875
1763, 0.4375, 1.6875
1764, 0.5, 1.6875
1765, 0.5625, 1.6875
1766, 0.625, 1.6875
1767, 0.6875, 1.6875
1768, 0.75, 1.6875
1769, 0.8125, 1.6875
1770, 0.875, 1.6875
1771, 0.9375, 1.6875
1772, 1, 1.6875
1773, 1.0625, 1.6875
1774, 1.125, 1.6875
1775, 1.1875, 1.6875
1776, 1.25, 1.6875
1777, 1.3125, 1.6875
1778, 1.375, 1.6875
1779, 1.4375, 1.6875
1780, 1.5, 1.6875
1781, 1.5625, 1.6875
1782, 1.625, 1.6875
1783, 1.6875, 1.6875
1784, 1.75, 1.6875
1785, 1.8125, 1.6875
1786, 1.875, 1.6875
1787, 1.9375, 1.6875
1788, 2, 1.6875
1789, 2.0625, 1.6875
1790, 2.125, 1.6875
1791, 2.1875, 1.6875
1792, 2.25, 1.6875
1793, 2.3125, 1.6875
1794, 2.375, 1.6875
1795, 2.4375, 1.6875
1796, 2.5, 1.6875
1797, 2.5625, 1.6875
1798, 2.625, 1.6875
1799, 2.6875, 1.6875
1800, 2.75, 1.6875
1801, 2.8125, 1.6875
1802, 2.875, 1.6875
1803, 2.9375, 1.6875
1804, 3, 1.6875
1805, 3.0625, 1.6875
1806, 3.125, 1.6875
1807, 3.1875, 1.6875
1808, 3.25, 1.6875
1809, 3.3125, 1.6875
1810, 3.375, 1.6875
1811, 3.4375, 1.6875
1812, 3.5, 1.6875
1813, 3.5625, 1.6875
1814, 3.625, 1.6875
1815, 3.6875, 1.6875
1816, 3.75, 1.6875
1817, 3.8125, 1.6875
1818, 3.875, 1.6875
1819, 3.9375, 1.6875
1820, 4, 1.6875
1821, 0, 1.75
1822, 0.0625, 1.75
1823, 0.125, 1.75
1824, 0.1875, 1.75
1825, 0.25, 1.75
1826, 0.3125, 1.75
1827, 0.375, 1.75
1828, 0.4375, 1.75
1829, 0.5, 1.75
1830, 0.5625, 1.75
1831, 0.625, 1.75
1832, 0.6875, 1.75
1833, 0.75, 1.75
1834, 0.8125, 1.75
1835, 0.875, 1.75
1836, 0.9375, 1.75
1837, 1, 1.75
1838, 1.0625, 1.75
1839, 1.125, 1.75
1840, 1.1875, 1.75
1841, 1.25, 1.75
1842, 1.3125, 1.75
1843, 1.375, 1.75
1844, 1.4375, 1.75
1845, 1.5, 1.75
1846, 1.5625, 1.75
1847, 1.625, 1.75
1848, 1.6875, 1.75
1849, 1.75, 1.75
1850, 1.8125, 1.75
1851, 1.875, 1.75
1852, 1.9375, 1.75
1853, 2, 1.75
1854, 2.0625, 1.75
1855, 2.125, 1.75
1856, 2.1875, 1.75
1857, 2.25, 1.75
1858, 2.3125, 1.75
1859, 2.375, 1.75
1860, 2.4375, 1.75
1861, 2.5, 1.75
1862, 2.5625, 1.75
1863, 2.625, 1.75
1864, 2.6875, 1.75
1865, 2.75, 1.75
1866, 2.8125, 1.75
1867, 2.875, 1.75
1868, 2.9375, 1.75
1869, 3, 1.75
1870, 3.0625, 1.75
1871, 3.125, 1.75
1872, 3.1875, 1.75
1873, 3.25, 1.75
1874, 3.3125, 1.75
1875, 3.375, 1.75
1876, 3.4375, 1.75
1877, 3.5, 1.75
1878, 3.5625, 1.75
1879, 3.625, 1.75
1880, 3.6875, 1.75
1881, 3.75, 1.75
1882, 3.8125, 1.75
1883, 3.875, 1.75
1884, 3.9375, 1.75
1885, 4, 1.75
1886, 0, 1.8125
1887, 0.0625, 1.8125
1888, 0.125, 1.8125
1889, 0.1875, 1.8125
1890, 0.25, 1.8125
1891, 0.3125, 1.8125
1892, 0.375, 1.8125
1893, 0.4375, 1.8125
1894, 0.5, 1.8125
1895, 0.5625, 1.8125
1896, 0.625, 1.8125
1897, 0.6875, 1.8125
1898, 0.75, 1.8125
1899, 0.8125, 1.8125
1900, 0.875, 1.8125
1901, 0.9375, 1.8125
1902, 1, 1.8125
1903, 1.0625, 1.8125
1904, 1.125, 1.8125
1905, 1.1875, 1.8125
1906, 1.25, 1.8125
1907, 1.3125, 1.8125
1908, 1.375, 1.8125
1909, 1.4375, 1.8125
1910, 1.5, 1.8125
1911, 1.5625, 1.8125
1912, 1.625, 1.8125
1913, 1.6875, 1.8125
1914, 1.75, 1.8125
1915, 1.8125, 1.8125
1916, 1.875, 1.8125
1917, 1.9375, 1.8125
1918, 2, 1.8125
1919, 2.0625, 1.8125
1920, 2.125, 1.8125
1921, 2.1875, 1.8125
1922, 2.25, 1.8125
1923, 2.3125, 1.8125
1924, 2.375, 1.8125
1925, 2.4375, 1.8125
1926, 2.5, 1.8125
1927, 2.5625, 1.8125
1928, 2.625, 1.8125
1929, 2.6875, 1.8125
1930, 2.75, 1.8125
1931, 2.8125, 1.8125
1932, 2.875, 1.8125
1933, 2.9375, 1.8125
1934, 3, 1.8125
1935, 3.0625, 1.8125
1936, 3.125, 1.8125
1937, 3.1875, 1.8125
1938, 3.25, 1.8125
1939, 3.3125, 1.8125
1940, 3.375, 1.8125
1941, 3.4375, 1.8125
1942, 3.5, 1.8125
1943, 3.5625, 1.8125
1944, 3.625, 1.8125
1945, 3.6875, 1.8125
1946, 3.75, 1.8125
1947, 3.8125, 1.8125
1948, 3.875, 1.8125
1949, 3.9375, 1.8125
1950, 4, 1.8125
1951, 0, 1.875
1952, 0.0625, 1.875
1953, 0.125, 1.875
1954, 0.1875, 1.875
1955, 0.25, 1.875
1956, 0.3125, 1.875
1957, 0.375, 1.875
1958, 0.4375, 1.875
1959, 0.5, 1.875
1960, 0.5625, 1.875
1961, 0.625, 1.875
1962, 0.6875, 1.875
1963, 0.75, 1.875
1964, 0.8125, 1.875
1965, 0.875, 1.875
1966, 0.9375, 1.875
1967, 1, 1.875
1968, 1.0625, 1.875
1969, 1.125, 1.875
1970, 1.1875, 1.875
1971, 1.25, 1.875
1972, 1.3125, 1.875
1973, 1.375, 1.875
1974, 1.4375, 1.875
1975, 1.5, 1.875
1976, 1.5625, 1.875
1977, 1.625, 1.875
1978, 1.6875, 1.875
1979, 1.75, 1.875
1980, 1.8125, 1.875
1981, 1.875, 1.875
1982, 1.9375, 1.875
1983, 2, 1.875
1984, 2.0625, 1.875
1985, 2.125, 1.875
1986, 2.1875, 1.875
1987, 2.25, 1.875
1988, 2.3125, 1.875
1989, 2.375, 1.875
1990, 2.4375, 1.875
1991, 2.5, 1.875
1992, 2.5625, 1.875
1993, 2.625, 1.875
1994, 2.6875, 1.875
1995, 2.75, 1.875
1996, 2.8125, 1.875
1997, 2.875, 1.875
1998, 2.9375, 1.875
1999, 3, 1.875
2000, 3.0625, 1.875
2001, 3.125, 1.875
2002, 3.1875, 1.875
2003, 3.25, 1.875
2004, 3.3125, 1.875
2005, 3.375, 1.875
2006, 3.4375, 1.875
2007, 3.5, 1.875
2008, 3.5625, 1.875
2009, 3.625, 1.875
2010, 3.6875, 1.875
2011, 3.75, 1.875
2012, 3.8125, 1.875
2013, 3.875, 1.875
2014, 3.9375, 1.875
2015, 4, 1.875
2016, 0, 1.9375
2017, 0.0625, 1.9375
2018, 0.125, 1.9375
2019, 0.1875, 1.9375
2020, 0.25, 1.9375
2021, 0.3125, 1.9375
2022, 0.375, 1.9375
2023, 0.4375, 1.9375
2024, 0.5, 1.9375
2025, 0.5625, 1.9375
2026, 0.625, 1.9375
2027, 0.6875, 1.9375
2028, 0.75, 1.9375
2029, 0.8125, 1.9375
2030, 0.875, 1.9375
2031, 0.9375, 1.9375
2032, 1, 1.9375
2033, 1.0625, 1.9375
2034, 1.125, 1.9375
2035, 1.1875, 1.9375
2036, 1.25, 1.9375
2037, 1.3125, 1.9375
2038, 1.375, 1.9375
2039, 1.4375, 1.9375
2040, 1.5, 1.9375
2041, 1.5625, 1.9375
2042, 1.625, 1.9375
2043, 1.6875, 1.9375
2044, 1.75, 1.9375
2045, 1.8125, 1.9375
2046, 1.875, 1.9375
2047, 1.9375, 1.9375
2048, 2, 1.9375
2049, 2.0625, 1.9375
2050, 2.125, 1.9375
2051, 2.1875, 1.9375
2052, 2.25, 1.9375
2053, 2.3125, 1.9375
2054, 2.375, 1.9375
2055, 2.4375, 1.9375
2056, 2.5, 1.9375
2057, 2.5625, 1.9375
2058, 2.625, 1.9375
2059, 2.6875, 1.9375
2060, 2.75, 1.9375
2061, 2.8125, 1.9375
2062, 2.875, 1.9375
2063, 2.9375, 1.9375
2064, 3, 1.9375
2065, 3.0625, 1.9375
2066, 3.125, 1.9375
2067, 3.1875, 1.9375
2068, 3.25, 1.9375
2069, 3.3125, 1.9375
2070, 3.375, 1.9375
2071, 3.4375, 1.9375
2072, 3.5, 1.9375
2073, 3.5625, 1.9375
2074, 3.625, 1.9375
2075, 3.6875, 1.9375
2076, 3.75, 1.9375
2077, 3.8125, 1.9375
2078, 3.875, 1.9375
2079, 3.9375, 1.9375
2080, 4, 1.9375
2081, 0, 2
2082, 0.0625, 2
2083, 0.125, 2
2084, 0.1875, 2
2085, 0.25, 2
2086, 0.3125, 2
2087, 0.375, 2
2088, 0.4375, 2
2089, 0.5, 2
2090, 0.5625, 2
2091, 0.625, 2
2092, 0.6875, 2
2093, 0.75, 2
2094, 0.8125, 2
2095, 0.875, 2
2096, 0.9375, 2
2097, 1, 2
2098, 1.0625, 2
2099, 1.125, 2
2100, 1.1875, 2
2101, 1.25, 2
2102, 1.3125, 2
2103, 1.375, 2
2104, 1.4375, 2
2105, 1.5, 2
2106, 1.5625, 2
2107, 1.625, 2
2108, 1.6875, 2
2109, 1.75, 2
2110, 1.8125, 2
2111, 1.875, 2
2112, 1.9375, 2
2113, 2, 2
2114, 2.0625, 2
2115, 2.125, 2
2116, 2.1875, 2
2117, 2.25, 2
2118, 2.3125, 2
2119, 2.375, 2
2120, 2.4375, 2
2121, 2.5, 2
2122, 2.5625, 2
2123, 2.625, 2
2124, 2.6875, 2
2125, 2.75, 2
2126, 2.8125, 2
2127, 2.875, 2
2128, 2.9375, 2
2129, 3, 2
2130, 3.0625, 2
2131, 3.125, 2
2132, 3.1875, 2
2133, 3.25, 2
2134, 3.3125, 2
2135, 3.375, 2
2136, 3.4375, 2
2137, 3.5, 2
2138, 3.5625, 2
2139, 3.625, 2
2140, 3.6875, 2
2141, 3.75, 2
2142, 3.8125, 2
2143, 3.875, 2
2144, 3.9375, 2
2145, 4, 2
2146, 0, 2.0625
2147, 0.0625, 2.0625
2148, 0.125, 2.0625
2149, 0.1875, 2.0625
2150, 0.25, 2.0625
2151, 0.3125, 2.0625
2152, 0.375, 2.0625
2153, 0.4375, 2.0625
2154, 0.5, 2.0625
2155, 0.5625, 2.0625
2156, 0.625, 2.0625
2157, 0.6875, 2.0625
2158, 0.75, 2.0625
2159, 0.8125, 2.0625
2160, 0.875, 2.0625
2161, 0.9375, 2.0625
2162, 1, 2.0625
2163, 1.0625, 2.0625
2164, 1.125, 2.0625
2165, 1.1875, 2.0625
2166, 1.25, 2.0625
2167, 1.3125, 2.0625
2168, 1.375, 2.0625
2169, 1.4375, 2.0625
2170, 1.5, 2.0625
2171, 1.5625, 2.0625
2172, 1.625, 2.0625
2173, 1.6875, 2.0625
2174, 1.75, 2.0625
2175, 1.8125, 2.0625
2176, 1.875, 2.0625
2177, 1.9375, 2.0625
2178, 2, 2.0625
2179, 2.0625, 2.0625
2180, 2.125, 2.0625
2181, 2.1875, 2.0625
2182, 2.25, 2.0625
2183, 2.3125, 2.0625
2184, 2.375, 2.0625
2185, 2.4375, 2.0625
2186, 2.5, 2.0625
2187, 2.5625, 2.0625
2188, 2.625, 2.0625
2189, 2.6875, 2.0625
2190, 2.75, 2.0625
2191, 2.8125, 2.0625
2192, 2.875, 2.0625
2193, 2.9375, 2.0625
2194, 3, 2.0625
2195, 3.0625, 2.0625
2196, 3.125, 2.0625
2197, 3.1875, 2.0625
2198, 3.25, 2.0625
2199, 3.3125, 2.0625
2200, 3.375, 2.0625
2201, 3.4375, 2.0625
2202, 3.5, 2.0625
2203, 3.5625, 2.0625
2204, 3.625, 2.0625
2205, 3.6875, 2.0625
2206, 3.75, 2.0625
2207, 3.8125, 2.0625
2208, 3.875, 2.0625
2209, 3.9375, 2.0625
2210, 4, 2.0625
2211, 0, 2.125
2212, 0.0625, 2.125
2213, 0.125, 2.125
2214, 0.1875, 2.125
2215, 0.25, 2.125
2216, 0.3125, 2.125
2217, 0.375, 2.125
2218, 0.4375, 2.125
2219, 0.5, 2.125
2220, 0.5625, 2.125
2221, 0.625, 2.125
2222, 0.6875, 2.125
2223, 0.75, 2.125
2224, 0.8125, 2.125
2225, 0.875, 2.125
2226, 0.9375, 2.125
2227, 1, 2.125
2228, 1.0625, 2.125
2229, 1.125, 2.125
2230, 1.1875, 2.125
2231, 1.25, 2.125
2232, 1.3125, 2.125
2233, 1.375, 2.125
2234, 1.4375, 2.125
2235, 1.5, 2.125
2236, 1.5625, 2.125
2237, 1.625, 2.125
2238, 1.6875, 2.125
2239, 1.75, 2.125
2240, 1.8125, 2.125
2241, 1.875, 2.125
2242, 1.9375, 2.125
2243, 2, 2.125
2244, 2.0625, 2.125
2245, 2.125, 2.125
2246, 2.1875, 2.125
2247, 2.25, 2.125
2248, 2.3125, 2.125
2249, 2.375, 2.125
2250, 2.4375, 2.125
2251, 2.5, 2.125
2252, 2.5625, 2.125
2253, 2.625, 2.125
2254, 2.6875, 2.125
2255, 2.75, 2.125
2256, 2.8125, 2.125
2257, 2.875, 2.125
2258, 2.9375, 2.125
2259, 3, 2.125
2260, 3.0625, 2.125
2261, 3.125, 2.125
2262, 3.1875, 2.125
2263, 3.25, 2.125
2264, 3.3125, 2.125
2265, 3.375, 2.125
2266, 3.4375, 2.125
2267, 3.5, 2.125
2268, 3.5625, 2.125
2269, 3.625, 2.125
2270, 3.6875, 2.125
2271, 3.75, 2.125
2272, 3.8125, 2.125
2273, 3.875, 2.125
2274, 3.9375, 2.125
2275, 4, 2.125
2276, 0, 2.1875
2277, 0.0625, 2.1875
2278, 0.125, 2.1875
2279, 0.1875, 2.1875
2280, 0.25, 2.1875
2281, 0.3125, 2.1875
2282, 0.375, 2.1875
2283, 0.4375, 2.1875
2284, 0.5, 2.1875
2285, 0.5625, 2.1875
2286, 0.625, 2.1875
2287, 0.6875, 2.1875
2288, 0.75, 2.1875
2289, 0.8125, 2.1875
2290, 0.875, 2.1875
2291, 0.9375, 2.1875
2292, 1, 2.1875
2293, 1.0625, 2.1875
2294, 1.125, 2.1875
2295, 1.1875, 2.1875
2296, 1.25, 2.1875
2297, 1.3125, 2.1875
2298, 1.375, 2.1875
2299, 1.4375, 2.1875
2300, 1.5, 2.1875
2301, 1.5625, 2.1875
2302, 1.625, 2.1875
2303, 1.6875, 2.1875
2304, 1.75, 2.1875
2305, 1.8125, 2.1875
2306, 1.875, 2.1875
2307, 1.9375, 2.1875
2308, 2, 2.1875
2309, 2.0625, 2.1875
2310, 2.125, 2.1875
2311, 2.1875, 2.1875
2312, 2.25, 2.1875
2313, 2.3125, 2.1875
2314, 2.375, 2.1875
2315, 2.4375, 2.1875
2316, 2.5, 2.1875
2317, 2.5625, 2.1875
2318, 2.625, 2.1875
2319, 2.6875, 2.1875
2320, 2.75, 2.1875
2321, 2.8125, 2.1875
2322, 2.875, 2.1875
2323, 2.9375, 2.1875
2324, 3, 2.1875
2325, 3.0625, 2.1875
2326, 3.125, 2.1875
2327, 3.1875, 2.1875
2328, 3.25, 2.1875
2329, 3.3125, 2.1875
2330, 3.375, 2.1875
2331, 3.4375, 2.1875
2332, 3.5, 2.1875
2333, 3.5625, 2.1875
2334, 3.625, 2.1875
2335, 3.6875, 2.1875
2336, 3.75, 2.1875
2337, 3.8125, 2.1875
2338, 3.875, 2.1875
2339, 3.9375, 2.1875
2340, 4, 2.1875
2341, 0, 2.25
2342, 0.0625, 2.25
2343, 0.125, 2.25
2344, 0.1875, 2.25
2345, 0.25, 2.25
2346, 0.3125, 2.25
2347, 0.375, 2.25
2348, 0.4375, 2.25
2349, 0.5, 2.25
2350, 0.5625, 2.25
2351, 0.625, 2.25
2352, 0.6875, 2.25
2353, 0.75, 2.25
2354, 0.8125, 2.25
2355, 0.875, 2.25
2356, 0.9375, 2.25
2357, 1, 2.25
2358, 1.0625, 2.25
2359, 1.125, 2.25
2360, 1.1875, 2.25
2361, 1.25, 2.25
2362, 1.3125, 2.25
2363, 1.375, 2.25
2364, 1.4375, 2.25
2365, 1.5, 2.25
2366, 1.5625, 2.25
2367, 1.625, 2.25
2368, 1.6875, 2.25
2369, 1.75, 2.25
2370, 1.8125, 2.25
2371, 1.875, 2.25
2372, 1.9375, 2.25
2373, 2, 2.25
2374, 2.0625, 2.25
2375, 2.125, 2.25
2376, 2.1875, 2.25
2377, 2.25, 2.25
2378, 2.3125, 2.25
2379, 2.375, 2.25
2380, 2.4375, 2.25
2381, 2.5, 2.25
2382, 2.5625, 2.25
2383, 2.625, 2.25
2384, 2.6875, 2.25
2385, 2.75, 2.25
2386, 2.8125, 2.25
2387, 2.875, 2.25
2388, 2.9375, 2.25
2389, 3, 2.25
2390, 3.0625, 2.25
2391, 3.125, 2.25
2392, 3.1875, 2.25
2393, 3.25, 2.25
2394, 3.3125, 2.25
2395, 3.375, 2.25
2396, 3.4375, 2.25
2397, 3.5, 2.25
2398, 3.5625, 2.25
2399, 3.625, 2.25
2400, 3.6875, 2.25
2401, 3.75, 2.25
2402, 3.8125, 2.25
2403, 3.875, 2.25
2404, 3.9375, 2.25
2405, 4, 2.25
2406, 0, 2.3125
2407, 0.0625, 2.3125
2408, 0.125, 2.3125
2409, 0.1875, 2.3125
2410, 0.25, 2.3125
2411, 0.3125, 2.3125
2412, 0.375, 2.3125
2413, 0.4375, 2.3125
2414, 0.5, 2.3125
2415, 0.5625, 2.3125
2416, 0.625, 2.3125
2417, 0.6875, 2.3125
2418, 0.75, 2.3125
2419, 0.8125, 2.3125
2420, 0.875, 2.3125
2421, 0.9375, 2.3125
2422, 1, 2.3125
2423, 1.0625, 2.3125
2424, 1.125, 2.3125
2425, 1.1875, 2.3125
2426, 1.25, 2.3125
2427, 1.3125, 2.3125
2428, 1.375, 2.3125
2429, 1.4375, 2.3125
2430, 1.5, 2.3125
2431, 1.5625, 2.3125
2432, 1.625, 2.3125
2433, 1.6875, 2.3125
2434, 1.75, 2.3125
2435, 1.8125, 2.3125
2436, 1.875, 2.3125
2437, 1.9375, 2.3125
2438, 2, 2.3125
2439, 2.0625, 2.3125
2440, 2.125, 2.3125
2441, 2.1875, 2.3125
2442, 2.25, 2.3125
2443, 2.3125, 2.3125
2444, 2.375, 2.3125
2445, 2.4375, 2.3125
2446, 2.5, 2.3125
2447, 2.5625, 2.3125
2448, 2.625, 2.3125
2449, 2.6875, 2.3125
2450, 2.75, 2.3125
2451, 2.8125, 2.3125
2452, 2.875, 2.3125
2453, 2.9375, 2.3125
2454, 3, 2.3125
2455, 3.0625, 2.3125
2456, 3.125, 2.3125
2457, 3.1875, 2.3125
2458, 3.25, 2.3125
2459, 3.3125, 2.3125
2460, 3.375, 2.3125
2461, 3.4375, 2.3125
2462, 3.5, 2.3125
2463, 3.5625, 2.3125
2464, 3.625, 2.3125
2465, 3.6875, 2.3125
2466, 3.75, 2.3125
2467, 3.8125, 2.3125
2468, 3.875, 2.3125
2469, 3.9375, 2.3125
2470, 4, 2.3125
2471, 0, 2.375
2472, 0.0625, 2.375
2473, 0.125, 2.375
2474, 0.1875, 2.375
2475, 0.25, 2.375
2476, 0.3125, 2.375
2477, 0.375, 2.375
2478, 0.4375, 2.375
2479, 0.5, 2.375
2480, 0.5625, 2.375
2481, 0.625, 2.375
2482, 0.6875, 2.375
2483, 0.75, 2.375
2484, 0.8125, 2.375
2485, 0.875, 2.375
2486, 0.9375, 2.375
2487, 1, 2.375
2488, 1.0625, 2.375
2489, 1.125, 2.375
2490, 1.1875, 2.375
2491, 1.25, 2.375
2492, 1.3125, 2.375
2493, 1.375, 2.375
2494, 1.4375, 2.375
2495, 1.5, 2.375
2496, 1.5625, 2.375
2497, 1.625, 2.375
2498, 1.6875, 2.375
2499, 1.75, 2.375
2500, 1.8125, 2.375
2501, 1.875, 2.375
2502, 1.9375, 2.375
2503, 2, 2.375
2504, 2.0625, 2.375
2505, 2.125, 2.375
2506, 2.1875, 2.375
2507, 2.25, 2.375
2508, 2.3125, 2.375
2509, 2.375, 2.375
2510, 2.4375, 2.375
2511, 2.5, 2.375
2512, 2.5625, 2.375
2513, 2.625, 2.375
2514, 2.6875, 2.375
2515, 2.75, 2.375
2516, 2.8125, 2.375
2517, 2.875, 2.375
2518, 2.9375, 2.375
2519, 3, 2.375
2520, 3.0625, 2.375
2521, 3.125, 2.375
2522, 3.1875, 2.375
2523, 3.25, 2.375
2524, 3.3125, 2.375
2525, 3.375, 2.375
2526, 3.4375, 2.375
2527, 3.5, 2.375
2528, 3.5625, 2.375
2529, 3.625, 2.375
2530, 3.6875, 2.375
2531, 3.75, 2.375
2532, 3.8125, 2.375
2533, 3.875, 2.375
2534, 3.9375, 2.375
2535, 4, 2.375
2536, 0, 2.4375
2537, 0.0625, 2.4375
2538, 0.125, 2.4375
2539, 0.1875, 2.4375
2540, 0.25, 2.4375
2541, 0.3125, 2.4375
2542, 0.375, 2.4375
2543, 0.4375, 2.4375
2544, 0.5, 2.4375
2545, 0.5625, 2.4375
2546, 0.625, 2.4375
2547, 0.6875, 2.4375
2548, 0.75, 2.4375
2549, 0.8125, 2.4375
2550, 0.875, 2.4375
2551, 0.9375, 2.4375
2552, 1, 2.4375
2553, 1.0625, 2.4375
2554, 1.125, 2.4375
2555, 1.1875, 2.4375
2556, 1.25, 2.4375
2557, 1.3125, 2.4375
2558, 1.375, 2.4375
2559, 1.4375, 2.4375
2560, 1.5, 2.4375
2561, 1.5625, 2.4375
2562, 1.625, 2.4375
2563, 1.6875, 2.4375
2564, 1.75, 2.4375
2565, 1.8125, 2.4375
2566, 1.875, 2.4375
2567, 1.9375, 2.4375
2568, 2, 2.4375
2569, 2.0625, 2.4375
2570, 2.125, 2.4375
2571, 2.1875, 2.4375
2572, 2.25, 2.4375
2573, 2.3125, 2.4375
2574, 2.375, 2.4375
2575, 2.4375, 2.4375
2576, 2.5, 2.4375
2577, 2.5625, 2.4375
2578, 2.625, 2.4375
2579, 2.6875, 2.4375
2580, 2.75, 2.4375
2581, 2.8125, 2.4375
2582, 2.875, 2.4375
2583, 2.9375, 2.4375
2584, 3, 2.4375
2585, 3.0625, 2.4375
2586, 3.125, 2.4375
2587, 3.1875, 2.4375
2588, 3.25, 2.4375
2589, 3.3125, 2.4375
2590, 3.375, 2.4375
2591, 3.4375, 2.4375
2592, 3.5, 2.4375
2593, 3.5625, 2.4375
2594, 3.625, 2.4375
2595, 3.6875, 2.4375
2596, 3.75, 2.4375
2597, 3.8125, 2.4375
2598, 3.875, 2.4375
2599, 3.9375, 2.4375
2600, 4, 2.4375
2601, 0, 2.5
2602, 0.0625, 2.5
2603, 0.125, 2.5
2604, 0.1875, 2.5
2605, 0.25, 2.5
2606, 0.3125, 2.5
2607, 0.375, 2.5
2608, 0.4375, 2.5
2609, 0.5, 2.5
2610, 0.5625, 2.5
2611, 0.625, 2.5
2612, 0.6875, 2.5
2613, 0.75, 2.5
2614, 0.8125, 2.5
2615, 0.875, 2.5
2616, 0.9375, 2.5
2617, 1, 2.5
2618, 1.0625, 2.5
2619, 1.125, 2.5
2620, 1.1875, 2.5
2621, 1.25, 2.5
2622, 1.3125, 2.5
2623, 1.375, 2.5
2624, 1.4375, 2.5
2625, 1.5, 2.5
2626, 1.5625, 2.5
2627, 1.625, 2.5
2628, 1.6875, 2.5
2629, 1.75, 2.5
2630, 1.8125, 2.5
2631, 1.875, 2.5
2632, 1.9375, 2.5
2633, 2, 2.5
2634, 2.0625, 2.5
2635, 2.125, 2.5
2636, 2.1875, 2.5
2637, 2.25, 2.5
2638, 2.3125, 2.5
2639, 2.375, 2.5
2640, 2.4375, 2.5
2641, 2.5, 2.5
2642, 2.5625, 2.5
2643, 2.625, 2.5
2644, 2.6875, 2.5
2645, 2.75, 2.5
2646, 2.8125, 2.5
2647, 2.875, 2.5
2648, 2.9375, 2.5
2649, 3, 2.5
2650, 3.0625, 2.5
2651, 3.125, 2.5
2652, 3.1875, 2.5
2653, 3.25, 2.5
2654, 3.3125, 2.5
2655, 3.375, 2.5
2656, 3.4375, 2.5
2657, 3.5, 2.5
2658, 3.5625, 2.5
2659, 3.625, 2.5
2660, 3.6875, 2.5
2661, 3.75, 2.5
2662, 3.8125, 2.5
2663, 3.875, 2.5
2664, 3.9375, 2.5
2665, 4, 2.5
2666, 0, 2.5625
2667, 0.0625, 2.5625
2668, 0.125, 2.5625
2669, 0.1875, 2.5625
2670, 0.25, 2.5625
2671, 0.3125, 2.5625
2672, 0.375, 2.5625
2673, 0.4375, 2.5625
2674, 0.5, 2.5625
2675, 0.5625, 2.5625
2676, 0.625, 2.5625
2677, 0.6875, 2.5625
2678, 0.75, 2.5625
2679, 0.8125, 2.5625
2680, 0.875, 2.5625
2681, 0.9375, 2.5625
2682, 1, 2.5625
2683, 1.0625, 2.5625
2684, 1.125, 2.5625
2685, 1.1875, 2.5625
2686, 1.25, 2.5625
2687, 1.3125, 2.5625
2688, 1.375, 2.5625
2689, 1.4375, 2.5625
2690, 1.5, 2.5625
2691, 1.5625, 2.5625
2692, 1.625, 2.5625
2693, 1.6875, 2.5625
2694, 1.75, 2.5625
2695, 1.8125, 2.5625
2696, 1.875, 2.5625
2697, 1.9375, 2.5625
2698, 2, 2.5625
2699, 2.0625, 2.5625
2700, 2.125, 2.5625
2701, 2.1875, 2.5625
2702, 2.25, 2.5625
2703, 2.3125, 2.5625
2704, 2.375, 2.5625
2705, 2.4375, 2.5625
2706, 2.5, 2.5625
2707, 2.5625, 2.5625
2708, 2.625, 2.5625
2709, 2.6875, 2.5625
2710, 2.75, 2.5625
2711, 2.8125, 2.5625
2712, 2.875, 2.5625
2713, 2.9375, 2.5625
2714, 3, 2.5625
2715, 3.0625, 2.5625
2716, 3.125, 2.5625
2717, 3.1875, 2.5625
2718, 3.25, 2.5625
2719, 3.3125, 2.5625
2720, 3.375, 2.5625
2721, 3.4375, 2.5625
2722, 3.5, 2.5625
2723, 3.5625, 2.5625
2724, 3.625, 2.5625
2725, 3.6875, 2.5625
2726, 3.75, 2.5625
2727, 3.8125, 2.5625
2728, 3.875, 2.5625
2729, 3.9375, 2.5625
2730, 4, 2.5625
2731, 0, 2.625
2732, 0.0625, 2.625
2733, 0.125, 2.625
2734, 0.1875, 2.625
2735, 0.25, 2.625
2736, 0.3125, 2.625
2737, 0.375, 2.625
2738, 0.4375, 2.625
2739, 0.5, 2.625
2740, 0.5625, 2.625
2741, 0.625, 2.625
2742, 0.6875, 2.625
2743, 0.75, 2.625
2744, 0.8125, 2.625
2745, 0.875, 2.625
2746, 0.9375, 2.625
2747, 1, 2.625
2748, 1.0625, 2.625
2749, 1.125, 2.625
2750, 1.1875, 2.625
2751, 1.25, 2.625
2752, 1.3125, 2.625
2753, 1.375, 2.625
2754, 1.4375, 2.625
2755, 1.5, 2.625
2756, 1.5625, 2.625
2757, 1.625, 2.625
2758, 1.6875, 2.625
2759, 1.75, 2.625
2760, 1.8125, 2.625
2761, 1.875, 2.625
2762, 1.9375, 2.625
2763, 2, 2.625
2764, 2.0625, 2.625
2765, 2.125, 2.625
2766, 2.1875, 2.625
2767, 2.25, 2.625
2768, 2.3125, 2.625
2769, 2.375, 2.625
2770, 2.4375, 2.625
2771, 2.5, 2.625
2772, 2.5625, 2.625
2773, 2.625, 2.625
2774, 2.6875, 2.625
2775, 2.75, 2.625
2776, 2.8125, 2.625
2777, 2.875, 2.625
2778, 2.9375, 2.625
2779, 3, 2.625
2780, 3.0625, 2.625
2781, 3.125, 2.625
2782, 3.1875, 2.625
2783, 3.25, 2.625
2784, 3.3125, 2.625
2785, 3.375, 2.625
2786, 3.4375, 2.625
2787, 3.5, 2.625
2788, 3.5625, 2.625
2789, 3.625, 2.625
2790, 3.6875, 2.625
2791, 3.75, 2.625
2792, 3.8125, 2.625
2793, 3.875, 2.625
2794, 3.9375, 2.625
2795, 4, 2.625
2796, 0, 2.6875
2797, 0.0625, 2.6875
2798, 0.125, 2.6875
2799, 0.1875, 2.6875
2800, 0.25, 2.6875
2801, 0.3125, 2.6875
2802, 0.375, 2.6875
2803, 0.4375, 2.6875
2804, 0.5, 2.6875
2805, 0.5625, 2.6875
2806, 0.625, 2.6875
2807, 0.6875, 2.6875
2808, 0.75, 2.6875
2809, 0.8125, 2.6875
2810, 0.875, 2.6875
2811, 0.9375, 2.6875
2812, 1, 2.6875
2813, 1.0625, 2.6875
2814, 1.125, 2.6875
2815, 1.1875, 2.6875
2816, 1.25, 2.6875
2817, 1.3125, 2.6875
2818, 1.375, 2.6875
2819, 1.4375, 2.6875
2820, 1.5, 2.6875
2821, 1.5625, 2.6875
2822, 1.625, 2.6875
2823, 1.6875, 2.6875
2824, 1.75, 2.6875
2825, 1.8125, 2.6875
2826, 1.875, 2.6875
2827, 1.9375, 2.6875
2828, 2, 2.6875
2829, 2.0625, 2.6875
2830, 2.125, 2.6875
2831, 2.1875, 2.6875
2832, 2.25, 2.6875
2833, 2.3125, 2.6875
2834, 2.375, 2.6875
2835, 2.4375, 2.6875
2836, 2.5, 2.6875
2837, 2.5625, 2.6875
2838, 2.625, 2.6875
2839, 2.6875, 2.6875
2840, 2.75, 2.6875
2841, 2.8125, 2.6875
2842, 2.875, 2.6875
2843, 2.9375, 2.6875
2844, 3, 2.6875
2845, 3.0625, 2.6875
2846, 3.125, 2.6875
2847, 3.1875, 2.6875
2848, 3.25, 2.6875
2849, 3.3125, 2.6875
2850, 3.375, 2.6875
2851, 3.4375, 2.6875
2852, 3.5, 2.6875
2853, 3.5625, 2.6875
2854, 3.625, 2.6875
2855, 3.6875, 2.6875
2856, 3.75, 2.6875
2857, 3.8125, 2.6875
2858, 3.875, 2.6875
2859, 3.9375, 2.6875
2860, 4, 2.6875
2861, 0, 2.75
2862, 0.0625, 2.75
2863, 0.125, 2.75
2864, 0.1875, 2.75
2865, 0.25, 2.75
2866, 0.3125, 2.75
2867, 0.375, 2.75
2868, 0.4375, 2.75
2869, 0.5, 2.75
2870, 0.5625, 2.75
2871, 0.625, 2.75
2872, 0.6875, 2.75
2873, 0.75, 2.75
2874, 0.8125, 2.75
2875, 0.875, 2.75
2876, 0.9375, 2.75
2877, 1, 2.75
2878, 1.0625, 2.75
2879, 1.125, 2.75
2880, 1.1875, 2.75
2881, 1.25, 2.75
2882, 1.3125, 2.75
2883, 1.375, 2.75
2884, 1.4375, 2.75
2885, 1.5, 2.75
2886, 1.5625, 2.75
2887, 1.625, 2.75
2888, 1.6875, 2.75
2889, 1.75, 2.75
2890, 1.8125, 2.75
2891, 1.875, 2.75
2892, 1.9375, 2.75
2893, 2, 2.75
2894, 2.0625, 2.75
2895, 2.125, 2.75
2896, 2.1875, 2.75
2897, 2.25, 2.75
2898, 2.3125, 2.75
2899, 2.375, 2.75
2900, 2.4375, 2.75
2901, 2.5, 2.75
2902, 2.5625, 2.75
2903, 2.625, 2.75
2904, 2.6875, 2.75
2905, 2.75, 2.75
2906, 2.8125, 2.75
2907, 2.875, 2.75
2908, 2.9375, 2.75
2909, 3, 2.75
2910, 3.0625, 2.75
2911, 3.125, 2.75
2912, 3.1875, 2.75
2913, 3.25, 2.75
2914, 3.3125, 2.75
2915, 3.375, 2.75
2916, 3.4375, 2.75
2917, 3.5, 2.75
2918, 3.5625, 2.75
2919, 3.625, 2.75
2920, 3.6875, 2.75
2921, 3.75, 2.75
2922, 3.8125, 2.75
2923, 3.875, 2.75
2924, 3.9375, 2.75
2925, 4, 2.75
2926, 0, 2.8125
2927, 0.0625, 2.8125
2928, 0.125, 2.8125
2929, 0.1875, 2.8125
2930, 0.25, 2.8125
2931, 0.3125, 2.8125
2932, 0.375, 2.8125
2933, 0.4375, 2.8125
2934, 0.5, 2.8125
2935, 0.5625, 2.8125
2936, 0.625, 2.8125
2937, 0.6875, 2.8125
2938, 0.75, 2.8125
2939, 0.8125, 2.8125
2940, 0.875, 2.8125
2941, 0.9375, 2.8125
2942, 1, 2.8125
2943, 1.0625, 2.8125
2944, 1.125, 2.8125
2945, 1.1875, 2.8125
2946, 1.25, 2.8125
2947, 1.3125, 2.8125
2948, 1.375, 2.8125
2949, 1.4375, 2.8125
2950, 1.5, 2.8125
2951, 1.5625, 2.8125
2952, 1.625, 2.8125
2953, 1.6875, 2.8125
2954, 1.75, 2.8125
2955, 1.8125, 2.8125
2956, 1.875, 2.8125
2957, 1.9375, 2.8125
2958, 2, 2.8125
2959, 2.0625, 2.8125
2960, 2.125, 2.8125
2961, 2.1875, 2.8125
2962, 2.25, 2.8125
2963, 2.3125, 2.8125
2964, 2.375, 2.8125
2965, 2.4375, 2.8125
2966, 2.5, 2.8125
2967, 2.5625, 2.8125
2968, 2.625, 2.8125
2969, 2.6875, 2.8125
2970, 2.75, 2.8125
2971, 2.8125, 2.8125
2972, 2.875, 2.8125
2973, 2.9375, 2.8125
2974, 3, 2.8125
2975, 3.0625, 2.8125
2976, 3.125, 2.8125
2977, 3.1875, 2.8125
2978, 3.25, 2.8125
2979, 3.3125, 2.8125
2980, 3.375, 2.8125
2981, 3.4375, 2.8125
2982, 3.5, 2.8125
2983, 3.5625, 2.8125
2984, 3.625, 2.8125
2985, 3.6875, 2.8125
2986, 3.75, 2.8125
2987, 3.8125, 2.8125
2988, 3.875, 2.8125
2989, 3.9375, 2.8125
2990, 4, 2.8125
2991, 0, 2.875
2992, 0.0625, 2.875
2993, 0.125, 2.875
2994, 0.1875, 2.875
2995, 0.25, 2.875
2996, 0.3125, 2.875
2997, 0.375, 2.875
2998, 0.4375, 2.875
2999, 0.5, 2.875
3000, 0.5625, 2.875
3001, 0.625, 2.875
3002, 0.6875, 2.875
3003, 0.75, 2.875
3004, 0.8125, 2.875
3005, 0.875, 2.875
3006, 0.9375, 2.875
3007, 1, 2.875
3008, 1.0625, 2.875
3009, 1.125, 2.875
3010, 1.1875, 2.875
3011, 1.25, 2.875
3012, 1.3125, 2.875
3013, 1.375, 2.875
3014, 1.4375, 2.875
3015, 1.5, 2.875
3016, 1.5625, 2.875
3017, 1.625, 2.875
3018, 1.6875, 2.875
3019, 1.75, 2.875
3020, 1.8125, 2.875
3021, 1.875, 2.875
3022, 1.9375, 2.875
3023, 2, 2.875
3024, 2.0625, 2.875
3025, 2.125, 2.875
3026, 2.1875, 2.875
3027, 2.25, 2.875
3028, 2.3125, 2.875
3029, 2.375, 2.875
3030, 2.4375, 2.875
3031, 2.5, 2.875
3032, 2.5625, 2.875
3033, 2.625, 2.875
3034, 2.6875, 2.875
3035, 2.75, 2.875
3036, 2.8125, 2.875
3037, 2.875, 2.875
3038, 2.9375, 2.875
3039, 3, 2.875
3040, 3.0625, 2.875
3041, 3.125, 2.875
3042, 3.1875, 2.875
3043, 3.25, 2.875
3044, 3.3125, 2.875
3045, 3.375, 2.875
3046, 3.4375, 2.875
3047, 3.5, 2.875
3048, 3.5625, 2.875
3049, 3.625, 2.875
3050, 3.6875, 2.875
3051, 3.75, 2.875
3052, 3.8125, 2.875
3053, 3.875, 2.875
3054, 3.9375, 2.875
3055, 4, 2.875
3056, 0, 2.9375
3057, 0.0625, 2.9375
3058, 0.125, 2.9375
3059, 0.1875, 2.9375
3060, 0.25, 2.9375
3061, 0.3125, 2.9375
3062, 0.375, 2.9375
3063, 0.4375, 2.9375
3064, 0.5, 2.9375
3065, 0.5625, 2.9375
3066, 0.625, 2.9375
3067, 0.6875, 2.9375
3068, 0.75, 2.9375
3069, 0.8125, 2.9375
3070, 0.875, 2.9375
3071, 0.9375, 2.9375
3072, 1, 2.9375
3073, 1.0625, 2.9375
3074, 1.125, 2.9375
3075, 1.1875, 2.9375
3076, 1.25, 2.9375
3077, 1.3125, 2.9375
3078, 1.375, 2.9375
3079, 1.4375, 2.9375
3080, 1.5, 2.9375
3081, 1.5625, 2.9375
3082, 1.625, 2.9375
3083, 1.6875, 2.9375
3084, 1.75, 2.9375
3085, 1.8125, 2.9375
3086, 1.875, 2.9375
3087, 1.9375, 2.9375
3088, 2, 2.9375
3089, 2.0625, 2.9375
3090, 2.125, 2.9375
3091, 2.1875, 2.9375
3092, 2.25, 2.9375
3093, 2.3125, 2.9375
3094, 2.375, 2.9375
3095, 2.4375, 2.9375
3096, 2.5, 2.9375
3097, 2.5625, 2.9375
3098, 2.625, 2.9375
3099, 2.6875, 2.9375
3100, 2.75, 2.9375
3101, 2.8125, 2.9375
3102, 2.875, 2.9375
3103, 2.9375, 2.9375
3104, 3, 2.9375
3105, 3.0625, 2.9375
3106, 3.125, 2.9375
3107, 3.1875, 2.9375
3108, 3.25, 2.9375
3109, 3.3125, 2.9375
3110, 3.375, 2.9375
3111, 3.4375, 2.9375
3112, 3.5, 2.9375
3113, 3.5625, 2.9375
3114, 3.625, 2.9375
3115, 3.6875, 2.9375
3116, 3.75, 2.9375
3117, 3.8125, 2.9375
3118, 3.875, 2.9375
3119, 3.9375, 2.9375
3120, 4, 2.9375
3121, 0, 3
3122, 0.0625, 3
3123, 0.125, 3
3124, 0.1875, 3
3125, 0.25, 3
3126, 0.3125, 3
3127, 0.375, 3
3128, 0.4375, 3
3129, 0.5, 3
3130, 0.5625, 3
3131, 0.625, 3
3132, 0.6875, 3
3133, 0.75, 3
3134, 0.8125, 3
3135, 0.875, 3
3136, 0.9375, 3
3137, 1, 3
3138, 1.0625, 3
3139, 1.125, 3
3140, 1.1875, 3
3141, 1.25, 3
3142, 1.3125, 3
3143, 1.375, 3
3144, 1.4375, 3
3145, 1.5, 3
3146, 1.5625, 3
3147, 1.625, 3
3148, 1.6875, 3
3149, 1.75, 3
3150, 1.8125, 3
3151, 1.875, 3
3152, 1.9375, 3
3153, 2, 3
3154, 2.0625, 3
3155, 2.125, 3
3156, 2.1875, 3
3157, 2.25, 3
3158, 2.3125, 3
3159, 2.375, 3
3160, 2.4375, 3
3161, 2.5, 3
3162, 2.5625, 3
3163, 2.625, 3
3164, 2.6875, 3
3165, 2.75, 3
3166, 2.8125, 3
3167, 2.875, 3
3168, 2.9375, 3
3169, 3, 3
3170, 3.0625, 3
3171, 3.125, 3
3172, 3.1875, 3
3173, 3.25, 3
3174, 3.3125, 3
3175, 3.375, 3
3176, 3.4375, 3
3177, 3.5, 3
3178, 3.5625, 3
3179, 3.625, 3
3180, 3.6875, 3
3181, 3.75, 3
3182, 3.8125, 3
3183, 3.875, 3
3184, 3.9375, 3
3185, 4, 3
3186, 0, 3.0625
3187, 0.0625, 3.0625
3188, 0.125, 3.0625
3189, 0.1875, 3.0625
3190, 0.25, 3.0625
3191, 0.3125, 3.0625
3192, 0.375, 3.0625
3193, 0.4375, 3.0625
3194, 0.5, 3.0625
3195, 0.5625, 3.0625
3196, 0.625, 3.0625
3197, 0.6875, 3.0625
3198, 0.75, 3.0625
3199, 0.8125, 3.0625
3200, 0.875, 3.0625
3201, 0.9375, 3.0625
3202, 1, 3.0625
3203, 1.0625, 3.0625
3204, 1.125, 3.0625
3205, 1.1875, 3.0625
3206, 1.25, 3.0625
3207, 1.3125, 3.0625
3208, 1.375, 3.0625
3209, 1.4375, 3.0625
3210, 1.5, 3.0625
3211, 1.5625, 3.0625
3212, 1.625, 3.0625
3213, 1.6875, 3.0625
3214, 1.75, 3.0625
3215, 1.8125, 3.0625
3216, 1.875, 3.0625
3217, 1.9375, 3.0625
3218, 2, 3.0625
3219, 2.0625, 3.0625
3220, 2.125, 3.0625
3221, 2.1875, 3.0625
3222, 2.25, 3.0625
3223, 2.3125, 3.0625
3224, 2.375, 3.0625
3225, 2.4375, 3.0625
3226, 2.5, 3.0625
3227, 2.5625, 3.0625
3228, 2.625, 3.0625
3229, 2.6875, 3.0625
3230, 2.75, 3.0625
3231, 2.8125, 3.0625
3232, 2.875, 3.0625
3233, 2.9375, 3.0625
3234, 3, 3.0625
3235, 3.0625, 3.0625
3236, 3.125, 3.0625
3237, 3.1875, 3.0625
3238, 3.25, 3.0625
3239, 3.3125, 3.0625
3240, 3.375, 3.0625
3241, 3.4375, 3.0625
3242, 3.5, 3.0625
3243, 3.5625, 3.0625
3244, 3.625, 3.0625
3245, 3.6875, 3.0625
3246, 3.75, 3.0625
3247, 3.8125, 3.0625
3248, 3.875, 3.0625
3249, 3.9375, 3.0625
3250, 4, 3.0625
3251, 0, 3.125
3252, 0.0625, 3.125
3253, 0.125, 3.125
3254, 0.1875, 3.125
3255, 0.25, 3.125
3256, 0.3125, 3.125
3257, 0.375, 3.125
3258, 0.4375, 3.125
3259, 0.5, 3.125
3260, 0.5625, 3.125
3261, 0.625, 3.125
3262, 0.6875, 3.125
3263, 0.75, 3.125
3264, 0.8125, 3.125
3265, 0.875, 3.125
3266, 0.9375, 3.125
3267, 1, 3.125
3268, 1.0625, 3.125
3269, 1.125, 3.125
3270, 1.1875, 3.125
3271, 1.25, 3.125
3272, 1.3125, 3.125
3273, 1.375, 3.125
3274, 1.4375, 3.125
3275, 1.5, 3.125
3276, 1.5625, 3.125
3277, 1.625, 3.125
3278, 1.6875, 3.125
3279, 1.75, 3.125
3280, 1.8125, 3.125
3281, 1.875, 3.125
3282, 1.9375, 3.125
3283, 2, 3.125
3284, 2.0625, 3.125
3285, 2.125, 3.125
3286, 2.1875, 3.125
3287, 2.25, 3.125
3288, 2.3125, 3.125
3289, 2.375, 3.125
3290, 2.4375, 3.125
3291, 2.5, 3.125
3292, 2.5625, 3.125
3293, 2.625, 3.125
3294, 2.6875, 3.125
3295, 2.75, 3.125
3296, 2.8125, 3.125
3297, 2.875, 3.125
3298, 2.9375, 3.125
3299, 3, 3.125
3300, 3.0625, 3.125
3301, 3.125, 3.125
3302, 3.1875, 3.125
3303, 3.25, 3.125
3304, 3.3125, 3.125
3305, 3.375, 3.125
3306, 3.4375, 3.125
3307, 3.5, 3.125
3308, 3.5625, 3.125
3309, 3.625, 3.125
3310, 3.6875, 3.125
3311, 3.75, 3.125
3312, 3.8125, 3.125
3313, 3.875, 3.125
3314, 3.9375, 3.125
3315, 4, 3.125
3316, 0, 3.1875
3317, 0.0625, 3.1875
3318, 0.125, 3.1875
3319, 0.1875, 3.1875
3320, 0.25, 3.1875
3321, 0.3125, 3.1875
3322, 0.375, 3.1875
3323, 0.4375, 3.1875
3324, 0.5, 3.1875
3325, 0.5625, 3.1875
3326, 0.625, 3.1875
3327, 0.6875, 3.1875
3328, 0.75, 3.1875
3329, 0.8125, 3.1875
3330, 0.875, 3.1875
3331, 0.9375, 3.1875
3332, 1, 3.1875
3333, 1.0625, 3.1875
3334, 1.125, 3.1875
3335, 1.1875, 3.1875
3336, 1.25, 3.1875
3337, 1.3125, 3.1875
3338, 1.375, 3.1875
3339, 1.4375, 3.1875
3340, 1.5, 3.1875
3341, 1.5625, 3.1875
3342, 1.625, 3.1875
3343, 1.6875, 3.1875
3344, 1.75, 3.1875
3345, 1.8125, 3.1875
3346, 1.875, 3.1875
3347, 1.9375, 3.1875
3348, 2, 3.1875
3349, 2.0625, 3.1875
3350, 2.125, 3.1875
3351, 2.1875, 3.1875
3352, 2.25, 3.1875
3353, 2.3125, 3.1875
3354, 2.375, 3.1875
3355, 2.4375, 3.1875
3356, 2.5, 3.1875
3357, 2.5625, 3.1875
3358, 2.625, 3.1875
3359, 2.6875, 3.1875
3360, 2.75, 3.1875
3361, 2.8125, 3.1875
3362, 2.875, 3.1875
3363, 2.9375, 3.1875
3364, 3, 3.1875
3365, 3.0625, 3.1875
3366, 3.125, 3.1875
3367, 3.1875, 3.1875
3368, 3.25, 3.1875
3369, 3.3125, 3.1875
3370, 3.375, 3.1875
3371, 3.4375, 3.1875
3372, 3.5, 3.1875
3373, 3.5625, 3.1875
3374, 3.625, 3.1875
3375, 3.6875, 3.1875
3376, 3.75, 3.1875
3377, 3.8125, 3.1875
3378, 3.875, 3.1875
3379, 3.9375, 3.1875
3380, 4, 3.1875
3381, 0, 3.25
3382, 0.0625, 3.25
3383, 0.125, 3.25
3384, 0.1875, 3.25
3385, 0.25, 3.25
3386, 0.3125, 3.25
3387, 0.375, 3.25
3388, 0.4375, 3.25
3389, 0.5, 3.25
3390, 0.5625, 3.25
3391, 0.625, 3.25
3392, 0.6875, 3.25
3393, 0.75, 3.25
3394, 0.8125, 3.25
3395, 0.875, 3.25
3396, 0.9375, 3.25
3397, 1, 3.25
3398, 1.0625, 3.25
3399, 1.125, 3.25
3400, 1.1875, 3.25
3401, 1.25, 3.25
3402, 1.3125, 3.25
3403, 1.375, 3.25
3404, 1.4375, 3.25
3405, 1.5, 3.25
3406, 1.5625, 3.25
3407, 1.625, 3.25
3408, 1.6875, 3.25
3409, 1.75, 3.25
3410, 1.8125, 3.25
3411, 1.875, 3.25
3412, 1.9375, 3.25
3413, 2, 3.25
3414, 2.0625, 3.25
3415, 2.125, 3.25
3416, 2.1875, 3.25
3417, 2.25, 3.25
3418, 2.3125, 3.25
3419, 2.375, 3.25
3420, 2.4375, 3.25
3421, 2.5, 3.25
3422, 2.5625, 3.25
3423, 2.625, 3.25
3424, 2.6875, 3.25
3425, 2.75, 3.25
3426, 2.8125, 3.25
3427, 2.875, 3.25
3428, 2.9375, 3.25
3429, 3, 3.25
3430, 3.0625, 3.25
3431, 3.125, 3.25
3432, 3.1875, 3.25
3433, 3.25, 3.25
3434, 3.3125, 3.25
3435, 3.375, 3.25
3436, 3.4375, 3.25
3437, 3.5, 3.25
3438, 3.5625, 3.25
3439, 3.625, 3.25
3440, 3.6875, 3.25
3441, 3.75, 3.25
3442, 3.8125, 3.25
3443, 3.875, 3.25
3444, 3.9375, 3.25
3445, 4, 3.25
3446, 0, 3.3125
3447, 0.0625, 3.3125
3448, 0.125, 3.3125
3449, 0.1875, 3.3125
3450, 0.25, 3.3125
3451, 0.3125, 3.3125
3452, 0.375, 3.3125
3453, 0.4375, 3.3125
3454, 0.5, 3.3125
3455, 0.5625, 3.3125
3456, 0.625, 3.3125
3457, 0.6875, 3.3125
3458, 0.75, 3.3125
3459, 0.8125, 3.3125
3460, 0.875, 3.3125
3461, 0.9375, 3.3125
3462, 1, 3.3125
3463, 1.0625, 3.3125
3464, 1.125, 3.3125
3465, 1.1875, 3.3125
3466, 1.25, 3.3125
3467, 1.3125, 3.3125
3468, 1.375, 3.3125
3469, 1.4375, 3.3125
3470, 1.5, 3.3125
3471, 1.5625, 3.3125
3472, 1.625, 3.3125
3473, 1.6875, 3.3125
3474, 1.75, 3.3125
3475, 1.8125, 3.3125
3476, 1.875, 3.3125
3477, 1.9375, 3.3125
3478, 2, 3.3125
3479, 2.0625, 3.3125
3480, 2.125, 3.3125
3481, 2.1875, 3.3125
3482, 2.25, 3.3125
3483, 2.3125, 3.3125
3484, 2.375, 3.3125
3485, 2.4375, 3.3125
3486, 2.5, 3.3125
3487, 2.5625, 3.3125
3488, 2.625, 3.3125
3489, 2.6875, 3.3125
3490, 2.75, 3.3125
3491, 2.8125, 3.3125
3492, 2.875, 3.3125
3493, 2.9375, 3.3125
3494, 3, 3.3125
3495, 3.0625, 3.3125
3496, 3.125, 3.3125
3497, 3.1875, 3.3125
3498, 3.25, 3.3125
3499, 3.3125, 3.3125
3500, 3.375, 3.3125
3501, 3.4375, 3.3125
3502, 3.5, 3.3125
3503, 3.5625, 3.3125
3504, 3.625, 3.3125
3505, 3.6875, 3.3125
3506, 3.75, 3.3125
3507, 3.8125, 3.3125
3508, 3.875, 3.3125
3509, 3.9375, 3.3125
3510, 4, 3.3125
3511, 0, 3.375
3512, 0.0625, 3.375
3513, 0.125, 3.375
3514, 0.1875, 3.375
3515, 0.25, 3.375
3516, 0.3125, 3.375
3517, 0.375, 3.375
3518, 0.4375, 3.375
3519, 0.5, 3.375
3520, 0.5625, 3.375
3521, 0.625, 3.375
3522, 0.6875, 3.375
3523, 0.75, 3.375
3524, 0.8125, 3.375
3525, 0.875, 3.375
3526, 0.9375, 3.375
3527, 1, 3.375
3528, 1.0625, 3.375
3529, 1.125, 3.375
3530, 1.1875, 3.375
3531, 1.25, 3.375
3532, 1.3125, 3.375
3533, 1.375, 3.375
3534, 1.4375, 3.375
3535, 1.5, 3.375
3536, 1.5625, 3.375
3537, 1.625, 3.375
3538, 1.6875, 3.375
3539, 1.75, 3.375
3540, 1.8125, 3.375
3541, 1.875, 3.375
3542, 1.9375, 3.375
3543, 2, 3.375
3544, 2.0625, 3.375
3545, 2.125, 3.375
3546, 2.1875, 3.375
3547, 2.25, 3.375
3548, 2.3125, 3.375
3549, 2.375, 3.375
3550, 2.4375, 3.375
3551, 2.5, 3.375
3552, 2.5625, 3.375
3553, 2.625, 3.375
3554, 2.6875, 3.375
3555, 2.75, 3.375
3556, 2.8125, 3.375
3557, 2.875, 3.375
3558, 2.9375, 3.375
3559, 3, 3.375
3560, 3.0625, 3.375
3561, 3.125, 3.375
3562, 3.1875, 3.375
3563, 3.25, 3.375
3564, 3.3125, 3.375
3565, 3.375, 3.375
3566, 3.4375, 3.375
3567, 3.5, 3.375
3568, 3.5625, 3.375
3569, 3.625, 3.375
3570, 3.6875, 3.375
3571, 3.75, 3.375
3572, 3.8125, 3.375
3573, 3.875, 3.375
3574, 3.9375, 3.375
3575, 4, 3.375
3576, 0, 3.4375
3577, 0.0625, 3.4375
3578, 0.125, 3.4375
3579, 0.1875, 3.4375
3580, 0.25, 3.4375
3581, 0.3125, 3.4375
3582, 0.375, 3.4375
3583, 0.4375, 3.4375
3584, 0.5, 3.4375
3585, 0.5625, 3.4375
3586, 0.625, 3.4375
3587, 0.6875, 3.4375
3588, 0.75, 3.4375
3589, 0.8125, 3.4375
3590, 0.875, 3.4375
3591, 0.9375, 3.4375
3592, 1, 3.4375
3593, 1.0625, 3.4375
3594, 1.125, 3.4375
3595, 1.1875, 3.4375
3596, 1.25, 3.4375
3597, 1.3125, 3.4375
3598, 1.375, 3.4375
3599, 1.4375, 3.4375
3600, 1.5, 3.4375
3601, 1.5625, 3.4375
3602, 1.625, 3.4375
3603, 1.6875, 3.4375
3604, 1.75, 3.4375
3605, 1.8125, 3.4375
3606, 1.875, 3.4375
3607, 1.9375, 3.4375
3608, 2, 3.4375
3609, 2.0625, 3.4375
3610, 2.125, 3.4375
3611, 2.1875, 3.4375
3612, 2.25, 3.4375
3613, 2.3125, 3.4375
3614, 2.375, 3.4375
3615, 2.4375, 3.4375
3616, 2.5, 3.4375
3617, 2.5625, 3.4375
3618, 2.625, 3.4375
3619, 2.6875, 3.4375
3620, 2.75, 3.4375
3621, 2.8125, 3.4375
3622, 2.875, 3.4375
3623, 2.9375, 3.4375
3624, 3, 3.4375
3625, 3.0625, 3.4375
3626, 3.125, 3.4375
3627, 3.1875, 3.4375
3628, 3.25, 3.4375
3629, 3.3125, 3.4375
3630, 3.375, 3.4375
3631, 3.4375, 3.4375
3632, 3.5, 3.4375
3633, 3.5625, 3.4375
3634, 3.625, 3.4375
3635, 3.6875, 3.4375
3636, 3.75, 3.4375
3637, 3.8125, 3.4375
3638, 3.875, 3.4375
3639, 3.9375, 3.4375
3640, 4, 3.4375
3641, 0, 3.5
3642, 0.0625, 3.5
3643, 0.125, 3.5
3644, 0.1875, 3.5
3645, 0.25, 3.5
3646, 0.3125, 3.5
3647, 0.375, 3.5
3648, 0.4375, 3.5
3649, 0.5, 3.5
3650, 0.5625, 3.5
3651, 0.625, 3.5
3652, 0.6875, 3.5
3653, 0.75, 3.5
3654, 0.8125, 3.5
3655, 0.875, 3.5
3656, 0.9375, 3.5
3657, 1, 3.5
3658, 1.0625, 3.5
3659, 1.125, 3.5
3660, 1.1875, 3.5
3661, 1.25, 3.5
3662, 1.3125, 3.5
3663, 1.375, 3.5
3664, 1.4375, 3.5
3665, 1.5, 3.5
3666, 1.5625, 3.5
3667, 1.625, 3.5
3668, 1.6875, 3.5
3669, 1.75, 3.5
3670, 1.8125, 3.5
3671, 1.875, 3.5
3672, 1.9375, 3.5
3673, 2, 3.5
3674, 2.0625, 3.5
3675, 2.125, 3.5
3676, 2.1875, 3.5
3677, 2.25, 3.5
3678, 2.3125, 3.5
3679, 2.375, 3.5
3680, 2.4375, 3.5
3681, 2.5, 3.5
3682, 2.5625, 3.5
3683, 2.625, 3.5
3684, 2.6875, 3.5
3685, 2.75, 3.5
3686, 2.8125, 3.5
3687, 2.875, 3.5
3688, 2.9375, 3.5
3689, 3, 3.5
3690, 3.0625, 3.5
3691, 3.125, 3.5
3692, 3.1875, 3.5
3693, 3.25, 3.5
3694, 3.3125, 3.5
3695, 3.375, 3.5
3696, 3.4375, 3.5
3697, 3.5, 3.5
3698, 3.5625, 3.5
3699, 3.625, 3.5
3700, 3.6875, 3.5
3701, 3.75, 3.5
3702, 3.8125, 3.5
3703, 3.875, 3.5
3704, 3.9375, 3.5
3705, 4, 3.5
3706, 0, 3.5625
3707, 0.0625, 3.5625
3708, 0.125, 3.5625
3709, 0.1875, 3.5625
3710, 0.25, 3.5625
3711, 0.3125, 3.5625
3712, 0.375, 3.5625
3713, 0.4375, 3.5625
3714, 0.5, 3.5625
3715, 0.5625, 3.5625
3716, 0.625, 3.5625
3717, 0.6875, 3.5625
3718, 0.75, 3.5625
3719, 0.8125, 3.5625
3720, 0.875, 3.5625
3721, 0.9375, 3.5625
3722, 1, 3.5625
3723, 1.0625, 3.5625
3724, 1.125, 3.5625
3725, 1.1875, 3.5625
3726, 1.25, 3.5625
3727, 1.3125, 3.5625
3728, 1.375, 3.5625
3729, 1.4375, 3.5625
3730, 1.5, 3.5625
3731, 1.5625, 3.5625
3732, 1.625, 3.5625
3733, 1.6875, 3.5625
3734, 1.75, 3.5625
3735, 1.8125, 3.5625
3736, 1.875, 3.5625
3737, 1.9375, 3.5625
3738, 2, 3.5625
3739, 2.0625, 3.5625
3740, 2.125, 3.5625
3741, 2.1875, 3.5625
3742, 2.25, 3.5625
3743, 2.3125, 3.5625
3744, 2.375, 3.5625
3745, 2.4375, 3.5625
3746, 2.5, 3.5625
3747, 2.5625, 3.5625
3748, 2.625, 3.5625
3749, 2.6875, 3.5625
3750, 2.75, 3.5625
3751, 2.8125, 3.5625
3752, 2.875, 3.5625
3753, 2.9375, 3.5625
3754, 3, 3.5625
3755, 3.0625, 3.5625
3756, 3.125, 3.5625
3757, 3.1875, 3.5625
3758, 3.25, 3.5625
3759, 3.3125, 3.5625
3760, 3.375, 3.5625
3761, 3.4375, 3.5625
3762, 3.5, 3.5625
3763, 3.5625, 3.5625
3764, 3.625, 3.5625
3765, 3.6875, 3.5625
3766, 3.75, 3.5625
3767, 3.8125, 3.5625
3768, 3.875, 3.5625
3769, 3.9375, 3.5625
3770, 4, 3.5625
3771, 0, 3.625
3772, 0.0625, 3.625
3773, 0.125, 3.625
3774, 0.1875, 3.625
3775, 0.25, 3.625
3776, 0.3125, 3.625
3777, 0.375, 3.625
3778, 0.4375, 3.625
3779, 0.5, 3.625
3780, 0.5625, 3.625
3781, 0.625, 3.625
3782, 0.6875, 3.625
3783, 0.75, 3.625
3784, 0.8125, 3.625
3785, 0.875, 3.625
3786, 0.9375, 3.625
3787, 1, 3.625
3788, 1.0625, 3.625
3789, 1.125, 3.625
3790, 1.1875, 3.625
3791, 1.25, 3.625
3792, 1.3125, 3.625
3793, 1.375, 3.625
3794, 1.4375, 3.625
3795, 1.5, 3.625
3796, 1.5625, 3.625
3797, 1.625, 3.625
3798, 1.6875, 3.625
3799, 1.75, 3.625
3800, 1.8125, 3.625
3801, 1.875, 3.625
3802, 1.9375, 3.625
3803, 2, 3.625
3804, 2.0625, 3.625
3805, 2.125, 3.625
3806, 2.1875, 3.625
3807, 2.25, 3.625
3808, 2.3125, 3.625
3809, 2.375, 3.625
3810, 2.4375, 3.625
3811, 2.5, 3.625
3812, 2.5625, 3.625
3813, 2.625, 3.625
3814, 2.6875, 3.625
3815, 2.75, 3.625
3816, 2.8125, 3.625
3817, 2.875, 3.625
3818, 2.9375, 3.625
3819, 3, 3.625
3820, 3.0625, 3.625
3821, 3.125, 3.625
3822, 3.1875, 3.625
3823, 3.25, 3.625
3824, 3.3125, 3.625
3825, 3.375, 3.625
3826, 3.4375, 3.625
3827, 3.5, 3.625
3828, 3.5625, 3.625
3829, 3.625, 3.625
3830, 3.6875, 3.625
3831, 3.75, 3.625
3832, 3.8125, 3.625
3833, 3.875, 3.625
3834, 3.9375, 3.625
3835, 4, 3.625
3836, 0, 3.6875
3837, 0.0625, 3.6875
3838, 0.125, 3.6875
3839, 0.1875, 3.6875
3840, 0.25, 3.6875
3841, 0.3125, 3.6875
3842, 0.375, 3.6875
3843, 0.4375, 3.6875
3844, 0.5, 3.6875
3845, 0.5625, 3.6875
3846, 0.625, 3.6875
3847, 0.6875, 3.6875
3848, 0.75, 3.6875
3849, 0.8125, 3.6875
3850, 0.875, 3.6875
3851, 0.9375, 3.6875
3852, 1, 3.6875
3853, 1.0625, 3.6875
3854, 1.125, 3.6875
3855, 1.1875, 3.6875
3856, 1.25, 3.6875
3857, 1.3125, 3.6875
3858, 1.375, 3.6875
3859, 1.4375, 3.6875
3860, 1.5, 3.6875
3861, 1.5625, 3.6875
3862, 1.625, 3.6875
3863, 1.6875, 3.6875
3864, 1.75, 3.6875
3865, 1.8125, 3.6875
3866, 1.875, 3.6875
3867, 1.9375, 3.6875
3868, 2, 3.6875
3869, 2.0625, 3.6875
3870, 2.125, 3.6875
3871, 2.1875, 3.6875
3872, 2.25, 3.6875
3873, 2.3125, 3.6875
3874, 2.375, 3.6875
3875, 2.4375, 3.6875
3876, 2.5, 3.6875
3877, 2.5625, 3.6875
3878, 2.625, 3.6875
3879, 2.6875, 3.6875
3880, 2.75, 3.6875
3881, 2.8125, 3.6875
3882, 2.875, 3.6875
3883, 2.9375, 3.6875
3884, 3, 3.6875
3885, 3.0625, 3.6875
3886, 3.125, 3.6875
3887, 3.1875, 3.6875
3888, 3.25, 3.6875
3889, 3.3125, 3.6875
3890, 3.375, 3.6875
3891, 3.4375, 3.6875
3892, 3.5, 3.6875
3893, 3.5625, 3.6875
3894, 3.625, 3.6875
3895, 3.6875, 3.6875
3896, 3.75, 3.6875
3897, 3.8125, 3.6875
3898, 3.875, 3.6875
3899, 3.9375, 3.6875
3900, 4, 3.6875
3901, 0, 3.75
3902, 0.0625, 3.75
3903, 0.125, 3.75
3904, 0.1875, 3.75
3905, 0.25, 3.75
3906, 0.3125, 3.75
3907, 0.375, 3.75
3908, 0.4375, 3.75
3909, 0.5, 3.75
3910, 0.5625, 3.75
3911, 0.625, 3.75
3912, 0.6875, 3.75
3913, 0.75, 3.75
3914, 0.8125, 3.75
3915, 0.875, 3.75
3916, 0.9375, 3.75
3917, 1, 3.75
3918, 1.0625, 3.75
3919, 1.125, 3.75
3920, 1.1875, 3.75
3921, 1.25, 3.75
3922, 1.3125, 3.75
3923, 1.375, 3.75
3924, 1.4375, 3.75
3925, 1.5, 3.75
3926, 1.5625, 3.75
3927, 1.625, 3.75
3928, 1.6875, 3.75
3929, 1.75, 3.75
3930, 1.8125, 3.75
3931, 1.875, 3.75
3932, 1.9375, 3.75
3933, 2, 3.75
3934, 2.0625, 3.75
3935, 2.125, 3.75
3936, 2.1875, 3.75
3937, 2.25, 3.75
3938, 2.3125, 3.75
3939, 2.375, 3.75
3940, 2.4375, 3.75
3941, 2.5, 3.75
3942, 2.5625, 3.75
3943, 2.625, 3.75
3944, 2.6875, 3.75
3945, 2.75, 3.75
3946, 2.8125, 3.75
3947, 2.875, 3.75
3948, 2.9375, 3.75
3949, 3, 3.75
3950, 3.0625, 3.75
3951, 3.125, 3.75
3952, 3.1875, 3.75
3953, 3.25, 3.75
3954, 3.3125, 3.75
3955, 3.375, 3.75
3956, 3.4375, 3.75
3957, 3.5, 3.75
3958, 3.5625, 3.75
3959, 3.625, 3.75
3960, 3.6875, 3.75
3961, 3.75, 3.75
3962, 3.8125, 3.75
3963, 3.875, 3.75
3964, 3.9375, 3.75
3965, 4, 3.75
3966, 0, 3.8125
3967, 0.0625, 3.8125
3968, 0.125, 3.8125
3969, 0.1875, 3.8125
3970, 0.25, 3.8125
3971, 0.3125, 3.8125
3972, 0.375, 3.8125
3973, 0.4375, 3.8125
3974, 0.5, 3.8125
3975, 0.5625, 3.8125
3976, 0.625, 3.8125
3977, 0.6875, 3.8125
3978, 0.75, 3.8125
3979, 0.8125, 3.8125
3980, 0.875, 3.8125
3981, 0.9375, 3.8125
3982, 1, 3.8125
3983, 1.0625, 3.8125
3984, 1.125, 3.8125
3985, 1.1875, 3.8125
3986, 1.25, 3.8125
3987, 1.3125, 3.8125
3988, 1.375, 3.8125
3989, 1.4375, 3.8125
3990, 1.5, 3.8125
3991, 1.5625, 3.8125
3992, 1.625, 3.8125
3993, 1.6875, 3.8125
3994, 1.75, 3.8125
3995, 1.8125, 3.8125
3996, 1.875, 3.8125
3997, 1.9375, 3.8125
3998, 2, 3.8125
3999, 2.0625, 3.8125
4000, 2.125, 3.8125
4001, 2.1875, 3.8125
4002, 2.25, 3.8125
4003, 2.3125, 3.8125
4004, 2.375, 3.8125
4005, 2.4375, 3.8125
4006, 2.5, 3.8125
4007, 2.5625, 3.8125
4008, 2.625, 3.8125
4009, 2.6875, 3.8125
4010, 2.75, 3.8125
4011, 2.8125, 3.8125
4012, 2.875, 3.8125
4013, 2.9375, 3.8125
4014, 3, 3.8125
4015, 3.0625, 3.8125
4016, 3.125, 3.8125
4017, 3.1875, 3.8125
4018, 3.25, 3.8125
4019, 3.3125, 3.8125
4020, 3.375, 3.8125
4021, 3.4375, 3.8125
4022, 3.5, 3.8125
4023, 3.5625, 3.8125
4024, 3.625, 3.8125
4025, 3.6875, 3.8125
4026, 3.75, 3.8125
4027, 3.8125, 3.8125
4028, 3.875, 3.8125
4029, 3.9375, 3.8125
4030, 4, 3.8125
4031, 0, 3.875
4032, 0.0625, 3.875
4033, 0.125, 3.875
4034, 0.1875, 3.875
4035, 0.25, 3.875
4036, 0.3125, 3.875
4037, 0.375, 3.875
4038, 0.4375, 3.875
4039, 0.5, 3.875
4040, 0.5625, 3.875
4041, 0.625, 3.875
4042, 0.6875, 3.875
4043, 0.75, 3.875
4044, 0.8125, 3.875
4045, 0.875, 3.875
4046, 0.9375, 3.875
4047, 1, 3.875
4048, 1.0625, 3.875
4049, 1.125, 3.875
4050, 1.1875, 3.875
4051, 1.25, 3.875
4052, 1.3125, 3.875
4053, 1.375, 3.875
4054, 1.4375, 3.875
4055, 1.5, 3.875
4056, 1.5625, 3.875
4057, 1.625, 3.875
4058, 1.6875, 3.875
4059, 1.75, 3.875
4060, 1.8125, 3.875
4061, 1.875, 3.875
4062, 1.9375, 3.875
4063, 2, 3.875
4064, 2.0625, 3.875
4065, 2.125, 3.875
4066, 2.1875, 3.875
4067, 2.25, 3.875
4068, 2.3125, 3.875
4069, 2.375, 3.875
4070, 2.4375, 3.875
4071, 2.5, 3.875
4072, 2.5625, 3.875
4073, 2.625, 3.875
4074, 2.6875, 3.875
4075, 2.75, 3.875
4076, 2.8125, 3.875
4077, 2.875, 3.875
4078, 2.9375, 3.875
4079, 3, 3.875
4080, 3.0625, 3.875
4081, 3.125, 3.875
4082, 3.1875, 3.875
4083, 3.25, 3.875
4084, 3.3125, 3.875
4085, 3.375, 3.875
4086, 3.4375, 3.875
4087, 3.5, 3.875
4088, 3.5625, 3.875
4089, 3.625, 3.875
4090, 3.6875, 3.875
4091, 3.75, 3.875
4092, 3.8125, 3.875
4093, 3.875, 3.875
4094, 3.9375, 3.875
4095, 4, 3.875
4096, 0, 3.9375
4097, 0.0625, 3.9375
4098, 0.125, 3.9375
4099, 0.1875, 3.9375
4100, 0.25, 3.9375
4101, 0.3125, 3.9375
4102, 0.375, 3.9375
4103, 0.4375, 3.9375
4104, 0.5, 3.9375
4105, 0.5625, 3.9375
4106, 0.625, 3.9375
4107, 0.6875, 3.9375
4108, 0.75, 3.9375
4109, 0.8125, 3.9375
4110, 0.875, 3.9375
4111, 0.9375, 3.9375
4112, 1, 3.9375
4113, 1.0625, 3.9375
4114, 1.125, 3.9375
4115, 1.1875, 3.9375
4116, 1.25, 3.9375
4117, 1.3125, 3.9375
4118, 1.375, 3.9375
4119, 1.4375, 3.9375
4120, 1.5, 3.9375
4121, 1.5625, 3.9375
4122, 1.625, 3.9375
4123, 1.6875, 3.9375
4124, 1.75, 3.9375
4125, 1.8125, 3.9375
4126, 1.875, 3.9375
4127, 1.9375, 3.9375
4128, 2, 3.9375
4129, 2.0625, 3.9375
4130, 2.125, 3.9375
4131, 2.1875, 3.9375
4132, 2.25, 3.9375
4133, 2.3125, 3.9375
4134, 2.375, 3.9375
4135, 2.4375, 3.9375
4136, 2.5, 3.9375
4137, 2.5625, 3.9375
4138, 2.625, 3.9375
4139, 2.6875, 3.9375
4140, 2.75, 3.9375
4141, 2.8125, 3.9375
4142, 2.875, 3.9375
4143, 2.9375, 3.9375
4144, 3, 3.9375
4145, 3.0625, 3.9375
4146, 3.125, 3.9375
4147, 3.1875, 3.9375
4148, 3.25, 3.9375
4149, 3.3125, 3.9375
4150, 3.375, 3.9375
4151, 3.4375, 3.9375
4152, 3.5, 3.9375
4153, 3.5625, 3.9375
4154, 3.625, 3.9375
4155, 3.6875, 3.9375
4156, 3.75, 3.9375
4157, 3.8125, 3.9375
4158, 3.875, 3.9375
4159, 3.9375, 3.9375
4160, 4, 3.9375
4161, 0, 4
4162, 0.0625, 4
4163, 0.125, 4
4164, 0.1875, 4
4165, 0.25, 4
4166, 0.3125, 4
4167, 0.375, 4
4168, 0.4375, 4
4169, 0.5, 4
4170, 0.5625, 4
4171, 0.625, 4
4172, 0.6875, 4
4173, 0.75, 4
4174, 0.8125, 4
4175, 0.875, 4
4176, 0.9375, 4
4177, 1, 4
4178, 1.0625, 4
4179, 1.125, 4
4180, 1.1875, 4
4181, 1.25, 4
4182, 1.3125, 4
4183, 1.375, 4
4184, 1.4375, 4
4185, 1.5, 4
4186, 1.5625, 4
4187, 1.625, 4
4188, 1.6875, 4
4189, 1.75, 4
4190, 1.8125, 4
4191, 1.875, 4
4192, 1.9375, 4
4193, 2, 4
4194, 2.0625, 4
4195, 2.125, 4
4196, 2.1875, 4
4197, 2.25, 4
4198, 2.3125, 4
4199, 2.375, 4
4200, 2.4375, 4
4201, 2.5, 4
4202, 2.5625, 4
4203, 2.625, 4
4204, 2.6875, 4
4205, 2.75, 4
4206, 2.8125, 4
4207, 2.875, 4
4208, 2.9375, 4
4209, 3, 4
4210, 3.0625, 4
4211, 3.125, 4
4212, 3.1875, 4
4213, 3.25, 4
4214, 3.3125, 4
4215, 3.375, 4
4216, 3.4375, 4
4217, 3.5, 4
4218, 3.5625, 4
4219, 3.625, 4
4220, 3.6875, 4
4221, 3.75, 4
4222, 3.8125, 4
4223, 3.875, 4
4224, 3.9375, 4
4225, 4, 4
*USER ELEMENT, NODES=4, TYPE=U1, PROPERTIES=6, COORDINATES=2, VARIABLES=21
1, 2
*ELEMENT, TYPE=U1, ELSET=EALL
1, 1, 2, 67, 66
2, 2, 3, 68, 67
3, 3, 4, 69, 68
4, 4, 5, 70, 69
5, 5, 6, 71, 70
6, 6, 7, 72, 71
7, 7, 8, 73, 72
8, 8, 9, 74, 73
9, 9, 10, 75, 74
10, 10, 11, 76, 75
11, 11, 12, 77, 76
12, 12, 13, 78, 77
13, 13, 14, 79, 78
14, 14, 15, 80, 79
15, 15, 16, 81, 80
16, 16, 17, 82, 81
17, 17, 18, 83, 82
18, 18, 19, 84, 83
19, 19, 20, 85, 84
20, 20, 21, 86, 85
21, 21, 22, 87, 86
22, 22, 23, 88, 87
23, 23, 24, 89, 88
24, 24, 25, 90, 89
25, 25, 26, 91, 90
26, 26, 27, 92, 91
27, 27, 28, 93, 92
28, 28, 29, 94, 93
29, 29, 30, 95, 94
30, 30, 31, 96, 95
31, 31, 32, 97, 96
32, 32, 33, 98, 97
33, 33, 34, 99, 98
34, 34, 35, 100, 99
35, 35, 36, 101, 100
36, 36, 37, 102, 101
37, 37, 38, 103, 102
38, 38, 39, 104, 103
39, 39, 40, 105, 104
40, 40, 41, 106, 105
41, 41, 42, 107, 106
42, 42, 43, 108, 107
43, 43, 44, 109, 108
44, 44, 45, 110, 109
45, 45, 46, 111, 110
46, 46, 47, 112, 111
47, 47, 48, 113, 112
48, 48, 49, 114, 113
49, 49, 50, 115, 114
50, 50, 51, 116, 115
51, 51, 52, 117, 116
52, 52, 53, 118, 117
53, 53, 54, 119, 118
54, 54, 55, 120, 119
55, 55, 56, 121, 120
56, 56, 57, 122, 121
57, 57, 58, 123, 122
58, 58, 59, 124, 123
59, 59, 60, 125, 124
60, 60, 61, 126, 125
61, 61, 62, 127, 126
62, 62, 63, 128, 127
63, 63, 64, 129, 128
64, 64, 65, 130, 129
65, 66, 67, 132, 131
66, 67, 68, 133, 132
67, 68, 69, 134, 133
68, 69, 70, 135, 134
69, 70, 71, 136, 135
70, 71, 72, 137, 136
71, 72, 73, 138, 137
72, 73, 74, 139, 138
73, 74, 75, 140, 139
74, 75, 76, 141, 140
75, 76, 77, 142, 141
76, 77, 78, 143, 142
77, 78, 79, 144, 143
78, 79, 80, 145, 144
79, 80, 81, 146, 145
80, 81, 82, 147, 146
81, 82, 83, 148, 147
82, 83, 84, 149, 148
83, 84, 85, 150, 149
84, 85, 86, 151, 150
85, 86, 87, 152, 151
86, 87, 88, 153, 152
87, 88, 89, 154, 153
88, 89, 90, 155, 154
89, 90, 91, 156, 155
90, 91, 92, 157, 156
91, 92, 93, 158, 157
92, 93, 94, 159, 158
93, 94, 95, 160, 159
94, 95, 96, 161, 160
95, 96, 97, 162, 161
96, 97, 98, 163, 162
97, 98, 99, 164, 163
98, 99, 100, 165, 164
99, 100, 101, 166, 165
100, 101, 102, 167, 166
101, 102, 103, 168, 167
102, 103, 104, 169, 168
103, 104, 105, 170, 169
104, 105, 106, 171, 170
105, 106, 107, 172, 171
106, 107, 108, 173, 172
107, 108, 109, 174, 173
108, 109, 110, 175, 174
109, 110, 111, 176, 175
110, 111, 112, 177, 176
111, 112, 113, 178, 177
112, 113, 114, 179, 178
113, 114, 115, 180, 179
114, 115, 116, 181, 180
115, 116, 117, 182, 181
116, 117, 118, 183, 182
117, 118, 119, 184, 183
118, 119, 120, 185, 184
119, 120, 121, 186, 185
120, 121, 122, 187, 186
121, 122, 123, 188, 187
122, 123, 124, 189, 188
123, 124, 125, 190, 189
124, 125, 126, 191, 190
125, 126, 127, 192, 191
126, 127, 128, 193, 192
127, 128, 129, 194, 193
128, 129, 130, 195, 194
129, 131, 132, 197, 196
130, 132, 133, 198, 197
131, 133, 134, 199, 198
132, 134, 135, 200, 199
133, 135, 136, 201, 200
134, 136, 137, 202, 201
135, 137, 138, 203, 202
136, 138, 139, 204, 203
137, 139, 140, 205, 204
138, 140, 141, 206, 205
139, 141, 142, 207, 206
140, 142, 143, 208, 207
141, 143, 144, 209, 208
142, 144, 145, 210, 209
143, 145, 146, 211, 210
144, 146, 147, 212, 211
145, 147, 148, 213, 212
146, 148, 149, 214, 213
147, 149, 150, 215, 214
148, 150, 151, 216, 215
149, 151, 152, 217, 216
150, 152, 153, 218, 217
151, 153, 154, 219, 218
152, 154, 155, 220, 219
153, 155, 156, 221, 220
154, 156, 157, 222, 221
155, 157, 158, 223, 222
156, 158, 159, 224, 223
157, 159, 160, 225, 224
158, 160, 161, 226, 225
159, 161, 162, 227, 226
160, 162, 163, 228, 227
161, 163, 164, 229, 228
162, 164, 165, 230, 229
163, 165, 166, 231, 230
164, 166, 167, 232, 231
165, 167, 168, 233, 232
166, 168, 169, 234, 233
167, 169, 170, 235, 234
168, 170, 171, 236, 235
169, 171, 172, 237, 236
170, 172, 173, 238, 237
171, 173, 174, 239, 238
172, 174, 175, 240, 239
173, 175, 176, 241, 240
174, 176, 177, 242, 241
175, 177, 178, 243, 242
176, 178, 179, 244, 243
177, 179, 180, 245, 244
178, 180, 181, 246, 245
179, 181, 182, 247, 246
180, 182, 183, 248, 247
181, 183, 184, 249, 248
182, 184, 185, 250, 249
183, 185, 186, 251, 250
184, 186, 187, 252, 251
185, 187, 188, 253, 252
186, 188, 189, 254, 253
187, 189, 190, 255, 254
188, 190, 191, 256, 255
189, 191, 192, 257, 256
190, 192, 193, 258, 257
191, 193, 194, 259, 258
192, 194, 195, 260, 259
193, 196, 197, 262, 261
194, 197, 198, 263, 262
195, 198, 199, 264, 263
196, 199, 200, 265, 264
197, 200, 201, 266, 265
198, 201, 202, 267, 266
199, 202, 203, 268, 267
200, 203, 204, 269, 268
201, 204, 205, 270, 269
202, 205, 206, 271, 270
203, 206, 207, 272, 271
204, 207, 208, 273, 272
205, 208, 209, 274, 273
206, 209, 210, 275, 274
207, 210, 211, 276, 275
208, 211, 212, 277, 276
209, 212, 213, 278, 277
210, 213, 214, 279, 278
211, 214, 215, 280, 279
212, 215, 216, 281, 280
213, 216, 217, 282, 281
214, 217, 218, 283, 282
215, 218, 219, 284, 283
216, 219, 220, 285, 284
217, 220, 221, 286, 285
218, 221, 222, 287, 286
219, 222, 223, 288, 287
220, 223, 224, 289, 288
221, 224, 225, 290, 289
222, 225, 226, 291, 290
223, 226, 227, 292, 291
224, 227, 228, 293, 292
225, 228, 229, 294, 293
226, 229, 230, 295, 294
227, 230, 231, 296, 295
228, 231, 232, 297, 296
229, 232, 233, 298, 297
230, 233, 234, 299, 298
231, 234, 235, 300, 299
232, 235, 236, 301, 300
233, 236, 237, 302, 301
234, 237, 238, 303, 302
235, 238, 239, 304, 303
236, 239, 240, 305, 304
237, 240, 241, 306, 305
238, 241, 242, 307, 306
239, 242, 243, 308, 307
240, 243, 244, 309, 308
241, 244, 245, 310, 309
242, 245, 246, 311, 310
243, 246, 247, 312, 311
244, 247, 248, 313, 312
245, 248, 249, 314, 313
246, 249, 250, 315, 314
247, 250, 251, 316, 315
248, 251, 252, 317, 316
249, 252, 253, 318, 317
250, 253, 254, 319, 318
251, 254, 255, 320, 319
252, 255, 256, 321, 320
253, 256, 257, 322, 321
254, 257, 258, 323, 322
255, 258, 259, 324, 323
256, 259, 260, 325, 324
257, 261, 262, 327, 326
258, 262, 263, 328, 327
259, 263, 264, 329, 328
260, 264, 265, 330, 329
261, 265, 266, 331, 330
262, 266, 267, 332, 331
263, 267, 268, 333, 332
264, 268, 269, 334, 333
265, 269, 270, 335, 334
266, 270, 271, 336, 335
267, 271, 272, 337, 336
268, 272, 273, 338, 337
269, 273, 274, 339, 338
270, 274, 275, 340, 339
271, 275, 276, 341, 340
272, 276, 277, 342, 341
273, 277, 278, 343, 342
274, 278, 279, 344, 343
275, 279, 280, 345, 344
276, 280, 281, 346, 345
277, 281, 282, 347, 346
278, 282, 283, 348, 347
279, 283, 284, 349, 348
280, 284, 285, 350, 349
281, 285, 286, 351, 350
282, 286, 287, 352, 351
283, 287, 288, 353, 352
284, 288, 289, 354, 353
285, 289, 290, 355, 354
286, 290, 291, 356, 355
287, 291, 292, 357, 356
288, 292, 293, 358, 357
289, 293, 294, 359, 358
290, 294, 295, 360, 359
291, 295, 296, 361, 360
292, 296, 297, 362, 361
293, 297, 298, 363, 362
294, 298, 299, 364, 363
295, 299, 300, 365, 364
296, 300, 301, 366, 365
297, 301, 302, 367, 366
298, 302, 303, 368, 367
299, 303, 304, 369, 368
300, 304, 305, 370, 369
301, 305, 306, 371, 370
302, 306, 307, 372, 371
303, 307, 308, 373, 372
304, 308, 309, 374, 373
305, 309, 310, 375, 374
306, 310, 311, 376, 375
307, 311, 312, 377, 376
308, 312, 313, 378, 377
309, 313, 314, 379, 378
310, 314, 315, 380, 379
311, 315, 316, 381, 380
312, 316, 317, 382, 381
313, 317, 318, 383, 382
314, 318, 319, 384, 383
315, 319, 320, 385, 384
316, 320, 321, 386, 385
317, 321, 322, 387, 386
318, 322, 323, 388, 387
319, 323, 324, 389, 388
320, 324, 325, 390, 389
321, 326, 327, 392, 391
322, 327, 328, 393, 392
323, 328, 329, 394, 393
324, 329, 330, 395, 394
325, 330, 331, 396, 395
326, 331, 332, 397, 396
327, 332, 333, 398, 397
328, 333, 334, 399, 398
329, 334, 335, 400, 399
330, 335, 336, 401, 400
331, 336, 337, 402, 401
332, 337, 338, 403, 402
333, 338, 339, 404, 403
334, 339, 340, 405, 404
335, 340, 341, 406, 405
336, 341, 342, 407, 406
337, 342, 343, 408, 407
338, 343, 344, 409, 408
339, 344, 345, 410, 409
340, 345, 346, 411, 410
341, 346, 347, 412, 411
342, 347, 348, 413, 412
343, 348, 349, 414, 413
344, 349, 350, 415, 414
345, 350, 351, 416, 415
346, 351, 352, 417, 416
347, 352, 353, 418, 417
348, 353, 354, 419, 418
349, 354, 355, 420, 419
350, 355, 356, 421, 420
351, 356, 357, 422, 421
352, 357, 358, 423, 422
353, 358, 359, 424, 423
354, 359, 360, 425, 424
355, 360, 361, 426, 425
356, 361, 362, 427, 426
357, 362, 363, 428, 427
358, 363, 364, 429, 428
359, 364, 365, 430, 429
360, 365, 366, 431, 430
361, 366, 367, 432, 431
362, 367, 368, 433, 432
363, 368, 369, 434, 433
364, 369, 370, 435, 434
365, 370, 371, 436, 435
366, 371, 372, 437, 436
367, 372, 373, 438, 437
368, 373, 374, 439, 438
369, 374, 375, 440, 439
370, 375, 376, 441, 440
371, 376, 377, 442, 441
372, 377, 378, 443, 442
373, 378, 379, 444, 443
374, 379, 380, 445, 444
375, 380, 381, 446, 445
376, 381, 382, 447, 446
377, 382, 383, 448, 447
378, 383, 384, 449, 448
379, 384, 385, 450, 449
380, 385, 386, 451, 450
381, 386, 387, 452, 451
382, 387, 388, 453, 452
383, 388, 389, 454, 453
384, 389, 390, 455, 454
385, 391, 392, 457, 456
386, 392, 393, 458, 457
387, 393, 394, 459, 458
388, 394, 395, 460, 459
389, 395, 396, 461, 460
390, 396, 397, 462, 461
391, 397, 398, 463, 462
392, 398, 399, 464, 463
393, 399, 400, 465, 464
394, 400, 401, 466, 465
395, 401, 402, 467, 466
396, 402, 403, 468, 467
397, 403, 404, 469, 468
398, 404, 405, 470, 469
399, 405, 406, 471, 470
400, 406, 407, 472, 471
401, 407, 408, 473, 472
402, 408, 409, 474, 473
403, 409, 410, 475, 474
404, 410, 411, 476, 475
405, 411, 412, 477, 476
406, 412, 413, 478, 477
407, 413, 414, 479, 478
408, 414, 415, 480, 479
409, 415, 416, 481, 480
410, 416, 417, 482, 481
411, 417, 418, 483, 482
412, 418, 419, 484, 483
413, 419, 420, 485, 484
414, 420, 421, 486, 485
415, 421, 422, 487, 486
416, 422, 423, 488, 487
417, 423, 424, 489, 488
418, 424, 425, 490, 489
419, 425, 426, 491, 490
420, 426, 427, 492, 491
421, 427, 428, 493, 492
422, 428, 429, 494, 493
423, 429, 430, 495, 494
424, 430, 431, 496, 495
425, 431, 432, 497, 496
426, 432, 433, 498, 497
427, 433, 434, 499, 498
428, 434, 435, 500, 499
429, 435, 436, 501, 500
430, 436, 437, 502, 501
431, 437, 438, 503, 502
432, 438, 439, 504, 503
433, 439, 440, 505, 504
434, 440, 441, 506, 505
435, 441, 442, 507, 506
436, 442, 443, 508, 507
437, 443, 444, 509, 508
438, 444, 445, 510, 509
439, 445, 446, 511, 510
440, 446, 447, 512, 511
441, 447, 448, 513, 512
442, 448, 449, 514, 513
443, 449, 450, 515, 514
444, 450, 451, 516, 515
445, 451, 452, 517, 516
446, 452, 453, 518, 517
447, 453, 454, 519, 518
448, 454, 455, 520, 519
449, 456, 457, 522, 521
450, 457, 458, 523, 522
451, 458, 459, 524, 523
452, 459, 460, 525, 524
453, 460, 461, 526, 525
454, 461, 462, 527, 526
455, 462, 463, 528, 527
456, 463, 464, 529, 528
457, 464, 465, 530, 529
458, 465, 466, 531, 530
459, 466, 467, 532, 531
460, 467, 468, 533, 532
461, 468, 469, 534, 533
462, 469, 470, 535, 534
463, 470, 471, 536, 535
464, 471, 472, 537, 536
465, 472, 473, 538, 537
466, 473, 474, 539, 538
467, 474, 475, 540, 539
468, 475, 476, 541, 540
469, 476, 477, 542, 541
470, 477, 478, 543, 542
471, 478, 479, 544, 543
472, 479, 480, 545, 544
473, 480, 481, 546, 545
474, 481, 482, 547, 546
475, 482, 483, 548, 547
476, 483, 484, 549, 548
477, 484, 485, 550, 549
478, 485, 486, 551, 550
479, 486, 487, 552, 551
480, 487, 488, 553, 552
481, 488, 489, 554, 553
482, 489, 490, 555, 554
483, 490, 491, 556, 555
484, 491, 492, 557, 556
485, 492, 493, 558, 557
486, 493, 494, 559, 558
487, 494, 495, 560, 559
488, 495, 496, 561, 560
489, 496, 497, 562, 561
490, 497, 498, 563, 562
491, 498, 499, 564, 563
492, 499, 500, 565, 564
493, 500, 501, 566, 565
494, 501, 502, 567, 566
495, 502, 503, 568, 567
496, 503, 504, 569, 568
497, 504, 505, 570, 569
498, 505, 506, 571, 570
499, 506, 507, 572, 571
500, 507, 508, 573, 572
501, 508, 509, 574, 573
502, 509, 510, 575, 574
503, 510, 511, 576, 575
504, 511, 512, 577, 576
505, 512, 513, 578, 577
506, 513, 514, 579, 578
507, 514, 515, 580, 579
508, 515, 516, 581, 580
509, 516, 517, 582, 581
510, 517, 518, 583, 582
511, 518, 519, 584, 583
512, 519, 520, 585, 584
513, 521, 522, 587, 586
514, 522, 523, 588, 587
515, 523, 524, 589, 588
516, 524, 525, 590, 589
517, 525, 526, 591, 590
518, 526, 527, 592, 591
519, 527, 528, 593, 592
520, 528, 529, 594, 593
521, 529, 530, 595, 594
522, 530, 531, 596, 595
523, 531, 532, 597, 596
524, 532, 533, 598, 597
525, 533, 534, 599, 598
526, 534, 535, 600, 599
527, 535, 536, 601, 600
528, 536, 537, 602, 601
529, 537, 538, 603, 602
530, 538, 539, 604, 603
531, 539, 540, 605, 604
532, 540, 541, 606, 605
533, 541, 542, 607, 606
534, 542, 543, 608, 607
535, 543, 544, 609, 608
536, 544, 545, 610, 609
537, 545, 546, 611, 610
538, 546, 547, 612, 611
539, 547, 548, 613, 612
540, 548, 549, 614, 613
541, 549, 550, 615, 614
542, 550, 551, 616, 615
543, 551, 552, 617, 616
544, 552, 553, 618, 617
545, 553, 554, 619, 618
546, 554, 555, 620, 619
547, 555, 556, 621, 620
548, 556, 557, 622, 621
549, 557, 558, 623, 622
550, 558, 559, 624, 623
551, 559, 560, 625, 624
552, 560, 561, 626, 625
553, 561, 562, 627, 626
554, 562, 563, 628, 627
555, 563, 564, 629, 628
556, 564, 565, 630, 629
557, 565, 566, 631, 630
558, 566, 567, 632, 631
559, 567, 568, 633, 632
560, 568, 569, 634, 633
561, 569, 570, 635, 634
562, 570, 571, 636, 635
563, 571, 572, 637, 636
564, 572, 573, 638, 637
565, 573, 574, 639, 638
566, 574, 575, 640, 639
567, 575, 576, 641, 640
568, 576, 577, 642, 641
569, 577, 578, 643, 642
570, 578, 579, 644, 643
571, 579, 580, 645, 644
572, 580, 581, 646, 645
573, 581, 582, 647, 646
574, 582, 583, 648, 647
575, 583, 584, 649, 648
576, 584, 585, 650, 649
577, 586, 587, 652, 651
578, 587, 588, 653, 652
579, 588, 589, 654, 653
580, 589, 590, 655, 654
581, 590, 591, 656, 655
582, 591, 592, 657, 656
583, 592, 593, 658, 657
584, 593, 594, 659, 658
585, 594, 595, 660, 659
586, 595, 596, 661, 660
587, 596, 597, 662, 661
588, 597, 598, 663, 662
589, 598, 599, 664, 663
590, 599, 600, 665, 664
591, 600, 601, 666, 665
592, 601, 602, 667, 666
593, 602, 603, 668, 667
594, 603, 604, 669, 668
595, 604, 605, 670, 669
596, 605, 606, 671, 670
597, 606, 607, 672, 671
598, 607, 608, 673, 672
599, 608, 609, 674, 673
600, 609, 610, 675, 674
601, 610, 611, 676, 675
602, 611, 612, 677, 676
603, 612, 613, 678, 677
604, 613, 614, 679, 678
605, 614, 615, 680, 679
606, 615, 616, 681, 680
607, 616, 617, 682, 681
608, 617, 618, 683, 682
609, 618, 619, 684, 683
610, 619, 620, 685, 684
611, 620, 621, 686, 685
612, 621, 622, 687, 686
613, 622, 623, 688, 687
614, 623, 624, 689, 688
615, 624, 625, 690, 689
616, 625, 626, 691, 690
617, 626, 627, 692, 691
618, 627, 628, 693, 692
619, 628, 629, 694, 693
620, 629, 630, 695, 694
621, 630, 631, 696, 695
622, 631, 632, 697, 696
623, 632, 633, 698, 697
624, 633, 634, 699, 698
625, 634, 635, 700, 699
626, 635, 636, 701, 700
627, 636, 637, 702, 701
628, 637, 638, 703, 702
629, 638, 639, 704, 703
630, 639, 640, 705, 704
631, 640, 641, 706, 705
632, 641, 642, 707, 706
633, 642, 643, 708, 707
634, 643, 644, 709, 708
635, 644, 645, 710, 709
636, 645, 646, 711, 710
637, 646, 647, 712, 711
638, 647, 648, 713, 712
639, 648, 649, 714, 713
640, 649, 650, 715, 714
641, 651, 652, 717, 716
642, 652, 653, 718, 717
643, 653, 654, 719, 718
644, 654, 655, 720, 719
645, 655, 656, 721, 720
646, 656, 657, 722, 721
647, 657, 658, 723, 722
648, 658, 659, 724, 723
649, 659, 660, 725, 724
650, 660, 661, 726, 725
651, 661, 662, 727, 726
652, 662, 663, 728, 727
653, 663, 664, 729, 728
654, 664, 665, 730, 729
655, 665, 666, 731, 730
656, 666, 667, 732, 731
657, 667, 668, 733, 732
658, 668, 669, 734, 733
659, 669, 670, 735, 734
660, 670, 671, 736, 735
661, 671, 672, 737, 736
662, 672, 673, 738, 737
663, 673, 674, 739, 738
664, 674, 675, 740, 739
665, 675, 676, 741, 740
666, 676, 677, 742, 741
667, 677, 678, 743, 742
668, 678, 679, 744, 743
669, 679, 680, 745, 744
670, 680, 681, 746, 745
671, 681, 682, 747, 746
672, 682, 683, 748, 747
673, 683, 684, 749, 748
674, 684, 685, 750, 749
675, 685, 686, 751, 750
676, 686, 687, 752, 751
677, 687, 688, 753, 752
678, 688, 689, 754, 753
679, 689, 690, 755, 754
680, 690, 691, 756, 755
681, 691, 692, 757, 756
682, 692, 693, 758, 757
683, 693, 694, 759, 758
684, 694, 695, 760, 759
685, 695, 696, 761, 760
686, 696, 697, 762, 761
687, 697, 698, 763, 762
688, 698, 699, 764, 763
689, 699, 700, 765, 764
690, 700, 701, 766, 765
691, 701, 702, 767, 766
692, 702, 703, 768, 767
693, 703, 704, 769, 768
694, 704, 705, 770, 769
695, 705, 706, 771, 770
696, 706, 707, 772, 771
697, 707, 708, 773, 772
698, 708, 709, 774, 773
699, 709, 710, 775, 774
700, 710, 711, 776, 775
701, 711, 712, 777, 776
702, 712, 713, 778, 777
703, 713, 714, 779, 778
704, 714, 715, 780, 779
705, 716, 717, 782, 781
706, 717, 718, 783, 782
707, 718, 719, 784, 783
708, 719, 720, 785, 784
709, 720, 721, 786, 785
710, 721, 722, 787, 786
711, 722, 723, 788, 787
712, 723, 724, 789, 788
713, 724, 725, 790, 789
714, 725, 726, 791, 790
715, 726, 727, 792, 791
716, 727, 728, 793, 792
717, 728, 729, 794, 793
718, 729, 730, 795, 794
719, 730, 731, 796, 795
720, 731, 732, 797, 796
721, 732, 733, 798, 797
722, 733, 734, 799, 798
723, 734, 735, 800, 799
724, 735, 736, 801, 800
725, 736, 737, 802, 801
726, 737, 738, 803, 802
727, 738, 739, 804, 803
728, 739, 740, 805, 804
729, 740, 741, 806, 805
730, 741, 742, 807, 806
731, 742, 743, 808, 807
732, 743, 744, 809, 808
733, 744, 745, 810, 809
734, 745, 746, 811, 810
735, 746, 747, 812, 811
736, 747, 748, 813, 812
737, 748, 749, 814, 813
738, 749, 750, 815, 814
739, 750, 751, 816, 815
740, 751, 752, 817, 816
741, 752, 753, 818, 817
742, 753, 754, 819, 818
743, 754, 755, 820, 819
744, 755, 756, 821, 820
745, 756, 757, 822, 821
746, 757, 758, 823, 822
747, 758, 759, 824, 823
748, 759, 760, 825, 824
749, 760, 761, 826, 825
750, 761, 762, 827, 826
751, 762, 763, 828, 827
752, 763, 764, 829, 828
753, 764, 765, 830, 829
754, 765, 766, 831, 830
755, 766, 767, 832, 831
756, 767, 768, 833, 832
757, 768, 769, 834, 833
758, 769, 770, 835, 834
759, 770, 771, 836, 835
760, 771, 772, 837, 836
761, 772, 773, 838, 837
762, 773, 774, 839, 838
763, 774, 775, 840, 839
764, 775, 776, 841, 840
765, 776, 777, 842, 841
766, 777, 778, 843, 842
767, 778, 779, 844, 843
768, 779, 780, 845, 844
769, 781, 782, 847, 846
770, 782, 783, 848, 847
771, 783, 784, 849, 848
772, 784, 785, 850, 849
773, 785, 786, 851, 850
774, 786, 787, 852, 851
775, 787, 788, 853, 852
776, 788, 789, 854, 853
777, 789, 790, 855, 854
778, 790, 791, 856, 855
779, 791, 792, 857, 856
780, 792, 793, 858, 857
781, 793, 794, 859, 858
782, 794, 795, 860, 859
783, 795, 796, 861, 860
784, 796, 797, 862, 861
785, 797, 798, 863, 862
786, 798, 799, 864, 863
787, 799, 800, 865, 864
788, 800, 801, 866, 865
789, 801, 802, 867, 866
790, 802, 803, 868, 867
791, 803, 804, 869, 868
792, 804, 805, 870, 869
793, 805, 806, 871, 870
794, 806, 807, 872, 871
795, 807, 808, 873, 872
796, 808, 809, 874, 873
797, 809, 810, 875, 874
798, 810, 811, 876, 875
799, 811, 812, 877, 876
800, 812, 813, 878, 877
801, 813, 814, 879, 878
802, 814, 815, 880, 879
803, 815, 816, 881, 880
804, 816, 817, 882, 881
805, 817, 818, 883, 882
806, 818, 819, 884, 883
807, 819, 820, 885, 884
808, 820, 821, 886, 885
809, 821, 822, 887, 886
810, 822, 823, 888, 887
811, 823, 824, 889, 888
812, 824, 825, 890, 889
813, 825, 826, 891, 890
814, 826, 827, 892, 891
815, 827, 828, 893, 892
816, 828, 829, 894, 893
817, 829, 830, 895, 894
818, 830, 831, 896, 895
819, 831, 832, 897, 896
820, 832, 833, 898, 897
821, 833, 834, 899, 898
822, 834, 835, 900, 899
823, 835, 836, 901, 900
824, 836, 837, 902, 901
825, 837, 838, 903, 902
826, 838, 839, 904, 903
827, 839, 840, 905, 904
828, 840, 841, 906, 905
829, 841, 842, 907, 906
830, 842, 843, 908, 907
831, 843, 844, 909, 908
832, 844, 845, 910, 909
833, 846, 847, 912, 911
834, 847, 848, 913, 912
835, 848, 849, 914, 913
836, 849, 850, 915, 914
837, 850, 851, 916, 915
838, 851, 852, 917, 916
839, 852, 853, 918, 917
840, 853, 854, 919, 918
841, 854, 855, 920, 919
842, 855, 856, 921, 920
843, 856, 857, 922, 921
844, 857, 858, 923, 922
845, 858, 859, 924, 923
846, 859, 860, 925, 924
847, 860, 861, 926, 925
848, 861, 862, 927, 926
849, 862, 863, 928, 927
850, 863, 864, 929, 928
851, 864, 865, 930, 929
852, 865, 866, 931, 930
853, 866, 867, 932, 931
854, 867, 868, 933, 932
855, 868, 869, 934, 933
856, 869, 870, 935, 934
857, 870, 871, 936, 935
858, 871, 872, 937, 936
859, 872, 873, 938, 937
860, 873, 874, 939, 938
861, 874, 875, 940, 939
862, 875, 876, 941, 940
863, 876, 877, 942, 941
864, 877, 878, 943, 942
865, 878, 879, 944, 943
866, 879, 880, 945, 944
867, 880, 881, 946, 945
868, 881, 882, 947, 946
869, 882, 883, 948, 947
870, 883, 884, 949, 948
871, 884, 885, 950, 949
872, 885, 886, 951, 950
873, 886, 887, 952, 951
874, 887, 888, 953, 952
875, 888, 889, 954, 953
876, 889, 890, 955, 954
877, 890, 891, 956, 955
878, 891, 892, 957, 956
879, 892, 893, 958, 957
880, 893, 894, 959, 958
881, 894, 895, 960, 959
882, 895, 896, 961, 960
883, 896, 897, 962, 961
884, 897, 898, 963, 962
885, 898, 899, 964, 963
886, 899, 900, 965, 964
887, 900, 901, 966, 965
888, 901, 902, 967, 966
889, 902, 903, 968, 967
890, 903, 904, 969, 968
891, 904, 905, 970, 969
892, 905, 906, 971, 970
893, 906, 907, 972, 971
894, 907, 908, 973, 972
895, 908, 909, 974, 973
896, 909, 910, 975, 974
897, 911, 912, 977, 976
898, 912, 913, 978, 977
899, 913, 914, 979, 978
900, 914, 915, 980, 979
901, 915, 916, 981, 980
902, 916, 917, 982, 981
903, 917, 918, 983, 982
904, 918, 919, 984, 983
905, 919, 920, 985, 984
906, 920, 921, 986, 985
907, 921, 922, 987, 986
908, 922, 923, 988, 987
909, 923, 924, 989, 988
910, 924, 925, 990, 989
911, 925, 926, 991, 990
912, 926, 927, 992, 991
913, 927, 928, 993, 992
914, 928, 929, 994, 993
915, 929, 930, 995, 994
916, 930, 931, 996, 995
917, 931, 932, 997, 996
918, 932, 933, 998, 997
919, 933, 934, 999, 998
920, 934, 935, 1000, 999
921, 935, 936, 1001, 1000
922, 936, 937, 1002, 1001
923, 937, 938, 1003, 1002
924, 938, 939, 1004, 1003
925, 939, 940, 1005, 1004
926, 940, 941, 1006, 1005
927, 941, 942, 1007, 1006
928, 942, 943, 1008, 1007
929, 943, 944, 1009, 1008
930, 944, 945, 1010, 1009
931, 945, 946, 1011, 1010
932, 946, 947, 1012, 1011
933, 947, 948, 1013, 1012
934, 948, 949, 1014, 1013
935, 949, 950, 1015, 1014
936, 950, 951, 1016, 1015
937, 951, 952, 1017, 1016
938, 952, 953, 1018, 1017
939, 953, 954, 1019, 1018
940, 954, 955, 1020, 1019
941, 955, 956, 1021, 1020
942, 956, 957, 1022, 1021
943, 957, 958, 1023, 1022
944, 958, 959, 1024, 1023
945, 959, 960, 1025, 1024
946, 960, 961, 1026, 1025
947, 961, 962, 1027, 1026
948, 962, 963, 1028, 1027
949, 963, 964, 1029, 1028
950, 964, 965, 1030, 1029
951, 965, 966, 1031, 1030
952, 966, 967, 1032, 1031
953, 967, 968, 1033, 1032
954, 968, 969, 1034, 1033
955, 969, 970, 1035, 1034
956, 970, 971, 1036, 1035
957, 971, 972, 1037, 1036
958, 972, 973, 1038, 1037
959, 973, 974, 1039, 1038
960, 974, 975, 1040, 1039
961, 976, 977, 1042, 1041
962, 977, 978, 1043, 1042
963, 978, 979, 1044, 1043
964, 979, 980, 1045, 1044
965, 980, 981, 1046, 1045
966, 981, 982, 1047, 1046
967, 982, 983, 1048, 1047
968, 983, 984, 1049, 1048
969, 984, 985, 1050, 1049
970, 985, 986, 1051, 1050
971, 986, 987, 1052, 1051
972, 987, 988, 1053, 1052
973, 988, 989, 1054, 1053
974, 989, 990, 1055, 1054
975, 990, 991, 1056, 1055
976, 991, 992, 1057, 1056
977, 992, 993, 1058, 1057
978, 993, 994, 1059, 1058
979, 994, 995, 1060, 1059
980, 995, 996, 1061, 1060
981, 996, 997, 1062, 1061
982, 997, 998, 1063, 1062
983, 998, 999, 1064, 1063
984, 999, 1000, 1065, 1064
985, 1000, 1001, 1066, 1065
986, 1001, 1002, 1067, 1066
987, 1002, 1003, 1068, 1067
988, 1003, 1004, 1069, 1068
989, 1004, 1005, 1070, 1069
990, 1005, 1006, 1071, 1070
991, 1006, 1007, 1072, 1071
992, 1007, 1008, 1073, 1072
993, 1008, 1009, 1074, 1073
994, 1009, 1010, 1075, 1074
995, 1010, 1011, 1076, 1075
996, 1011, 1012, 1077, 1076
997, 1012, 1013, 1078, 1077
998, 1013, 1014, 1079, 1078
999, 1014, 1015, 1080, 1079
1000, 1015, 1016, 1081, 1080
1001, 1016, 1017, 1082, 1081
1002, 1017, 1018, 1083, 1082
1003, 1018, 1019, 1084, 1083
1004, 1019, 1020, 1085, 1084
1005, 1020, 1021, 1086, 1085
1006, 1021, 1022, 1087, 1086
1007, 1022, 1023, 1088, 1087
1008, 1023, 1024, 1089, 1088
1009, 1024, 1025, 1090, 1089
1010, 1025, 1026, 1091, 1090
1011, 1026, 1027, 1092, 1091
1012, 1027, 1028, 1093, 1092
1013, 1028, 1029, 1094, 1093
1014, 1029, 1030, 1095, 1094
1015, 1030, 1031, 1096, 1095
1016, 1031, 1032, 1097, 1096
1017, 1032, 1033, 1098, 1097
1018, 1033, 1034, 1099, 1098
1019, 1034, 1035, 1100, 1099
1020, 1035, 1036, 1101, 1100
1021, 1036, 1037, 1102, 1101
1022, 1037, 1038, 1103, 1102
1023, 1038, 1039, 1104, 1103
1024, 1039, 1040, 1105, 1104
1025, 1041, 1042, 1107, 1106
1026, 1042, 1043, 1108, 1107
1027, 1043, 1044, 1109, 1108
1028, 1044, 1045, 1110, 1109
1029, 1045, 1046, 1111, 1110
1030, 1046, 1047, 1112, 1111
1031, 1047, 1048, 1113, 1112
1032, 1048, 1049, 1114, 1113
1033, 1049, 1050, 1115, 1114
1034, 1050, 1051, 1116, 1115
1035, 1051, 1052, 1117, 1116
1036, 1052, 1053, 1118, 1117
1037, 1053, 1054, 1119, 1118
1038, 1054, 1055, 1120, 1119
1039, 1055, 1056, 1121, 1120
1040, 1056, 1057, 1122, 1121
1041, 1057, 1058, 1123, 1122
1042, 1058, 1059, 1124, 1123
1043, 1059, 1060, 1125, 1124
1044, 1060, 1061, 1126, 1125
1045, 1061, 1062, 1127, 1126
1046, 1062, 1063, 1128, 1127
1047, 1063, 1064, 1129, 1128
1048, 1064, 1065, 1130, 1129
1049, 1065, 1066, 1131, 1130
1050, 1066, 1067, 1132, 1131
1051, 1067, 1068, 1133, 1132
1052, 1068, 1069, 1134, 1133
1053, 1069, 1070, 1135, 1134
1054, 1070, 1071, 1136, 1135
1055, 1071, 1072, 1137, 1136
1056, 1072, 1073, 1138, 1137
1057, 1073, 1074, 1139, 1138
1058, 1074, 1075, 1140, 1139
1059, 1075, 1076, 1141, 1140
1060, 1076, 1077, 1142, 1141
1061, 1077, 1078, 1143, 1142
1062, 1078, 1079, 1144, 1143
1063, 1079, 1080, 1145, 1144
1064, 1080, 1081, 1146, 1145
1065, 1081, 1082, 1147, 1146
1066, 1082, 1083, 1148, 1147
1067, 1083, 1084, 1149, 1148
1068, 1084, 1085, 1150, 1149
1069, 1085, 1086, 1151, 1150
1070, 1086, 1087, 1152, 1151
1071, 1087, 1088, 1153, 1152
1072, 1088, 1089, 1154, 1153
1073, 1089, 1090, 1155, 1154
1074, 1090, 1091, 1156, 1155
1075, 1091, 1092, 1157, 1156
1076, 1092, 1093, 1158, 1157
1077, 1093, 1094, 1159, 1158
1078, 1094, 1095, 1160, 1159
1079, 1095, 1096, 1161, 1160
1080, 1096, 1097, 1162, 1161
1081, 1097, 1098, 1163, 1162
1082, 1098, 1099, 1164, 1163
1083, 1099, 1100, 1165, 1164
1084, 1100, 1101, 1166, 1165
1085, 1101, 1102, 1167, 1166
1086, 1102, 1103, 1168, 1167
1087, 1103, 1104, 1169, 1168
1088, 1104, 1105, 1170, 1169
1089, 1106, 1107, 1172, 1171
1090, 1107, 1108, 1173, 1172
1091, 1108, 1109, 1174, 1173
1092, 1109, 1110, 1175, 1174
1093, 1110, 1111, 1176, 1175
1094, 1111, 1112, 1177, 1176
1095, 1112, 1113, 1178, 1177
1096, 1113, 1114, 1179, 1178
1097, 1114, 1115, 1180, 1179
1098, 1115, 1116, 1181, 1180
1099, 1116, 1117, 1182, 1181
1100, 1117, 1118, 1183, 1182
1101, 1118, 1119, 1184, 1183
1102, 1119, 1120, 1185, 1184
1103, 1120, 1121, 1186, 1185
1104, 1121, 1122, 1187, 1186
1105, 1122, 1123, 1188, 1187
1106, 1123, 1124, 1189, 1188
1107, 1124, 1125, 1190, 1189
1108, 1125, 1126, 1191, 1190
1109, 1126, 1127, 1192, 1191
1110, 1127, 1128, 1193, 1192
1111, 1128, 1129, 1194, 1193
1112, 1129, 1130, 1195, 1194
1113, 1130, 1131, 1196, 1195
1114, 1131, 1132, 1197, 1196
1115, 1132, 1133, 1198, 1197
1116, 1133, 1134, 1199, 1198
1117, 1134, 1135, 1200, 1199
1118, 1135, 1136, 1201, 1200
1119, 1136, 1137, 1202, 1201
1120, 1137, 1138, 1203, 1202
1121, 1138, 1139, 1204, 1203
1122, 1139, 1140, 1205, 1204
1123, 1140, 1141, 1206, 1205
1124, 1141, 1142, 1207, 1206
1125, 1142, 1143, 1208, 1207
1126, 1143, 1144, 1209, 1208
1127, 1144, 1145, 1210, 1209
1128, 1145, 1146, 1211, 1210
1129, 1146, 1147, 1212, 1211
1130, 1147, 1148, 1213, 1212
1131, 1148, 1149, 1214, 1213
1132, 1149, 1150, 1215, 1214
1133, 1150, 1151, 1216, 1215
1134, 1151, 1152, 1217, 1216
1135, 1152, 1153, 1218, 1217
1136, 1153, 1154, 1219, 1218
1137, 1154, 1155, 1220, 1219
1138, 1155, 1156, 1221, 1220
1139, 1156, 1157, 1222, 1221
1140, 1157, 1158, 1223, 1222
1141, 1158, 1159, 1224, 1223
1142, 1159, 1160, 1225, 1224
1143, 1160, 1161, 1226, 1225
1144, 1161, 1162, 1227, 1226
1145, 1162, 1163, 1228, 1227
1146, 1163, 1164, 1229, 1228
1147, 1164, 1165, 1230, 1229
1148, 1165, 1166, 1231, 1230
1149, 1166, 1167, 1232, 1231
1150, 1167, 1168, 1233, 1232
1151, 1168, 1169, 1234, 1233
1152, 1169, 1170, 1235, 1234
1153, 1171, 1172, 1237, 1236
1154, 1172, 1173, 1238, 1237
1155, 1173, 1174, 1239, 1238
1156, 1174, 1175, 1240, 1239
1157, 1175, 1176, 1241, 1240
1158, 1176, 1177, 1242, 1241
1159, 1177, 1178, 1243, 1242
1160, 1178, 1179, 1244, 1243
1161, 1179, 1180, 1245, 1244
1162, 1180, 1181, 1246, 1245
1163, 1181, 1182, 1247, 1246
1164, 1182, 1183, 1248, 1247
1165, 1183, 1184, 1249, 1248
1166, 1184, 1185, 1250, 1249
1167, 1185, 1186, 1251, 1250
1168, 1186, 1187, 1252, 1251
1169, 1187, 1188, 1253, 1252
1170, 1188, 1189, 1254, 1253
1171, 1189, 1190, 1255, 1254
1172, 1190, 1191, 1256, 1255
1173, 1191, 1192, 1257, 1256
1174, 1192, 1193, 1258, 1257
1175, 1193, 1194, 1259, 1258
1176, 1194, 1195, 1260, 1259
1177, 1195, 1196, 1261, 1260
1178, 1196, 1197, 1262, 1261
1179, 1197, 1198, 1263, 1262
1180, 1198, 1199, 1264, 1263
1181, 1199, 1200, 1265, 1264
1182, 1200, 1201, 1266, 1265
1183, 1201, 1202, 1267, 1266
1184, 1202, 1203, 1268, 1267
1185, 1203, 1204, 1269, 1268
1186, 1204, 1205, 1270, 1269
1187, 1205, 1206, 1271, 1270
1188, 1206, 1207, 1272, 1271
1189, 1207, 1208, 1273, 1272
1190, 1208, 1209, 1274, 1273
1191, 1209, 1210, 1275, 1274
1192, 1210, 1211, 1276, 1275
1193, 1211, 1212, 1277, 1276
1194, 1212, 1213, 1278, 1277
1195, 1213, 1214, 1279, 1278
1196, 1214, 1215, 1280, 1279
1197, 1215, 1216, 1281, 1280
1198, 1216, 1217, 1282, 1281
1199, 1217, 1218, 1283, 1282
1200, 1218, 1219, 1284, 1283
1201, 1219, 1220, 1285, 1284
1202, 1220, 1221, 1286, 1285
1203, 1221, 1222, 1287, 1286
1204, 1222, 1223, 1288, 1287
1205, 1223, 1224, 1289, 1288
1206, 1224, 1225, 1290, 1289
1207, 1225, 1226, 1291, 1290
1208, 1226, 1227, 1292, 1291
1209, 1227, 1228, 1293, 1292
1210, 1228, 1229, 1294, 1293
1211, 1229, 1230, 1295, 1294
1212, 1230, 1231, 1296, 1295
1213, 1231, 1232, 1297, 1296
1214, 1232, 1233, 1298, 1297
1215, 1233, 1234, 1299, 1298
1216, 1234, 1235, 1300, 1299
1217, 1236, 1237, 1302, 1301
1218, 1237, 1238, 1303, 1302
1219, 1238, 1239, 1304, 1303
1220, 1239, 1240, 1305, 1304
1221, 1240, 1241, 1306, 1305
1222, 1241, 1242, 1307, 1306
1223, 1242, 1243, 1308, 1307
1224, 1243, 1244, 1309, 1308
1225, 1244, 1245, 1310, 1309
1226, 1245, 1246, 1311, 1310
1227, 1246, 1247, 1312, 1311
1228, 1247, 1248, 1313, 1312
1229, 1248, 1249, 1314, 1313
1230, 1249, 1250, 1315, 1314
1231, 1250, 1251, 1316, 1315
1232, 1251, 1252, 1317, 1316
1233, 1252, 1253, 1318, 1317
1234, 1253, 1254, 1319, 1318
1235, 1254, 1255, 1320, 1319
1236, 1255, 1256, 1321, 1320
1237, 1256, 1257, 1322, 1321
1238, 1257, 1258, 1323, 1322
1239, 1258, 1259, 1324, 1323
1240, 1259, 1260, 1325, 1324
1241, 1260, 1261, 1326, 1325
1242, 1261, 1262, 1327, 1326
1243, 1262, 1263, 1328, 1327
1244, 1263, 1264, 1329, 1328
1245, 1264, 1265, 1330, 1329
1246, 1265, 1266, 1331, 1330
1247, 1266, 1267, 1332, 1331
1248, 1267, 1268, 1333, 1332
1249, 1268, 1269, 1334, 1333
1250, 1269, 1270, 1335, 1334
1251, 1270, 1271, 1336, 1335
1252, 1271, 1272, 1337, 1336
1253, 1272, 1273, 1338, 1337
1254, 1273, 1274, 1339, 1338
1255, 1274, 1275, 1340, 1339
1256, 1275, 1276, 1341, 1340
1257, 1276, 1277, 1342, 1341
1258, 1277, 1278, 1343, 1342
1259, 1278, 1279, 1344, 1343
1260, 1279, 1280, 1345, 1344
1261, 1280, 1281, 1346, 1345
1262, 1281, 1282, 1347, 1346
1263, 1282, 1283, 1348, 1347
1264, 1283, 1284, 1349, 1348
1265, 1284, 1285, 1350, 1349
1266, 1285, 1286, 1351, 1350
1267, 1286, 1287, 1352, 1351
1268, 1287, 1288, 1353, 1352
1269, 1288, 1289, 1354, 1353
1270, 1289, 1290, 1355, 1354
1271, 1290, 1291, 1356, 1355
1272, 1291, 1292, 1357, 1356
1273, 1292, 1293, 1358, 1357
1274, 1293, 1294, 1359, 1358
1275, 1294, 1295, 1360, 1359
1276, 1295, 1296, 1361, 1360
1277, 1296, 1297, 1362, 1361
1278, 1297, 1298, 1363, 1362
1279, 1298, 1299, 1364, 1363
1280, 1299, 1300, 1365, 1364
1281, 1301, 1302, 1367, 1366
1282, 1302, 1303, 1368, 1367
1283, 1303, 1304, 1369, 1368
1284, 1304, 1305, 1370, 1369
1285, 1305, 1306, 1371, 1370
1286, 1306, 1307, 1372, 1371
1287, 1307, 1308, 1373, 1372
1288, 1308, 1309, 1374, 1373
1289, 1309, 1310, 1375, 1374
1290, 1310, 1311, 1376, 1375
1291, 1311, 1312, 1377, 1376
1292, 1312, 1313, 1378, 1377
1293, 1313, 1314, 1379, 1378
1294, 1314, 1315, 1380, 1379
1295, 1315, 1316, 1381, 1380
1296, 1316, 1317, 1382, 1381
1297, 1317, 1318, 1383, 1382
1298, 1318, 1319, 1384, 1383
1299, 1319, 1320, 1385, 1384
1300, 1320, 1321, 1386, 1385
1301, 1321, 1322, 1387, 1386
1302, 1322, 1323, 1388, 1387
1303, 1323, 1324, 1389, 1388
1304, 1324, 1325, 1390, 1389
1305, 1325, 1326, 1391, 1390
1306, 1326, 1327, 1392, 1391
1307, 1327, 1328, 1393, 1392
1308, 1328, 1329, 1394, 1393
1309, 1329, 1330, 1395, 1394
1310, 1330, 1331, 1396, 1395
1311, 1331, 1332, 1397, 1396
1312, 1332, 1333, 1398, 1397
1313, 1333, 1334, 1399, 1398
1314, 1334, 1335, 1400, 1399
1315, 1335, 1336, 1401, 1400
1316, 1336, 1337, 1402, 1401
1317, 1337, 1338, 1403, 1402
1318, 1338, 1339, 1404, 1403
1319, 1339, 1340, 1405, 1404
1320, 1340, 1341, 1406, 1405
1321, 1341, 1342, 1407, 1406
1322, 1342, 1343, 1408, 1407
1323, 1343, 1344, 1409, 1408
1324, 1344, 1345, 1410, 1409
1325, 1345, 1346, 1411, 1410
1326, 1346, 1347, 1412, 1411
1327, 1347, 1348, 1413, 1412
1328, 1348, 1349, 1414, 1413
1329, 1349, 1350, 1415, 1414
1330, 1350, 1351, 1416, 1415
1331, 1351, 1352, 1417, 1416
1332, 1352, 1353, 1418, 1417
1333, 1353, 1354, 1419, 1418
1334, 1354, 1355, 1420, 1419
1335, 1355, 1356, 1421, 1420
1336, 1356, 1357, 1422, 1421
1337, 1357, 1358, 1423, 1422
1338, 1358, 1359, 1424, 1423
1339, 1359, 1360, 1425, 1424
1340, 1360, 1361, 1426, 1425
1341, 1361, 1362, 1427, 1426
1342, 1362, 1363, 1428, 1427
1343, 1363, 1364, 1429, 1428
1344, 1364, 1365, 1430, 1429
1345, 1366, 1367, 1432, 1431
1346, 1367, 1368, 1433, 1432
1347, 1368, 1369, 1434, 1433
1348, 1369, 1370, 1435, 1434
1349, 1370, 1371, 1436, 1435
1350, 1371, 1372, 1437, 1436
1351, 1372, 1373, 1438, 1437
1352, 1373, 1374, 1439, 1438
1353, 1374, 1375, 1440, 1439
1354, 1375, 1376, 1441, 1440
1355, 1376, 1377, 1442, 1441
1356, 1377, 1378, 1443, 1442
1357, 1378, 1379, 1444, 1443
1358, 1379, 1380, 1445, 1444
1359, 1380, 1381, 1446, 1445
1360, 1381, 1382, 1447, 1446
1361, 1382, 1383, 1448, 1447
1362, 1383, 1384, 1449, 1448
1363, 1384, 1385, 1450, 1449
1364, 1385, 1386, 1451, 1450
1365, 1386, 1387, 1452, 1451
1366, 1387, 1388, 1453, 1452
1367, 1388, 1389, 1454, 1453
1368, 1389, 1390, 1455, 1454
1369, 1390, 1391, 1456, 1455
1370, 1391, 1392, 1457, 1456
1371, 1392, 1393, 1458, 1457
1372, 1393, 1394, 1459, 1458
1373, 1394, 1395, 1460, 1459
1374, 1395, 1396, 1461, 1460
1375, 1396, 1397, 1462, 1461
1376, 1397, 1398, 1463, 1462
1377, 1398, 1399, 1464, 1463
1378, 1399, 1400, 1465, 1464
1379, 1400, 1401, 1466, 1465
1380, 1401, 1402, 1467, 1466
1381, 1402, 1403, 1468, 1467
1382, 1403, 1404, 1469, 1468
1383, 1404, 1405, 1470, 1469
1384, 1405, 1406, 1471, 1470
1385, 1406, 1407, 1472, 1471
1386, 1407, 1408, 1473, 1472
1387, 1408, 1409, 1474, 1473
1388, 1409, 1410, 1475, 1474
1389, 1410, 1411, 1476, 1475
1390, 1411, 1412, 1477, 1476
1391, 1412, 1413, 1478, 1477
1392, 1413, 1414, 1479, 1478
1393, 1414, 1415, 1480, 1479
1394, 1415, 1416, 1481, 1480
1395, 1416, 1417, 1482, 1481
1396, 1417, 1418, 1483, 1482
1397, 1418, 1419, 1484, 1483
1398, 1419, 1420, 1485, 1484
1399, 1420, 1421, 1486, 1485
1400, 1421, 1422, 1487, 1486
1401, 1422, 1423, 1488, 1487
1402, 1423, 1424, 1489, 1488
1403, 1424, 1425, 1490, 1489
1404, 1425, 1426, 1491, 1490
1405, 1426, 1427, 1492, 1491
1406, 1427, 1428, 1493, 1492
1407, 1428, 1429, 1494, 1493
1408, 1429, 1430, 1495, 1494
1409, 1431, 1432, 1497, 1496
1410, 1432, 1433, 1498, 1497
1411, 1433, 1434, 1499, 1498
1412, 1434, 1435, 1500, 1499
1413, 1435, 1436, 1501, 1500
1414, 1436, 1437, 1502, 1501
1415, 1437, 1438, 1503, 1502
1416, 1438, 1439, 1504, 1503
1417, 1439, 1440, 1505, 1504
1418, 1440, 1441, 1506, 1505
1419, 1441, 1442, 1507, 1506
1420, 1442, 1443, 1508, 1507
1421, 1443, 1444, 1509, 1508
1422, 1444, 1445, 1510, 1509
1423, 1445, 1446, 1511, 1510
1424, 1446, 1447, 1512, 1511
1425, 1447, 1448, 1513, 1512
1426, 1448, 1449, 1514, 1513
1427, 1449, 1450, 1515, 1514
1428, 1450, 1451, 1516, 1515
1429, 1451, 1452, 1517, 1516
1430, 1452, 1453, 1518, 1517
1431, 1453, 1454, 1519, 1518
1432, 1454, 1455, 1520, 1519
1433, 1455, 1456, 1521, 1520
1434, 1456, 1457, 1522, 1521
1435, 1457, 1458, 1523, 1522
1436, 1458, 1459, 1524, 1523
1437, 1459, 1460, 1525, 1524
1438, 1460, 1461, 1526, 1525
1439, 1461, 1462, 1527, 1526
1440, 1462, 1463, 1528, 1527
1441, 1463, 1464, 1529, 1528
1442, 1464, 1465, 1530, 1529
1443, 1465, 1466, 1531, 1530
1444, 1466, 1467, 1532, 1531
1445, 1467, 1468, 1533, 1532
1446, 1468, 1469, 1534, 1533
1447, 1469, 1470, 1535, 1534
1448, 1470, 1471, 1536, 1535
1449, 1471, 1472, 1537, 1536
1450, 1472, 1473, 1538, 1537
1451, 1473, 1474, 1539, 1538
1452, 1474, 1475, 1540, 1539
1453, 1475, 1476, 1541, 1540
1454, 1476, 1477, 1542, 1541
1455, 1477, 1478, 1543, 1542
1456, 1478, 1479, 1544, 1543
1457, 1479, 1480, 1545, 1544
1458, 1480, 1481, 1546, 1545
1459, 1481, 1482, 1547, 1546
1460, 1482, 1483, 1548, 1547
1461, 1483, 1484, 1549, 1548
1462, 1484, 1485, 1550, 1549
1463, 1485, 1486, 1551, 1550
1464, 1486, 1487, 1552, 1551
1465, 1487, 1488, 1553, 1552
1466, 1488, 1489, 1554, 1553
1467, 1489, 1490, 1555, 1554
1468, 1490, 1491, 1556, 1555
1469, 1491, 1492, 1557, 1556
1470, 1492, 1493, 1558, 1557
1471, 1493, 1494, 1559, 1558
1472, 1494, 1495, 1560, 1559
1473, 1496, 1497, 1562, 1561
1474, 1497, 1498, 1563, 1562
1475, 1498, 1499, 1564, 1563
1476, 1499, 1500, 1565, 1564
1477, 1500, 1501, 1566, 1565
1478, 1501, 1502, 1567, 1566
1479, 1502, 1503, 1568, 1567
1480, 1503, 1504, 1569, 1568
1481, 1504, 1505, 1570, 1569
1482, 1505, 1506, 1571, 1570
1483, 1506, 1507, 1572, 1571
1484, 1507, 1508, 1573, 1572
1485, 1508, 1509, 1574, 1573
1486, 1509, 1510, 1575, 1574
1487, 1510, 1511, 1576, 1575
1488, 1511, 1512, 1577, 1576
1489, 1512, 1513, 1578, 1577
1490, 1513, 1514, 1579, 1578
1491, 1514, 1515, 1580, 1579
1492, 1515, 1516, 1581, 1580
1493, 1516, 1517, 1582, 1581
1494, 1517, 1518, 1583, 1582
1495, 1518, 1519, 1584, 1583
1496, 1519, 1520, 1585, 1584
1497, 1520, 1521, 1586, 1585
1498, 1521, 1522, 1587, 1586
1499, 1522, 1523, 1588, 1587
1500, 1523, 1524, 1589, 1588
1501, 1524, 1525, 1590, 1589
1502, 1525, 1526, 1591, 1590
1503, 1526, 1527, 1592, 1591
1504, 1527, 1528, 1593, 1592
1505, 1528, 1529, 1594, 1593
1506, 1529, 1530, 1595, 1594
1507, 1530, 1531, 1596, 1595
1508, 1531, 1532, 1597, 1596
1509, 1532, 1533, 1598, 1597
1510, 1533, 1534, 1599, 1598
1511, 1534, 1535, 1600, 1599
1512, 1535, 1536, 1601, 1600
1513, 1536, 1537, 1602, 1601
1514, 1537, 1538, 1603, 1602
1515, 1538, 1539, 1604, 1603
1516, 1539, 1540, 1605, 1604
1517, 1540, 1541, 1606, 1605
1518, 1541, 1542, 1607, 1606
1519, 1542, 1543, 1608, 1607
1520, 1543, 1544, 1609, 1608
1521, 1544, 1545, 1610, 1609
1522, 1545, 1546, 1611, 1610
1523, 1546, 1547, 1612, 1611
1524, 1547, 1548, 1613, 1612
1525, 1548, 1549, 1614, 1613
1526, 1549, 1550, 1615, 1614
1527, 1550, 1551, 1616, 1615
1528, 1551, 1552, 1617, 1616
1529, 1552, 1553, 1618, 1617
1530, 1553, 1554, 1619, 1618
1531, 1554, 1555, 1620, 1619
1532, 1555, 1556, 1621, 1620
1533, 1556, 1557, 1622, 1621
1534, 1557, 1558, 1623, 1622
1535, 1558, 1559, 1624, 1623
1536, 1559, 1560, 1625, 1624
1537, 1561, 1562, 1627, 1626
1538, 1562, 1563, 1628, 1627
1539, 1563, 1564, 1629, 1628
1540, 1564, 1565, 1630, 1629
1541, 1565, 1566, 1631, 1630
1542, 1566, 1567, 1632, 1631
1543, 1567, 1568, 1633, 1632
1544, 1568, 1569, 1634, 1633
1545, 1569, 1570, 1635, 1634
1546, 1570, 1571, 1636, 1635
1547, 1571, 1572, 1637, 1636
1548, 1572, 1573, 1638, 1637
1549, 1573, 1574, 1639, 1638
1550, 1574, 1575, 1640, 1639
1551, 1575, 1576, 1641, 1640
1552, 1576, 1577, 1642, 1641
1553, 1577, 1578, 1643, 1642
1554, 1578, 1579, 1644, 1643
1555, 1579, 1580, 1645, 1644
1556, 1580, 1581, 1646, 1645
1557, 1581, 1582, 1647, 1646
1558, 1582, 1583, 1648, 1647
1559, 1583, 1584, 1649, 1648
1560, 1584, 1585, 1650, 1649
1561, 1585, 1586, 1651, 1650
1562, 1586, 1587, 1652, 1651
1563, 1587, 1588, 1653, 1652
1564, 1588, 1589, 1654, 1653
1565, 1589, 1590, 1655, 1654
1566, 1590, 1591, 1656, 1655
1567, 1591, 1592, 1657, 1656
1568, 1592, 1593, 1658, 1657
1569, 1593, 1594, 1659, 1658
1570, 1594, 1595, 1660, 1659
1571, 1595, 1596, 1661, 1660
1572, 1596, 1597, 1662, 1661
1573, 1597, 1598, 1663, 1662
1574, 1598, 1599, 1664, 1663
1575, 1599, 1600, 1665, 1664
1576, 1600, 1601, 1666, 1665
1577, 1601, 1602, 1667, 1666
1578, 1602, 1603, 1668, 1667
1579, 1603, 1604, 1669, 1668
1580, 1604, 1605, 1670, 1669
1581, 1605, 1606, 1671, 1670
1582, 1606, 1607, 1672, 1671
1583, 1607, 1608, 1673, 1672
1584, 1608, 1609, 1674, 1673
1585, 1609, 1610, 1675, 1674
1586, 1610, 1611, 1676, 1675
1587, 1611, 1612, 1677, 1676
1588, 1612, 1613, 1678, 1677
1589, 1613, 1614, 1679, 1678
1590, 1614, 1615, 1680, 1679
1591, 1615, 1616, 1681, 1680
1592, 1616, 1617, 1682, 1681
1593, 1617, 1618, 1683, 1682
1594, 1618, 1619, 1684, 1683
1595, 1619, 1620, 1685, 1684
1596, 1620, 1621, 1686, 1685
1597, 1621, 1622, 1687, 1686
1598, 1622, 1623, 1688, 1687
1599, 1623, 1624, 1689, 1688
1600, 1624, 1625, 1690, 1689
1601, 1626, 1627, 1692, 1691
1602, 1627, 1628, 1693, 1692
1603, 1628, 1629, 1694, 1693
1604, 1629, 1630, 1695, 1694
1605, 1630, 1631, 1696, 1695
1606, 1631, 1632, 1697, 1696
1607, 1632, 1633, 1698, 1697
1608, 1633, 1634, 1699, 1698
1609, 1634, 1635, 1700, 1699
1610, 1635, 1636, 1701, 1700
1611, 1636, 1637, 1702, 1701
1612, 1637, 1638, 1703, 1702
1613, 1638, 1639, 1704, 1703
1614, 1639, 1640, 1705, 1704
1615, 1640, 1641, 1706, 1705
1616, 1641, 1642, 1707, 1706
1617, 1642, 1643, 1708, 1707
1618, 1643, 1644, 1709, 1708
1619, 1644, 1645, 1710, 1709
1620, 1645, 1646, 1711, 1710
1621, 1646, 1647, 1712, 1711
1622, 1647, 1648, 1713, 1712
1623, 1648, 1649, 1714, 1713
1624, 1649, 1650, 1715, 1714
1625, 1650, 1651, 1716, 1715
1626, 1651, 1652, 1717, 1716
1627, 1652, 1653, 1718, 1717
1628, 1653, 1654, 1719, 1718
1629, 1654, 1655, 1720, 1719
1630, 1655, 1656, 1721, 1720
1631, 1656, 1657, 1722, 1721
1632, 1657, 1658, 1723, 1722
1633, 1658, 1659, 1724, 1723
1634, 1659, 1660, 1725, 1724
1635, 1660, 1661, 1726, 1725
1636, 1661, 1662, 1727, 1726
1637, 1662, 1663, 1728, 1727
1638, 1663, 1664, 1729, 1728
1639, 1664, 1665, 1730, 1729
1640, 1665, 1666, 1731, 1730
1641, 1666, 1667, 1732, 1731
1642, 1667, 1668, 1733, 1732
1643, 1668, 1669, 1734, 1733
1644, 1669, 1670, 1735, 1734
1645, 1670, 1671, 1736, 1735
1646, 1671, 1672, 1737, 1736
1647, 1672, 1673, 1738, 1737
1648, 1673, 1674, 1739, 1738
1649, 1674, 1675, 1740, 1739
1650, 1675, 1676, 1741, 1740
1651, 1676, 1677, 1742, 1741
1652, 1677, 1678, 1743, 1742
1653, 1678, 1679, 1744, 1743
1654, 1679, 1680, 1745, 1744
1655, 1680, 1681, 1746, 1745
1656, 1681, 1682, 1747, 1746
1657, 1682, 1683, 1748, 1747
1658, 1683, 1684, 1749, 1748
1659, 1684, 1685, 1750, 1749
1660, 1685, 1686, 1751, 1750
1661, 1686, 1687, 1752, 1751
1662, 1687, 1688, 1753, 1752
1663, 1688, 1689, 1754, 1753
1664, 1689, 1690, 1755, 1754
1665, 1691, 1692, 1757, 1756
1666, 1692, 1693, 1758, 1757
1667, 1693, 1694, 1759, 1758
1668, 1694, 1695, 1760, 1759
1669, 1695, 1696, 1761, 1760
1670, 1696, 1697, 1762, 1761
1671, 1697, 1698, 1763, 1762
1672, 1698, 1699, 1764, 1763
1673, 1699, 1700, 1765, 1764
1674, 1700, 1701, 1766, 1765
1675, 1701, 1702, 1767, 1766
1676, 1702, 1703, 1768, 1767
1677, 1703, 1704, 1769, 1768
1678, 1704, 1705, 1770, 1769
1679, 1705, 1706, 1771, 1770
1680, 1706, 1707, 1772, 1771
1681, 1707, 1708, 1773, 1772
1682, 1708, 1709, 1774, 1773
1683, 1709, 1710, 1775, 1774
1684, 1710, 1711, 1776, 1775
1685, 1711, 1712, 1777, 1776
1686, 1712, 1713, 1778, 1777
1687, 1713, 1714, 1779, 1778
1688, 1714, 1715, 1780, 1779
1689, 1715, 1716, 1781, 1780
1690, 1716, 1717, 1782, 1781
1691, 1717, 1718, 1783, 1782
1692, 1718, 1719, 1784, 1783
1693, 1719, 1720, 1785, 1784
1694, 1720, 1721, 1786, 1785
1695, 1721, 1722, 1787, 1786
1696, 1722, 1723, 1788, 1787
1697, 1723, 1724, 1789, 1788
1698, 1724, 1725, 1790, 1789
1699, 1725, 1726, 1791, 1790
1700, 1726, 1727, 1792, 1791
1701, 1727, 1728, 1793, 1792
1702, 1728, 1729, 1794, 1793
1703, 1729, 1730, 1795, 1794
1704, 1730, 1731, 1796, 1795
1705, 1731, 1732, 1797, 1796
1706, 1732, 1733, 1798, 1797
1707, 1733, 1734, 1799, 1798
1708, 1734, 1735, 1800, 1799
1709, 1735, 1736, 1801, 1800
1710, 1736, 1737, 1802, 1801
1711, 1737, 1738, 1803, 1802
1712, 1738, 1739, 1804, 1803
1713, 1739, 1740, 1805, 1804
1714, 1740, 1741, 1806, 1805
1715, 1741, 1742, 1807, 1806
1716, 1742, 1743, 1808, 1807
1717, 1743, 1744, 1809, 1808
1718, 1744, 1745, 1810, 1809
1719, 1745, 1746, 1811, 1810
1720, 1746, 1747, 1812, 1811
1721, 1747, 1748, 1813, 1812
1722, 1748, 1749, 1814, 1813
1723, 1749, 1750, 1815, 1814
1724, 1750, 1751, 1816, 1815
1725, 1751, 1752, 1817, 1816
1726, 1752, 1753, 1818, 1817
1727, 1753, 1754, 1819, 1818
1728, 1754, 1755, 1820, 1819
1729, 1756, 1757, 1822, 1821
1730, 1757, 1758, 1823, 1822
1731, 1758, 1759, 1824, 1823
1732, 1759, 1760, 1825, 1824
1733, 1760, 1761, 1826, 1825
1734, 1761, 1762, 1827, 1826
1735, 1762, 1763, 1828, 1827
1736, 1763, 1764, 1829, 1828
1737, 1764, 1765, 1830, 1829
1738, 1765, 1766, 1831, 1830
1739, 1766, 1767, 1832, 1831
1740, 1767, 1768, 1833, 1832
1741, 1768, 1769, 1834, 1833
1742, 1769, 1770, 1835, 1834
1743, 1770, 1771, 1836, 1835
1744, 1771, 1772, 1837, 1836
1745, 1772, 1773, 1838, 1837
1746, 1773, 1774, 1839, 1838
1747, 1774, 1775, 1840, 1839
1748, 1775, 1776, 1841, 1840
1749, 1776, 1777, 1842, 1841
1750, 1777, 1778, 1843, 1842
1751, 1778, 1779, 1844, 1843
1752, 1779, 1780, 1845, 1844
1753, 1780, 1781, 1846, 1845
1754, 1781, 1782, 1847, 1846
1755, 1782, 1783, 1848, 1847
1756, 1783, 1784, 1849, 1848
1757, 1784, 1785, 1850, 1849
1758, 1785, 1786, 1851, 1850
1759, 1786, 1787, 1852, 1851
1760, 1787, 1788, 1853, 1852
1761, 1788, 1789, 1854, 1853
1762, 1789, 1790, 1855, 1854
1763, 1790, 1791, 1856, 1855
1764, 1791, 1792, 1857, 1856
1765, 1792, 1793, 1858, 1857
1766, 1793, 1794, 1859, 1858
1767, 1794, 1795, 1860, 1859
1768, 1795, 1796, 1861, 1860
1769, 1796, 1797, 1862, 1861
1770, 1797, 1798, 1863, 1862
1771, 1798, 1799, 1864, 1863
1772, 1799, 1800, 1865, 1864
1773, 1800, 1801, 1866, 1865
1774, 1801, 1802, 1867, 1866
1775, 1802, 1803, 1868, 1867
1776, 1803, 1804, 1869, 1868
1777, 1804, 1805, 1870, 1869
1778, 1805, 1806, 1871, 1870
1779, 1806, 1807, 1872, 1871
1780, 1807, 1808, 1873, 1872
1781, 1808, 1809, 1874, 1873
1782, 1809, 1810, 1875, 1874
1783, 1810, 1811, 1876, 1875
1784, 1811, 1812, 1877, 1876
1785, 1812, 1813, 1878, 1877
1786, 1813, 1814, 1879, 1878
1787, 1814, 1815, 1880, 1879
1788, 1815, 1816, 1881, 1880
1789, 1816, 1817, 1882, 1881
1790, 1817, 1818, 1883, 1882
1791, 1818, 1819, 1884, 1883
1792, 1819, 1820, 1885, 1884
1793, 1821, 1822, 1887, 1886
1794, 1822, 1823, 1888, 1887
1795, 1823, 1824, 1889, 1888
1796, 1824, 1825, 1890, 1889
1797, 1825, 1826, 1891, 1890
1798, 1826, 1827, 1892, 1891
1799, 1827, 1828, 1893, 1892
1800, 1828, 1829, 1894, 1893
1801, 1829, 1830, 1895, 1894
1802, 1830, 1831, 1896, 1895
1803, 1831, 1832, 1897, 1896
1804, 1832, 1833, 1898, 1897
1805, 1833, 1834, 1899, 1898
1806, 1834, 1835, 1900, 1899
1807, 1835, 1836, 1901, 1900
1808, 1836, 1837, 1902, 1901
1809, 1837, 1838, 1903, 1902
1810, 1838, 1839, 1904, 1903
1811, 1839, 1840, 1905, 1904
1812, 1840, 1841, 1906, 1905
1813, 1841, 1842, 1907, 1906
1814, 1842, 1843, 1908, 1907
1815, 1843, 1844, 1909, 1908
1816, 1844, 1845, 1910, 1909
1817, 1845, 1846, 1911, 1910
1818, 1846, 1847, 1912, 1911
1819, 1847, 1848, 1913, 1912
1820, 1848, 1849, 1914, 1913
1821, 1849, 1850, 1915, 1914
1822, 1850, 1851, 1916, 1915
1823, 1851, 1852, 1917, 1916
1824, 1852, 1853, 1918, 1917
1825, 1853, 1854, 1919, 1918
1826, 1854, 1855, 1920, 1919
1827, 1855, 1856, 1921, 1920
1828, 1856, 1857, 1922, 1921
1829, 1857, 1858, 1923, 1922
1830, 1858, 1859, 1924, 1923
1831, 1859, 1860, 1925, 1924
1832, 1860, 1861, 1926, 1925
1833, 1861, 1862, 1927, 1926
1834, 1862, 1863, 1928, 1927
1835, 1863, 1864, 1929, 1928
1836, 1864, 1865, 1930, 1929
1837, 1865, 1866, 1931, 1930
1838, 1866, 1867, 1932, 1931
1839, 1867, 1868, 1933, 1932
1840, 1868, 1869, 1934, 1933
1841, 1869, 1870, 1935, 1934
1842, 1870, 1871, 1936, 1935
1843, 1871, 1872, 1937, 1936
1844, 1872, 1873, 1938, 1937
1845, 1873, 1874, 1939, 1938
1846, 1874, 1875, 1940, 1939
1847, 1875, 1876, 1941, 1940
1848, 1876, 1877, 1942, 1941
1849, 1877, 1878, 1943, 1942
1850, 1878, 1879, 1944, 1943
1851, 1879, 1880, 1945, 1944
1852, 1880, 1881, 1946, 1945
1853, 1881, 1882, 1947, 1946
1854, 1882, 1883, 1948, 1947
1855, 1883, 1884, 1949, 1948
1856, 1884, 1885, 1950, 1949
1857, 1886, 1887, 1952, 1951
1858, 1887, 1888, 1953, 1952
1859, 1888, 1889, 1954, 1953
1860, 1889, 1890, 1955, 1954
1861, 1890, 1891, 1956, 1955
1862, 1891, 1892, 1957, 1956
1863, 1892, 1893, 1958, 1957
1864, 1893, 1894, 1959, 1958
1865, 1894, 1895, 1960, 1959
1866, 1895, 1896, 1961, 1960
1867, 1896, 1897, 1962, 1961
1868, 1897, 1898, 1963, 1962
1869, 1898, 1899, 1964, 1963
1870, 1899, 1900, 1965, 1964
1871, 1900, 1901, 1966, 1965
1872, 1901, 1902, 1967, 1966
1873, 1902, 1903, 1968, 1967
1874, 1903, 1904, 1969, 1968
1875, 1904, 1905, 1970, 1969
1876, 1905, 1906, 1971, 1970
1877, 1906, 1907, 1972, 1971
1878, 1907, 1908, 1973, 1972
1879, 1908, 1909, 1974, 1973
1880, 1909, 1910, 1975, 1974
1881, 1910, 1911, 1976, 1975
1882, 1911, 1912, 1977, 1976
1883, 1912, 1913, 1978, 1977
1884, 1913, 1914, 1979, 1978
1885, 1914, 1915, 1980, 1979
1886, 1915, 1916, 1981, 1980
1887, 1916, 1917, 1982, 1981
1888, 1917, 1918, 1983, 1982
1889, 1918, 1919, 1984, 1983
1890, 1919, 1920, 1985, 1984
1891, 1920, 1921, 1986, 1985
1892, 1921, 1922, 1987, 1986
1893, 1922, 1923, 1988, 1987
1894, 1923, 1924, 1989, 1988
1895, 1924, 1925, 1990, 1989
1896, 1925, 1926, 1991, 1990
1897, 1926, 1927, 1992, 1991
1898, 1927, 1928, 1993, 1992
1899, 1928, 1929, 1994, 1993
1900, 1929, 1930, 1995, 1994
1901, 1930, 1931, 1996, 1995
1902, 1931, 1932, 1997, 1996
1903, 1932, 1933, 1998, 1997
1904, 1933, 1934, 1999, 1998
1905, 1934, 1935, 2000, 1999
1906, 1935, 1936, 2001, 2000
1907, 1936, 1937, 2002, 2001
1908, 1937, 1938, 2003, 2002
1909, 1938, 1939, 2004, 2003
1910, 1939, 1940, 2005, 2004
1911, 1940, 1941, 2006, 2005
1912, 1941, 1942, 2007, 2006
1913, 1942, 1943, 2008, 2007
1914, 1943, 1944, 2009, 2008
1915, 1944, 1945, 2010, 2009
1916, 1945, 1946, 2011, 2010
1917, 1946, 1947, 2012, 2011
1918, 1947, 1948, 2013, 2012
1919, 1948, 1949, 2014, 2013
1920, 1949, 1950, 2015, 2014
1921, 1951, 1952, 2017, 2016
1922, 1952, 1953, 2018, 2017
1923, 1953, 1954, 2019, 2018
1924, 1954, 1955, 2020, 2019
1925, 1955, 1956, 2021, 2020
1926, 1956, 1957, 2022, 2021
1927, 1957, 1958, 2023, 2022
1928, 1958, 1959, 2024, 2023
1929, 1959, 1960, 2025, 2024
1930, 1960, 1961, 2026, 2025
1931, 1961, 1962, 2027, 2026
1932, 1962, 1963, 2028, 2027
1933, 1963, 1964, 2029, 2028
1934, 1964, 1965, 2030, 2029
1935, 1965, 1966, 2031, 2030
1936, 1966, 1967, 2032, 2031
1937, 1967, 1968, 2033, 2032
1938, 1968, 1969, 2034, 2033
1939, 1969, 1970, 2035, 2034
1940, 1970, 1971, 2036, 2035
1941, 1971, 1972, 2037, 2036
1942, 1972, 1973, 2038, 2037
1943, 1973, 1974, 2039, 2038
1944, 1974, 1975, 2040, 2039
1945, 1975, 1976, 2041, 2040
1946, 1976, 1977, 2042, 2041
1947, 1977, 1978, 2043, 2042
1948, 1978, 1979, 2044, 2043
1949, 1979, 1980, 2045, 2044
1950, 1980, 1981, 2046, 2045
1951, 1981, 1982, 2047, 2046
1952, 1982, 1983, 2048, 2047
1953, 1983, 1984, 2049, 2048
1954, 1984, 1985, 2050, 2049
1955, 1985, 1986, 2051, 2050
1956, 1986, 1987, 2052, 2051
1957, 1987, 1988, 2053, 2052
1958, 1988, 1989, 2054, 2053
1959, 1989, 1990, 2055, 2054
1960, 1990, 1991, 2056, 2055
1961, 1991, 1992, 2057, 2056
1962, 1992, 1993, 2058, 2057
1963, 1993, 1994, 2059, 2058
1964, 1994, 1995, 2060, 2059
1965, 1995, 1996, 2061, 2060
1966, 1996, 1997, 2062, 2061
1967, 1997, 1998, 2063, 2062
1968, 1998, 1999, 2064, 2063
1969, 1999, 2000, 2065, 2064
1970, 2000, 2001, 2066, 2065
1971, 2001, 2002, 2067, 2066
1972, 2002, 2003, 2068, 2067
1973, 2003, 2004, 2069, 2068
1974, 2004, 2005, 2070, 2069
1975, 2005, 2006, 2071, 2070
1976, 2006, 2007, 2072, 2071
1977, 2007, 2008, 2073, 2072
1978, 2008, 2009, 2074, 2073
1979, 2009, 2010, 2075, 2074
1980, 2010, 2011, 2076, 2075
1981, 2011, 2012, 2077, 2076
1982, 2012, 2013, 2078, 2077
1983, 2013, 2014, 2079, 2078
1984, 2014, 2015, 2080, 2079
1985, 2016, 2017, 2082, 2081
1986, 2017, 2018, 2083, 2082
1987, 2018, 2019, 2084, 2083
1988, 2019, 2020, 2085, 2084
1989, 2020, 2021, 2086, 2085
1990, 2021, 2022, 2087, 2086
1991, 2022, 2023, 2088, 2087
1992, 2023, 2024, 2089, 2088
1993, 2024, 2025, 2090, 2089
1994, 2025, 2026, 2091, 2090
1995, 2026, 2027, 2092, 2091
1996, 2027, 2028, 2093, 2092
1997, 2028, 2029, 2094, 2093
1998, 2029, 2030, 2095, 2094
1999, 2030, 2031, 2096, 2095
2000, 2031, 2032, 2097, 2096
2001, 2032, 2033, 2098, 2097
2002, 2033, 2034, 2099, 2098
2003, 2034, 2035, 2100, 2099
2004, 2035, 2036, 2101, 2100
2005, 2036, 2037, 2102, 2101
2006, 2037, 2038, 2103, 2102
2007, 2038, 2039, 2104, 2103
2008, 2039, 2040, 2105, 2104
2009, 2040, 2041, 2106, 2105
2010, 2041, 2042, 2107, 2106
2011, 2042, 2043, 2108, 2107
2012, 2043, 2044, 2109, 2108
2013, 2044, 2045, 2110, 2109
2014, 2045, 2046, 2111, 2110
2015, 2046, 2047, 2112, 2111
2016, 2047, 2048, 2113, 2112
2017, 2048, 2049, 2114, 2113
2018, 2049, 2050, 2115, 2114
2019, 2050, 2051, 2116, 2115
2020, 2051, 2052, 2117, 2116
2021, 2052, 2053, 2118, 2117
2022, 2053, 2054, 2119, 2118
2023, 2054, 2055, 2120, 2119
2024, 2055, 2056, 2121, 2120
2025, 2056, 2057, 2122, 2121
2026, 2057, 2058, 2123, 2122
2027, 2058, 2059, 2124, 2123
2028, 2059, 2060, 2125, 2124
2029, 2060, 2061, 2126, 2125
2030, 2061, 2062, 2127, 2126
2031, 2062, 2063, 2128, 2127
2032, 2063, 2064, 2129, 2128
2033, 2064, 2065, 2130, 2129
2034, 2065, 2066, 2131, 2130
2035, 2066, 2067, 2132, 2131
2036, 2067, 2068, 2133, 2132
2037, 2068, 2069, 2134, 2133
2038, 2069, 2070, 2135, 2134
2039, 2070, 2071, 2136, 2135
2040, 2071, 2072, 2137, 2136
2041, 2072, 2073, 2138, 2137
2042, 2073, 2074, 2139, 2138
2043, 2074, 2075, 2140, 2139
2044, 2075, 2076, 2141, 2140
2045, 2076, 2077, 2142, 2141
2046, 2077, 2078, 2143, 2142
2047, 2078, 2079, 2144, 2143
2048, 2079, 2080, 2145, 2144
2049, 2081, 2082, 2147, 2146
2050, 2082, 2083, 2148, 2147
2051, 2083, 2084, 2149, 2148
2052, 2084, 2085, 2150, 2149
2053, 2085, 2086, 2151, 2150
2054, 2086, 2087, 2152, 2151
2055, 2087, 2088, 2153, 2152
2056, 2088, 2089, 2154, 2153
2057, 2089, 2090, 2155, 2154
2058, 2090, 2091, 2156, 2155
2059, 2091, 2092, 2157, 2156
2060, 2092, 2093, 2158, 2157
2061, 2093, 2094, 2159, 2158
2062, 2094, 2095, 2160, 2159
2063, 2095, 2096, 2161, 2160
2064, 2096, 2097, 2162, 2161
2065, 2097, 2098, 2163, 2162
2066, 2098, 2099, 2164, 2163
2067, 2099, 2100, 2165, 2164
2068, 2100, 2101, 2166, 2165
2069, 2101, 2102, 2167, 2166
2070, 2102, 2103, 2168, 2167
2071, 2103, 2104, 2169, 2168
2072, 2104, 2105, 2170, 2169
2073, 2105, 2106, 2171, 2170
2074, 2106, 2107, 2172, 2171
2075, 2107, 2108, 2173, 2172
2076, 2108, 2109, 2174, 2173
2077, 2109, 2110, 2175, 2174
2078, 2110, 2111, 2176, 2175
2079, 2111, 2112, 2177, 2176
2080, 2112, 2113, 2178, 2177
2081, 2113, 2114, 2179, 2178
2082, 2114, 2115, 2180, 2179
2083, 2115, 2116, 2181, 2180
2084, 2116, 2117, 2182, 2181
2085, 2117, 2118, 2183, 2182
2086, 2118, 2119, 2184, 2183
2087, 2119, 2120, 2185, 2184
2088, 2120, 2121, 2186, 2185
2089, 2121, 2122, 2187, 2186
2090, 2122, 2123, 2188, 2187
2091, 2123, 2124, 2189, 2188
2092, 2124, 2125, 2190, 2189
2093, 2125, 2126, 2191, 2190
2094, 2126, 2127, 2192, 2191
2095, 2127, 2128, 2193, 2192
2096, 2128, 2129, 2194, 2193
2097, 2129, 2130, 2195, 2194
2098, 2130, 2131, 2196, 2195
2099, 2131, 2132, 2197, 2196
2100, 2132, 2133, 2198, 2197
2101, 2133, 2134, 2199, 2198
2102, 2134, 2135, 2200, 2199
2103, 2135, 2136, 2201, 2200
2104, 2136, 2137, 2202, 2201
2105, 2137, 2138, 2203, 2202
2106, 2138, 2139, 2204, 2203
2107, 2139, 2140, 2205, 2204
2108, 2140, 2141, 2206, 2205
2109, 2141, 2142, 2207, 2206
2110, 2142, 2143, 2208, 2207
2111, 2143, 2144, 2209, 2208
2112, 2144, 2145, 2210, 2209
2113, 2146, 2147, 2212, 2211
2114, 2147, 2148, 2213, 2212
2115, 2148, 2149, 2214, 2213
2116, 2149, 2150, 2215, 2214
2117, 2150, 2151, 2216, 2215
2118, 2151, 2152, 2217, 2216
2119, 2152, 2153, 2218, 2217
2120, 2153, 2154, 2219, 2218
2121, 2154, 2155, 2220, 2219
2122, 2155, 2156, 2221, 2220
2123, 2156, 2157, 2222, 2221
2124, 2157, 2158, 2223, 2222
2125, 2158, 2159, 2224, 2223
2126, 2159, 2160, 2225, 2224
2127, 2160, 2161, 2226, 2225
2128, 2161, 2162, 2227, 2226
2129, 2162, 2163, 2228, 2227
2130, 2163, 2164, 2229, 2228
2131, 2164, 2165, 2230, 2229
2132, 2165, 2166, 2231, 2230
2133, 2166, 2167, 2232, 2231
2134, 2167, 2168, 2233, 2232
2135, 2168, 2169, 2234, 2233
2136, 2169, 2170, 2235, 2234
2137, 2170, 2171, 2236, 2235
2138, 2171, 2172, 2237, 2236
2139, 2172, 2173, 2238, 2237
2140, 2173, 2174, 2239, 2238
2141, 2174, 2175, 2240, 2239
2142, 2175, 2176, 2241, 2240
2143, 2176, 2177, 2242, 2241
2144, 2177, 2178, 2243, 2242
2145, 2178, 2179, 2244, 2243
2146, 2179, 2180, 2245, 2244
2147, 2180, 2181, 2246, 2245
2148, 2181, 2182, 2247, 2246
2149, 2182, 2183, 2248, 2247
2150, 2183, 2184, 2249, 2248
2151, 2184, 2185, 2250, 2249
2152, 2185, 2186, 2251, 2250
2153, 2186, 2187, 2252, 2251
2154, 2187, 2188, 2253, 2252
2155, 2188, 2189, 2254, 2253
2156, 2189, 2190, 2255, 2254
2157, 2190, 2191, 2256, 2255
2158, 2191, 2192, 2257, 2256
2159, 2192, 2193, 2258, 2257
2160, 2193, 2194, 2259, 2258
2161, 2194, 2195, 2260, 2259
2162, 2195, 2196, 2261, 2260
2163, 2196, 2197, 2262, 2261
2164, 2197, 2198, 2263, 2262
2165, 2198, 2199, 2264, 2263
2166, 2199, 2200, 2265, 2264
2167, 2200, 2201, 2266, 2265
2168, 2201, 2202, 2267, 2266
2169, 2202, 2203, 2268, 2267
2170, 2203, 2204, 2269, 2268
2171, 2204, 2205, 2270, 2269
2172, 2205, 2206, 2271, 2270
2173, 2206, 2207, 2272, 2271
2174, 2207, 2208, 2273, 2272
2175, 2208, 2209, 2274, 2273
2176, 2209, 2210, 2275, 2274
2177, 2211, 2212, 2277, 2276
2178, 2212, 2213, 2278, 2277
2179, 2213, 2214, 2279, 2278
2180, 2214, 2215, 2280, 2279
2181, 2215, 2216, 2281, 2280
2182, 2216, 2217, 2282, 2281
2183, 2217, 2218, 2283, 2282
2184, 2218, 2219, 2284, 2283
2185, 2219, 2220, 2285, 2284
2186, 2220, 2221, 2286, 2285
2187, 2221, 2222, 2287, 2286
2188, 2222, 2223, 2288, 2287
2189, 2223, 2224, 2289, 2288
2190, 2224, 2225, 2290, 2289
2191, 2225, 2226, 2291, 2290
2192, 2226, 2227, 2292, 2291
2193, 2227, 2228, 2293, 2292
2194, 2228, 2229, 2294, 2293
2195, 2229, 2230, 2295, 2294
2196, 2230, 2231, 2296, 2295
2197, 2231, 2232, 2297, 2296
2198, 2232, 2233, 2298, 2297
2199, 2233, 2234, 2299, 2298
2200, 2234, 2235, 2300, 2299
2201, 2235, 2236, 2301, 2300
2202, 2236, 2237, 2302, 2301
2203, 2237, 2238, 2303, 2302
2204, 2238, 2239, 2304, 2303
2205, 2239, 2240, 2305, 2304
2206, 2240, 2241, 2306, 2305
2207, 2241, 2242, 2307, 2306
2208, 2242, 2243, 2308, 2307
2209, 2243, 2244, 2309, 2308
2210, 2244, 2245, 2310, 2309
2211, 2245, 2246, 2311, 2310
2212, 2246, 2247, 2312, 2311
2213, 2247, 2248, 2313, 2312
2214, 2248, 2249, 2314, 2313
2215, 2249, 2250, 2315, 2314
2216, 2250, 2251, 2316, 2315
2217, 2251, 2252, 2317, 2316
2218, 2252, 2253, 2318, 2317
2219, 2253, 2254, 2319, 2318
2220, 2254, 2255, 2320, 2319
2221, 2255, 2256, 2321, 2320
2222, 2256, 2257, 2322, 2321
2223, 2257, 2258, 2323, 2322
2224, 2258, 2259, 2324, 2323
2225, 2259, 2260, 2325, 2324
2226, 2260, 2261, 2326, 2325
2227, 2261, 2262, 2327, 2326
2228, 2262, 2263, 2328, 2327
2229, 2263, 2264, 2329, 2328
2230, 2264, 2265, 2330, 2329
2231, 2265, 2266, 2331, 2330
2232, 2266, 2267, 2332, 2331
2233, 2267, 2268, 2333, 2332
2234, 2268, 2269, 2334, 2333
2235, 2269, 2270, 2335, 2334
2236, 2270, 2271, 2336, 2335
2237, 2271, 2272, 2337, 2336
2238, 2272, 2273, 2338, 2337
2239, 2273, 2274, 2339, 2338
2240, 2274, 2275, 2340, 2339
2241, 2276, 2277, 2342, 2341
2242, 2277, 2278, 2343, 2342
2243, 2278, 2279, 2344, 2343
2244, 2279, 2280, 2345, 2344
2245, 2280, 2281, 2346, 2345
2246, 2281, 2282, 2347, 2346
2247, 2282, 2283, 2348, 2347
2248, 2283, 2284, 2349, 2348
2249, 2284, 2285, 2350, 2349
2250, 2285, 2286, 2351, 2350
2251, 2286, 2287, 2352, 2351
2252, 2287, 2288, 2353, 2352
2253, 2288, 2289, 2354, 2353
2254, 2289, 2290, 2355, 2354
2255, 2290, 2291, 2356, 2355
2256, 2291, 2292, 2357, 2356
2257, 2292, 2293, 2358, 2357
2258, 2293, 2294, 2359, 2358
2259, 2294, 2295, 2360, 2359
2260, 2295, 2296, 2361, 2360
2261, 2296, 2297, 2362, 2361
2262, 2297, 2298, 2363, 2362
2263, 2298, 2299, 2364, 2363
2264, 2299, 2300, 2365, 2364
2265, 2300, 2301, 2366, 2365
2266, 2301, 2302, 2367, 2366
2267, 2302, 2303, 2368, 2367
2268, 2303, 2304, 2369, 2368
2269, 2304, 2305, 2370, 2369
2270, 2305, 2306, 2371, 2370
2271, 2306, 2307, 2372, 2371
2272, 2307, 2308, 2373, 2372
2273, 2308, 2309, 2374, 2373
2274, 2309, 2310, 2375, 2374
2275, 2310, 2311, 2376, 2375
2276, 2311, 2312, 2377, 2376
2277, 2312, 2313, 2378, 2377
2278, 2313, 2314, 2379, 2378
2279, 2314, 2315, 2380, 2379
2280, 2315, 2316, 2381, 2380
2281, 2316, 2317, 2382, 2381
2282, 2317, 2318, 2383, 2382
2283, 2318, 2319, 2384, 2383
2284, 2319, 2320, 2385, 2384
2285, 2320, 2321, 2386, 2385
2286, 2321, 2322, 2387, 2386
2287, 2322, 2323, 2388, 2387
2288, 2323, 2324, 2389, 2388
2289, 2324, 2325, 2390, 2389
2290, 2325, 2326, 2391, 2390
2291, 2326, 2327, 2392, 2391
2292, 2327, 2328, 2393, 2392
2293, 2328, 2329, 2394, 2393
2294, 2329, 2330, 2395, 2394
2295, 2330, 2331, 2396, 2395
2296, 2331, 2332, 2397, 2396
2297, 2332, 2333, 2398, 2397
2298, 2333, 2334, 2399, 2398
2299, 2334, 2335, 2400, 2399
2300, 2335, 2336, 2401, 2400
2301, 2336, 2337, 2402, 2401
2302, 2337, 2338, 2403, 2402
2303, 2338, 2339, 2404, 2403
2304, 2339, 2340, 2405, 2404
2305, 2341, 2342, 2407, 2406
2306, 2342, 2343, 2408, 2407
2307, 2343, 2344, 2409, 2408
2308, 2344, 2345, 2410, 2409
2309, 2345, 2346, 2411, 2410
2310, 2346, 2347, 2412, 2411
2311, 2347, 2348, 2413, 2412
2312, 2348, 2349, 2414, 2413
2313, 2349, 2350, 2415, 2414
2314, 2350, 2351, 2416, 2415
2315, 2351, 2352, 2417, 2416
2316, 2352, 2353, 2418, 2417
2317, 2353, 2354, 2419, 2418
2318, 2354, 2355, 2420, 2419
2319, 2355, 2356, 2421, 2420
2320, 2356, 2357, 2422, 2421
2321, 2357, 2358, 2423, 2422
2322, 2358, 2359, 2424, 2423
2323, 2359, 2360, 2425, 2424
2324, 2360, 2361, 2426, 2425
2325, 2361, 2362, 2427, 2426
2326, 2362, 2363, 2428, 2427
2327, 2363, 2364, 2429, 2428
2328, 2364, 2365, 2430, 2429
2329, 2365, 2366, 2431, 2430
2330, 2366, 2367, 2432, 2431
2331, 2367, 2368, 2433, 2432
2332, 2368, 2369, 2434, 2433
2333, 2369, 2370, 2435, 2434
2334, 2370, 2371, 2436, 2435
2335, 2371, 2372, 2437, 2436
2336, 2372, 2373, 2438, 2437
2337, 2373, 2374, 2439, 2438
2338, 2374, 2375, 2440, 2439
2339, 2375, 2376, 2441, 2440
2340, 2376, 2377, 2442, 2441
2341, 2377, 2378, 2443, 2442
2342, 2378, 2379, 2444, 2443
2343, 2379, 2380, 2445, 2444
2344, 2380, 2381, 2446, 2445
2345, 2381, 2382, 2447, 2446
2346, 2382, 2383, 2448, 2447
2347, 2383, 2384, 2449, 2448
2348, 2384, 2385, 2450, 2449
2349, 2385, 2386, 2451, 2450
2350, 2386, 2387, 2452, 2451
2351, 2387, 2388, 2453, 2452
2352, 2388, 2389, 2454, 2453
2353, 2389, 2390, 2455, 2454
2354, 2390, 2391, 2456, 2455
2355, 2391, 2392, 2457, 2456
2356, 2392, 2393, 2458, 2457
2357, 2393, 2394, 2459, 2458
2358, 2394, 2395, 2460, 2459
2359, 2395, 2396, 2461, 2460
2360, 2396, 2397, 2462, 2461
2361, 2397, 2398, 2463, 2462
2362, 2398, 2399, 2464, 2463
2363, 2399, 2400, 2465, 2464
2364, 2400, 2401, 2466, 2465
2365, 2401, 2402, 2467, 2466
2366, 2402, 2403, 2468, 2467
2367, 2403, 2404, 2469, 2468
2368, 2404, 2405, 2470, 2469
2369, 2406, 2407, 2472, 2471
2370, 2407, 2408, 2473, 2472
2371, 2408, 2409, 2474, 2473
2372, 2409, 2410, 2475, 2474
2373, 2410, 2411, 2476, 2475
2374, 2411, 2412, 2477, 2476
2375, 2412, 2413, 2478, 2477
2376, 2413, 2414, 2479, 2478
2377, 2414, 2415, 2480, 2479
2378, 2415, 2416, 2481, 2480
2379, 2416, 2417, 2482, 2481
2380, 2417, 2418, 2483, 2482
2381, 2418, 2419, 2484, 2483
2382, 2419, 2420, 2485, 2484
2383, 2420, 2421, 2486, 2485
2384, 2421, 2422, 2487, 2486
2385, 2422, 2423, 2488, 2487
2386, 2423, 2424, 2489, 2488
2387, 2424, 2425, 2490, 2489
2388, 2425, 2426, 2491, 2490
2389, 2426, 2427, 2492, 2491
2390, 2427, 2428, 2493, 2492
2391, 2428, 2429, 2494, 2493
2392, 2429, 2430, 2495, 2494
2393, 2430, 2431, 2496, 2495
2394, 2431, 2432, 2497, 2496
2395, 2432, 2433, 2498, 2497
2396, 2433, 2434, 2499, 2498
2397, 2434, 2435, 2500, 2499
2398, 2435, 2436, 2501, 2500
2399, 2436, 2437, 2502, 2501
2400, 2437, 2438, 2503, 2502
2401, 2438, 2439, 2504, 2503
2402, 2439, 2440, 2505, 2504
2403, 2440, 2441, 2506, 2505
2404, 2441, 2442, 2507, 2506
2405, 2442, 2443, 2508, 2507
2406, 2443, 2444, 2509, 2508
2407, 2444, 2445, 2510, 2509
2408, 2445, 2446, 2511, 2510
2409, 2446, 2447, 2512, 2511
2410, 2447, 2448, 2513, 2512
2411, 2448, 2449, 2514, 2513
2412, 2449, 2450, 2515, 2514
2413, 2450, 2451, 2516, 2515
2414, 2451, 2452, 2517, 2516
2415, 2452, 2453, 2518, 2517
2416, 2453, 2454, 2519, 2518
2417, 2454, 2455, 2520, 2519
2418, 2455, 2456, 2521, 2520
2419, 2456, 2457, 2522, 2521
2420, 2457, 2458, 2523, 2522
2421, 2458, 2459, 2524, 2523
2422, 2459, 2460, 2525, 2524
2423, 2460, 2461, 2526, 2525
2424, 2461, 2462, 2527, 2526
2425, 2462, 2463, 2528, 2527
2426, 2463, 2464, 2529, 2528
2427, 2464, 2465, 2530, 2529
2428, 2465, 2466, 2531, 2530
2429, 2466, 2467, 2532, 2531
2430, 2467, 2468, 2533, 2532
2431, 2468, 2469, 2534, 2533
2432, 2469, 2470, 2535, 2534
2433, 2471, 2472, 2537, 2536
2434, 2472, 2473, 2538, 2537
2435, 2473, 2474, 2539, 2538
2436, 2474, 2475, 2540, 2539
2437, 2475, 2476, 2541, 2540
2438, 2476, 2477, 2542, 2541
2439, 2477, 2478, 2543, 2542
2440, 2478, 2479, 2544, 2543
2441, 2479, 2480, 2545, 2544
2442, 2480, 2481, 2546, 2545
2443, 2481, 2482, 2547, 2546
2444, 2482, 2483, 2548, 2547
2445, 2483, 2484, 2549, 2548
2446, 2484, 2485, 2550, 2549
2447, 2485, 2486, 2551, 2550
2448, 2486, 2487, 2552, 2551
2449, 2487, 2488, 2553, 2552
2450, 2488, 2489, 2554, 2553
2451, 2489, 2490, 2555, 2554
2452, 2490, 2491, 2556, 2555
2453, 2491, 2492, 2557, 2556
2454, 2492, 2493, 2558, 2557
2455, 2493, 2494, 2559, 2558
2456, 2494, 2495, 2560, 2559
2457, 2495, 2496, 2561, 2560
2458, 2496, 2497, 2562, 2561
2459, 2497, 2498, 2563, 2562
2460, 2498, 2499, 2564, 2563
2461, 2499, 2500, 2565, 2564
2462, 2500, 2501, 2566, 2565
2463, 2501, 2502, 2567, 2566
2464, 2502, 2503, 2568, 2567
2465, 2503, 2504, 2569, 2568
2466, 2504, 2505, 2570, 2569
2467, 2505, 2506, 2571, 2570
2468, 2506, 2507, 2572, 2571
2469, 2507, 2508, 2573, 2572
2470, 2508, 2509, 2574, 2573
2471, 2509, 2510, 2575, 2574
2472, 2510, 2511, 2576, 2575
2473, 2511, 2512, 2577, 2576
2474, 2512, 2513, 2578, 2577
2475, 2513, 2514, 2579, 2578
2476, 2514, 2515, 2580, 2579
2477, 2515, 2516, 2581, 2580
2478, 2516, 2517, 2582, 2581
2479, 2517, 2518, 2583, 2582
2480, 2518, 2519, 2584, 2583
2481, 2519, 2520, 2585, 2584
2482, 2520, 2521, 2586, 2585
2483, 2521, 2522, 2587, 2586
2484, 2522, 2523, 2588, 2587
2485, 2523, 2524, 2589, 2588
2486, 2524, 2525, 2590, 2589
2487, 2525, 2526, 2591, 2590
2488, 2526, 2527, 2592, 2591
2489, 2527, 2528, 2593, 2592
2490, 2528, 2529, 2594, 2593
2491, 2529, 2530, 2595, 2594
2492, 2530, 2531, 2596, 2595
2493, 2531, 2532, 2597, 2596
2494, 2532, 2533, 2598, 2597
2495, 2533, 2534, 2599, 2598
2496, 2534, 2535, 2600, 2599
2497, 2536, 2537, 2602, 2601
2498, 2537, 2538, 2603, 2602
2499, 2538, 2539, 2604, 2603
2500, 2539, 2540, 2605, 2604
2501, 2540, 2541, 2606, 2605
2502, 2541, 2542, 2607, 2606
2503, 2542, 2543, 2608, 2607
2504, 2543, 2544, 2609, 2608
2505, 2544, 2545, 2610, 2609
2506, 2545, 2546, 2611, 2610
2507, 2546, 2547, 2612, 2611
2508, 2547, 2548, 2613, 2612
2509, 2548, 2549, 2614, 2613
2510, 2549, 2550, 2615, 2614
2511, 2550, 2551, 2616, 2615
2512, 2551, 2552, 2617, 2616
2513, 2552, 2553, 2618, 2617
2514, 2553, 2554, 2619, 2618
2515, 2554, 2555, 2620, 2619
2516, 2555, 2556, 2621, 2620
2517, 2556, 2557, 2622, 2621
2518, 2557, 2558, 2623, 2622
2519, 2558, 2559, 2624, 2623
2520, 2559, 2560, 2625, 2624
2521, 2560, 2561, 2626, 2625
2522, 2561, 2562, 2627, 2626
2523, 2562, 2563, 2628, 2627
2524, 2563, 2564, 2629, 2628
2525, 2564, 2565, 2630, 2629
2526, 2565, 2566, 2631, 2630
2527, 2566, 2567, 2632, 2631
2528, 2567, 2568, 2633, 2632
2529, 2568, 2569, 2634, 2633
2530, 2569, 2570, 2635, 2634
2531, 2570, 2571, 2636, 2635
2532, 2571, 2572, 2637, 2636
2533, 2572, 2573, 2638, 2637
2534, 2573, 2574, 2639, 2638
2535, 2574, 2575, 2640, 2639
2536, 2575, 2576, 2641, 2640
2537, 2576, 2577, 2642, 2641
2538, 2577, 2578, 2643, 2642
2539, 2578, 2579, 2644, 2643
2540, 2579, 2580, 2645, 2644
2541, 2580, 2581, 2646, 2645
2542, 2581, 2582, 2647, 2646
2543, 2582, 2583, 2648, 2647
2544, 2583, 2584, 2649, 2648
2545, 2584, 2585, 2650, 2649
2546, 2585, 2586, 2651, 2650
2547, 2586, 2587, 2652, 2651
2548, 2587, 2588, 2653, 2652
2549, 2588, 2589, 2654, 2653
2550, 2589, 2590, 2655, 2654
2551, 2590, 2591, 2656, 2655
2552, 2591, 2592, 2657, 2656
2553, 2592, 2593, 2658, 2657
2554, 2593, 2594, 2659, 2658
2555, 2594, 2595, 2660, 2659
2556, 2595, 2596, 2661, 2660
2557, 2596, 2597, 2662, 2661
2558, 2597, 2598, 2663, 2662
2559, 2598, 2599, 2664, 2663
2560, 2599, 2600, 2665, 2664
2561, 2601, 2602, 2667, 2666
2562, 2602, 2603, 2668, 2667
2563, 2603, 2604, 2669, 2668
2564, 2604, 2605, 2670, 2669
2565, 2605, 2606, 2671, 2670
2566, 2606, 2607, 2672, 2671
2567, 2607, 2608, 2673, 2672
2568, 2608, 2609, 2674, 2673
2569, 2609, 2610, 2675, 2674
2570, 2610, 2611, 2676, 2675
2571, 2611, 2612, 2677, 2676
2572, 2612, 2613, 2678, 2677
2573, 2613, 2614, 2679, 2678
2574, 2614, 2615, 2680, 2679
2575, 2615, 2616, 2681, 2680
2576, 2616, 2617, 2682, 2681
2577, 2617, 2618, 2683, 2682
2578, 2618, 2619, 2684, 2683
2579, 2619, 2620, 2685, 2684
2580, 2620, 2621, 2686, 2685
2581, 2621, 2622, 2687, 2686
2582, 2622, 2623, 2688, 2687
2583, 2623, 2624, 2689, 2688
2584, 2624, 2625, 2690, 2689
2585, 2625, 2626, 2691, 2690
2586, 2626, 2627, 2692, 2691
2587, 2627, 2628, 2693, 2692
2588, 2628, 2629, 2694, 2693
2589, 2629, 2630, 2695, 2694
2590, 2630, 2631, 2696, 2695
2591, 2631, 2632, 2697, 2696
2592, 2632, 2633, 2698, 2697
2593, 2633, 2634, 2699, 2698
2594, 2634, 2635, 2700, 2699
2595, 2635, 2636, 2701, 2700
2596, 2636, 2637, 2702, 2701
2597, 2637, 2638, 2703, 2702
2598, 2638, 2639, 2704, 2703
2599, 2639, 2640, 2705, 2704
2600, 2640, 2641, 2706, 2705
2601, 2641, 2642, 2707, 2706
2602, 2642, 2643, 2708, 2707
2603, 2643, 2644, 2709, 2708
2604, 2644, 2645, 2710, 2709
2605, 2645, 2646, 2711, 2710
2606, 2646, 2647, 2712, 2711
2607, 2647, 2648, 2713, 2712
2608, 2648, 2649, 2714, 2713
2609, 2649, 2650, 2715, 2714
2610, 2650, 2651, 2716, 2715
2611, 2651, 2652, 2717, 2716
2612, 2652, 2653, 2718, 2717
2613, 2653, 2654, 2719, 2718
2614, 2654, 2655, 2720, 2719
2615, 2655, 2656, 2721, 2720
2616, 2656, 2657, 2722, 2721
2617, 2657, 2658, 2723, 2722
2618, 2658, 2659, 2724, 2723
2619, 2659, 2660, 2725, 2724
2620, 2660, 2661, 2726, 2725
2621, 2661, 2662, 2727, 2726
2622, 2662, 2663, 2728, 2727
2623, 2663, 2664, 2729, 2728
2624, 2664, 2665, 2730, 2729
2625, 2666, 2667, 2732, 2731
2626, 2667, 2668, 2733, 2732
2627, 2668, 2669, 2734, 2733
2628, 2669, 2670, 2735, 2734
2629, 2670, 2671, 2736, 2735
2630, 2671, 2672, 2737, 2736
2631, 2672, 2673, 2738, 2737
2632, 2673, 2674, 2739, 2738
2633, 2674, 2675, 2740, 2739
2634, 2675, 2676, 2741, 2740
2635, 2676, 2677, 2742, 2741
2636, 2677, 2678, 2743, 2742
2637, 2678, 2679, 2744, 2743
2638, 2679, 2680, 2745, 2744
2639, 2680, 2681, 2746, 2745
2640, 2681, 2682, 2747, 2746
2641, 2682, 2683, 2748, 2747
2642, 2683, 2684, 2749, 2748
2643, 2684, 2685, 2750, 2749
2644, 2685, 2686, 2751, 2750
2645, 2686, 2687, 2752, 2751
2646, 2687, 2688, 2753, 2752
2647, 2688, 2689, 2754, 2753
2648, 2689, 2690, 2755, 2754
2649, 2690, 2691, 2756, 2755
2650, 2691, 2692, 2757, 2756
2651, 2692, 2693, 2758, 2757
2652, 2693, 2694, 2759, 2758
2653, 2694, 2695, 2760, 2759
2654, 2695, 2696, 2761, 2760
2655, 2696, 2697, 2762, 2761
2656, 2697, 2698, 2763, 2762
2657, 2698, 2699, 2764, 2763
2658, 2699, 2700, 2765, 2764
2659, 2700, 2701, 2766, 2765
2660, 2701, 2702, 2767, 2766
2661, 2702, 2703, 2768, 2767
2662, 2703, 2704, 2769, 2768
2663, 2704, 2705, 2770, 2769
2664, 2705, 2706, 2771, 2770
2665, 2706, 2707, 2772, 2771
2666, 2707, 2708, 2773, 2772
2667, 2708, 2709, 2774, 2773
2668, 2709, 2710, 2775, 2774
2669, 2710, 2711, 2776, 2775
2670, 2711, 2712, 2777, 2776
2671, 2712, 2713, 2778, 2777
2672, 2713, 2714, 2779, 2778
2673, 2714, 2715, 2780, 2779
2674, 2715, 2716, 2781, 2780
2675, 2716, 2717, 2782, 2781
2676, 2717, 2718, 2783, 2782
2677, 2718, 2719, 2784, 2783
2678, 2719, 2720, 2785, 2784
2679, 2720, 2721, 2786, 2785
2680, 2721, 2722, 2787, 2786
2681, 2722, 2723, 2788, 2787
2682, 2723, 2724, 2789, 2788
2683, 2724, 2725, 2790, 2789
2684, 2725, 2726, 2791, 2790
2685, 2726, 2727, 2792, 2791
2686, 2727, 2728, 2793, 2792
2687, 2728, 2729, 2794, 2793
2688, 2729, 2730, 2795, 2794
2689, 2731, 2732, 2797, 2796
2690, 2732, 2733, 2798, 2797
2691, 2733, 2734, 2799, 2798
2692, 2734, 2735, 2800, 2799
2693, 2735, 2736, 2801, 2800
2694, 2736, 2737, 2802, 2801
2695, 2737, 2738, 2803, 2802
2696, 2738, 2739, 2804, 2803
2697, 2739, 2740, 2805, 2804
2698, 2740, 2741, 2806, 2805
2699, 2741, 2742, 2807, 2806
2700, 2742, 2743, 2808, 2807
2701, 2743, 2744, 2809, 2808
2702, 2744, 2745, 2810, 2809
2703, 2745, 2746, 2811, 2810
2704, 2746, 2747, 2812, 2811
2705, 2747, 2748, 2813, 2812
2706, 2748, 2749, 2814, 2813
2707, 2749, 2750, 2815, 2814
2708, 2750, 2751, 2816, 2815
2709, 2751, 2752, 2817, 2816
2710, 2752, 2753, 2818, 2817
2711, 2753, 2754, 2819, 2818
2712, 2754, 2755, 2820, 2819
2713, 2755, 2756, 2821, 2820
2714, 2756, 2757, 2822, 2821
2715, 2757, 2758, 2823, 2822
2716, 2758, 2759, 2824, 2823
2717, 2759, 2760, 2825, 2824
2718, 2760, 2761, 2826, 2825
2719, 2761, 2762, 2827, 2826
2720, 2762, 2763, 2828, 2827
2721, 2763, 2764, 2829, 2828
2722, 2764, 2765, 2830, 2829
2723, 2765, 2766, 2831, 2830
2724, 2766, 2767, 2832, 2831
2725, 2767, 2768, 2833, 2832
2726, 2768, 2769, 2834, 2833
2727, 2769, 2770, 2835, 2834
2728, 2770, 2771, 2836, 2835
2729, 2771, 2772, 2837, 2836
2730, 2772, 2773, 2838, 2837
2731, 2773, 2774, 2839, 2838
2732, 2774, 2775, 2840, 2839
2733, 2775, 2776, 2841, 2840
2734, 2776, 2777, 2842, 2841
2735, 2777, 2778, 2843, 2842
2736, 2778, 2779, 2844, 2843
2737, 2779, 2780, 2845, 2844
2738, 2780, 2781, 2846, 2845
2739, 2781, 2782, 2847, 2846
2740, 2782, 2783, 2848, 2847
2741, 2783, 2784, 2849, 2848
2742, 2784, 2785, 2850, 2849
2743, 2785, 2786, 2851, 2850
2744, 2786, 2787, 2852, 2851
2745, 2787, 2788, 2853, 2852
2746, 2788, 2789, 2854, 2853
2747, 2789, 2790, 2855, 2854
2748, 2790, 2791, 2856, 2855
2749, 2791, 2792, 2857, 2856
2750, 2792, 2793, 2858, 2857
2751, 2793, 2794, 2859, 2858
2752, 2794, 2795, 2860, 2859
2753, 2796, 2797, 2862, 2861
2754, 2797, 2798, 2863, 2862
2755, 2798, 2799, 2864, 2863
2756, 2799, 2800, 2865, 2864
2757, 2800, 2801, 2866, 2865
2758, 2801, 2802, 2867, 2866
2759, 2802, 2803, 2868, 2867
2760, 2803, 2804, 2869, 2868
2761, 2804, 2805, 2870, 2869
2762, 2805, 2806, 2871, 2870
2763, 2806, 2807, 2872, 2871
2764, 2807, 2808, 2873, 2872
2765, 2808, 2809, 2874, 2873
2766, 2809, 2810, 2875, 2874
2767, 2810, 2811, 2876, 2875
2768, 2811, 2812, 2877, 2876
2769, 2812, 2813, 2878, 2877
2770, 2813, 2814, 2879, 2878
2771, 2814, 2815, 2880, 2879
2772, 2815, 2816, 2881, 2880
2773, 2816, 2817, 2882, 2881
2774, 2817, 2818, 2883, 2882
2775, 2818, 2819, 2884, 2883
2776, 2819, 2820, 2885, 2884
2777, 2820, 2821, 2886, 2885
2778, 2821, 2822, 2887, 2886
2779, 2822, 2823, 2888, 2887
2780, 2823, 2824, 2889, 2888
2781, 2824, 2825, 2890, 2889
2782, 2825, 2826, 2891, 2890
2783, 2826, 2827, 2892, 2891
2784, 2827, 2828, 2893, 2892
2785, 2828, 2829, 2894, 2893
2786, 2829, 2830, 2895, 2894
2787, 2830, 2831, 2896, 2895
2788, 2831, 2832, 2897, 2896
2789, 2832, 2833, 2898, 2897
2790, 2833, 2834, 2899, 2898
2791, 2834, 2835, 2900, 2899
2792, 2835, 2836, 2901, 2900
2793, 2836, 2837, 2902, 2901
2794, 2837, 2838, 2903, 2902
2795, 2838, 2839, 2904, 2903
2796, 2839, 2840, 2905, 2904
2797, 2840, 2841, 2906, 2905
2798, 2841, 2842, 2907, 2906
2799, 2842, 2843, 2908, 2907
2800, 2843, 2844, 2909, 2908
2801, 2844, 2845, 2910, 2909
2802, 2845, 2846, 2911, 2910
2803, 2846, 2847, 2912, 2911
2804, 2847, 2848, 2913, 2912
2805, 2848, 2849, 2914, 2913
2806, 2849, 2850, 2915, 2914
2807, 2850, 2851, 2916, 2915
2808, 2851, 2852, 2917, 2916
2809, 2852, 2853, 2918, 2917
2810, 2853, 2854, 2919, 2918
2811, 2854, 2855, 2920, 2919
2812, 2855, 2856, 2921, 2920
2813, 2856, 2857, 2922, 2921
2814, 2857, 2858, 2923, 2922
2815, 2858, 2859, 2924, 2923
2816, 2859, 2860, 2925, 2924
2817, 2861, 2862, 2927, 2926
2818, 2862, 2863, 2928, 2927
2819, 2863, 2864, 2929, 2928
2820, 2864, 2865, 2930, 2929
2821, 2865, 2866, 2931, 2930
2822, 2866, 2867, 2932, 2931
2823, 2867, 2868, 2933, 2932
2824, 2868, 2869, 2934, 2933
2825, 2869, 2870, 2935, 2934
2826, 2870, 2871, 2936, 2935
2827, 2871, 2872, 2937, 2936
2828, 2872, 2873, 2938, 2937
2829, 2873, 2874, 2939, 2938
2830, 2874, 2875, 2940, 2939
2831, 2875, 2876, 2941, 2940
2832, 2876, 2877, 2942, 2941
2833, 2877, 2878, 2943, 2942
2834, 2878, 2879, 2944, 2943
2835, 2879, 2880, 2945, 2944
2836, 2880, 2881, 2946, 2945
2837, 2881, 2882, 2947, 2946
2838, 2882, 2883, 2948, 2947
2839, 2883, 2884, 2949, 2948
2840, 2884, 2885, 2950, 2949
2841, 2885, 2886, 2951, 2950
2842, 2886, 2887, 2952, 2951
2843, 2887, 2888, 2953, 2952
2844, 2888, 2889, 2954, 2953
2845, 2889, 2890, 2955, 2954
2846, 2890, 2891, 2956, 2955
2847, 2891, 2892, 2957, 2956
2848, 2892, 2893, 2958, 2957
2849, 2893, 2894, 2959, 2958
2850, 2894, 2895, 2960, 2959
2851, 2895, 2896, 2961, 2960
2852, 2896, 2897, 2962, 2961
2853, 2897, 2898, 2963, 2962
2854, 2898, 2899, 2964, 2963
2855, 2899, 2900, 2965, 2964
2856, 2900, 2901, 2966, 2965
2857, 2901, 2902, 2967, 2966
2858, 2902, 2903, 2968, 2967
2859, 2903, 2904, 2969, 2968
2860, 2904, 2905, 2970, 2969
2861, 2905, 2906, 2971, 2970
2862, 2906, 2907, 2972, 2971
2863, 2907, 2908, 2973, 2972
2864, 2908, 2909, 2974, 2973
2865, 2909, 2910, 2975, 2974
2866, 2910, 2911, 2976, 2975
2867, 2911, 2912, 2977, 2976
2868, 2912, 2913, 2978, 2977
2869, 2913, 2914, 2979, 2978
2870, 2914, 2915, 2980, 2979
2871, 2915, 2916, 2981, 2980
2872, 2916, 2917, 2982, 2981
2873, 2917, 2918, 2983, 2982
2874, 2918, 2919, 2984, 2983
2875, 2919, 2920, 2985, 2984
2876, 2920, 2921, 2986, 2985
2877, 2921, 2922, 2987, 2986
2878, 2922, 2923, 2988, 2987
2879, 2923, 2924, 2989, 2988
2880, 2924, 2925, 2990, 2989
2881, 2926, 2927, 2992, 2991
2882, 2927, 2928, 2993, 2992
2883, 2928, 2929, 2994, 2993
2884, 2929, 2930, 2995, 2994
2885, 2930, 2931, 2996, 2995
2886, 2931, 2932, 2997, 2996
2887, 2932, 2933, 2998, 2997
2888, 2933, 2934, 2999, 2998
2889, 2934, 2935, 3000, 2999
2890, 2935, 2936, 3001, 3000
2891, 2936, 2937, 3002, 3001
2892, 2937, 2938, 3003, 3002
2893, 2938, 2939, 3004, 3003
2894, 2939, 2940, 3005, 3004
2895, 2940, 2941, 3006, 3005
2896, 2941, 2942, 3007, 3006
2897, 2942, 2943, 3008, 3007
2898, 2943, 2944, 3009, 3008
2899, 2944, 2945, 3010, 3009
2900, 2945, 2946, 3011, 3010
2901, 2946, 2947, 3012, 3011
2902, 2947, 2948, 3013, 3012
2903, 2948, 2949, 3014, 3013
2904, 2949, 2950, 3015, 3014
2905, 2950, 2951, 3016, 3015
2906, 2951, 2952, 3017, 3016
2907, 2952, 2953, 3018, 3017
2908, 2953, 2954, 3019, 3018
2909, 2954, 2955, 3020, 3019
2910, 2955, 2956, 3021, 3020
2911, 2956, 2957, 3022, 3021
2912, 2957, 2958, 3023, 3022
2913, 2958, 2959, 3024, 3023
2914, 2959, 2960, 3025, 3024
2915, 2960, 2961, 3026, 3025
2916, 2961, 2962, 3027, 3026
2917, 2962, 2963, 3028, 3027
2918, 2963, 2964, 3029, 3028
2919, 2964, 2965, 3030, 3029
2920, 2965, 2966, 3031, 3030
2921, 2966, 2967, 3032, 3031
2922, 2967, 2968, 3033, 3032
2923, 2968, 2969, 3034, 3033
2924, 2969, 2970, 3035, 3034
2925, 2970, 2971, 3036, 3035
2926, 2971, 2972, 3037, 3036
2927, 2972, 2973, 3038, 3037
2928, 2973, 2974, 3039, 3038
2929, 2974, 2975, 3040, 3039
2930, 2975, 2976, 3041, 3040
2931, 2976, 2977, 3042, 3041
2932, 2977, 2978, 3043, 3042
2933, 2978, 2979, 3044, 3043
2934, 2979, 2980, 3045, 3044
2935, 2980, 2981, 3046, 3045
2936, 2981, 2982, 3047, 3046
2937, 2982, 2983, 3048, 3047
2938, 2983, 2984, 3049, 3048
2939, 2984, 2985, 3050, 3049
2940, 2985, 2986, 3051, 3050
2941, 2986, 2987, 3052, 3051
2942, 2987, 2988, 3053, 3052
2943, 2988, 2989, 3054, 3053
2944, 2989, 2990, 3055, 3054
2945, 2991, 2992, 3057, 3056
2946, 2992, 2993, 3058, 3057
2947, 2993, 2994, 3059, 3058
2948, 2994, 2995, 3060, 3059
2949, 2995, 2996, 3061, 3060
2950, 2996, 2997, 3062, 3061
2951, 2997, 2998, 3063, 3062
2952, 2998, 2999, 3064, 3063
2953, 2999, 3000, 3065, 3064
2954, 3000, 3001, 3066, 3065
2955, 3001, 3002, 3067, 3066
2956, 3002, 3003, 3068, 3067
2957, 3003, 3004, 3069, 3068
2958, 3004, 3005, 3070, 3069
2959, 3005, 3006, 3071, 3070
2960, 3006, 3007, 3072, 3071
2961, 3007, 3008, 3073, 3072
2962, 3008, 3009, 3074, 3073
2963, 3009, 3010, 3075, 3074
2964, 3010, 3011, 3076, 3075
2965, 3011, 3012, 3077, 3076
2966, 3012, 3013, 3078, 3077
2967, 3013, 3014, 3079, 3078
2968, 3014, 3015, 3080, 3079
2969, 3015, 3016, 3081, 3080
2970, 3016, 3017, 3082, 3081
2971, 3017, 3018, 3083, 3082
2972, 3018, 3019, 3084, 3083
2973, 3019, 3020, 3085, 3084
2974, 3020, 3021, 3086, 3085
2975, 3021, 3022, 3087, 3086
2976, 3022, 3023, 3088, 3087
2977, 3023, 3024, 3089, 3088
2978, 3024, 3025, 3090, 3089
2979, 3025, 3026, 3091, 3090
2980, 3026, 3027, 3092, 3091
2981, 3027, 3028, 3093, 3092
2982, 3028, 3029, 3094, 3093
2983, 3029, 3030, 3095, 3094
2984, 3030, 3031, 3096, 3095
2985, 3031, 3032, 3097, 3096
2986, 3032, 3033, 3098, 3097
2987, 3033, 3034, 3099, 3098
2988, 3034, 3035, 3100, 3099
2989, 3035, 3036, 3101, 3100
2990, 3036, 3037, 3102, 3101
2991, 3037, 3038, 3103, 3102
2992, 3038, 3039, 3104, 3103
2993, 3039, 3040, 3105, 3104
2994, 3040, 3041, 3106, 3105
2995, 3041, 3042, 3107, 3106
2996, 3042, 3043, 3108, 3107
2997, 3043, 3044, 3109, 3108
2998, 3044, 3045, 3110, 3109
2999, 3045, 3046, 3111, 3110
3000, 3046, 3047, 3112, 3111
3001, 3047, 3048, 3113, 3112
3002, 3048, 3049, 3114, 3113
3003, 3049, 3050, 3115, 3114
3004, 3050, 3051, 3116, 3115
3005, 3051, 3052, 3117, 3116
3006, 3052, 3053, 3118, 3117
3007, 3053, 3054, 3119, 3118
3008, 3054, 3055, 3120, 3119
3009, 3056, 3057, 3122, 3121
3010, 3057, 3058, 3123, 3122
3011, 3058, 3059, 3124, 3123
3012, 3059, 3060, 3125, 3124
3013, 3060, 3061, 3126, 3125
3014, 3061, 3062, 3127, 3126
3015, 3062, 3063, 3128, 3127
3016, 3063, 3064, 3129, 3128
3017, 3064, 3065, 3130, 3129
3018, 3065, 3066, 3131, 3130
3019, 3066, 3067, 3132, 3131
3020, 3067, 3068, 3133, 3132
3021, 3068, 3069, 3134, 3133
3022, 3069, 3070, 3135, 3134
3023, 3070, 3071, 3136, 3135
3024, 3071, 3072, 3137, 3136
3025, 3072, 3073, 3138, 3137
3026, 3073, 3074, 3139, 3138
3027, 3074, 3075, 3140, 3139
3028, 3075, 3076, 3141, 3140
3029, 3076, 3077, 3142, 3141
3030, 3077, 3078, 3143, 3142
3031, 3078, 3079, 3144, 3143
3032, 3079, 3080, 3145, 3144
3033, 3080, 3081, 3146, 3145
3034, 3081, 3082, 3147, 3146
3035, 3082, 3083, 3148, 3147
3036, 3083, 3084, 3149, 3148
3037, 3084, 3085, 3150, 3149
3038, 3085, 3086, 3151, 3150
3039, 3086, 3087, 3152, 3151
3040, 3087, 3088, 3153, 3152
3041, 3088, 3089, 3154, 3153
3042, 3089, 3090, 3155, 3154
3043, 3090, 3091, 3156, 3155
3044, 3091, 3092, 3157, 3156
3045, 3092, 3093, 3158, 3157
3046, 3093, 3094, 3159, 3158
3047, 3094, 3095, 3160, 3159
3048, 3095, 3096, 3161, 3160
3049, 3096, 3097, 3162, 3161
3050, 3097, 3098, 3163, 3162
3051, 3098, 3099, 3164, 3163
3052, 3099, 3100, 3165, 3164
3053, 3100, 3101, 3166, 3165
3054, 3101, 3102, 3167, 3166
3055, 3102, 3103, 3168, 3167
3056, 3103, 3104, 3169, 3168
3057, 3104, 3105, 3170, 3169
3058, 3105, 3106, 3171, 3170
3059, 3106, 3107, 3172, 3171
3060, 3107, 3108, 3173, 3172
3061, 3108, 3109, 3174, 3173
3062, 3109, 3110, 3175, 3174
3063, 3110, 3111, 3176, 3175
3064, 3111, 3112, 3177, 3176
3065, 3112, 3113, 3178, 3177
3066, 3113, 3114, 3179, 3178
3067, 3114, 3115, 3180, 3179
3068, 3115, 3116, 3181, 3180
3069, 3116, 3117, 3182, 3181
3070, 3117, 3118, 3183, 3182
3071, 3118, 3119, 3184, 3183
3072, 3119, 3120, 3185, 3184
3073, 3121, 3122, 3187, 3186
3074, 3122, 3123, 3188, 3187
3075, 3123, 3124, 3189, 3188
3076, 3124, 3125, 3190, 3189
3077, 3125, 3126, 3191, 3190
3078, 3126, 3127, 3192, 3191
3079, 3127, 3128, 3193, 3192
3080, 3128, 3129, 3194, 3193
3081, 3129, 3130, 3195, 3194
3082, 3130, 3131, 3196, 3195
3083, 3131, 3132, 3197, 3196
3084, 3132, 3133, 3198, 3197
3085, 3133, 3134, 3199, 3198
3086, 3134, 3135, 3200, 3199
3087, 3135, 3136, 3201, 3200
3088, 3136, 3137, 3202, 3201
3089, 3137, 3138, 3203, 3202
3090, 3138, 3139, 3204, 3203
3091, 3139, 3140, 3205, 3204
3092, 3140, 3141, 3206, 3205
3093, 3141, 3142, 3207, 3206
3094, 3142, 3143, 3208, 3207
3095, 3143, 3144, 3209, 3208
3096, 3144, 3145, 3210, 3209
3097, 3145, 3146, 3211, 3210
3098, 3146, 3147, 3212, 3211
3099, 3147, 3148, 3213, 3212
3100, 3148, 3149, 3214, 3213
3101, 3149, 3150, 3215, 3214
3102, 3150, 3151, 3216, 3215
3103, 3151, 3152, 3217, 3216
3104, 3152, 3153, 3218, 3217
3105, 3153, 3154, 3219, 3218
3106, 3154, 3155, 3220, 3219
3107, 3155, 3156, 3221, 3220
3108, 3156, 3157, 3222, 3221
3109, 3157, 3158, 3223, 3222
3110, 3158, 3159, 3224, 3223
3111, 3159, 3160, 3225, 3224
3112, 3160, 3161, 3226, 3225
3113, 3161, 3162, 3227, 3226
3114, 3162, 3163, 3228, 3227
3115, 3163, 3164, 3229, 3228
3116, 3164, 3165, 3230, 3229
3117, 3165, 3166, 3231, 3230
3118, 3166, 3167, 3232, 3231
3119, 3167, 3168, 3233, 3232
3120, 3168, 3169, 3234, 3233
3121, 3169, 3170, 3235, 3234
3122, 3170, 3171, 3236, 3235
3123, 3171, 3172, 3237, 3236
3124, 3172, 3173, 3238, 3237
3125, 3173, 3174, 3239, 3238
3126, 3174, 3175, 3240, 3239
3127, 3175, 3176, 3241, 3240
3128, 3176, 3177, 3242, 3241
3129, 3177, 3178, 3243, 3242
3130, 3178, 3179, 3244, 3243
3131, 3179, 3180, 3245, 3244
3132, 3180, 3181, 3246, 3245
3133, 3181, 3182, 3247, 3246
3134, 3182, 3183, 3248, 3247
3135, 3183, 3184, 3249, 3248
3136, 3184, 3185, 3250, 3249
3137, 3186, 3187, 3252, 3251
3138, 3187, 3188, 3253, 3252
3139, 3188, 3189, 3254, 3253
3140, 3189, 3190, 3255, 3254
3141, 3190, 3191, 3256, 3255
3142, 3191, 3192, 3257, 3256
3143, 3192, 3193, 3258, 3257
3144, 3193, 3194, 3259, 3258
3145, 3194, 3195, 3260, 3259
3146, 3195, 3196, 3261, 3260
3147, 3196, 3197, 3262, 3261
3148, 3197, 3198, 3263, 3262
3149, 3198, 3199, 3264, 3263
3150, 3199, 3200, 3265, 3264
3151, 3200, 3201, 3266, 3265
3152, 3201, 3202, 3267, 3266
3153, 3202, 3203, 3268, 3267
3154, 3203, 3204, 3269, 3268
3155, 3204, 3205, 3270, 3269
3156, 3205, 3206, 3271, 3270
3157, 3206, 3207, 3272, 3271
3158, 3207, 3208, 3273, 3272
3159, 3208, 3209, 3274, 3273
3160, 3209, 3210, 3275, 3274
3161, 3210, 3211, 3276, 3275
3162, 3211, 3212, 3277, 3276
3163, 3212, 3213, 3278, 3277
3164, 3213, 3214, 3279, 3278
3165, 3214, 3215, 3280, 3279
3166, 3215, 3216, 3281, 3280
3167, 3216, 3217, 3282, 3281
3168, 3217, 3218, 3283, 3282
3169, 3218, 3219, 3284, 3283
3170, 3219, 3220, 3285, 3284
3171, 3220, 3221, 3286, 3285
3172, 3221, 3222, 3287, 3286
3173, 3222, 3223, 3288, 3287
3174, 3223, 3224, 3289, 3288
3175, 3224, 3225, 3290, 3289
3176, 3225, 3226, 3291, 3290
3177, 3226, 3227, 3292, 3291
3178, 3227, 3228, 3293, 3292
3179, 3228, 3229, 3294, 3293
3180, 3229, 3230, 3295, 3294
3181, 3230, 3231, 3296, 3295
3182, 3231, 3232, 3297, 3296
3183, 3232, 3233, 3298, 3297
3184, 3233, 3234, 3299, 3298
3185, 3234, 3235, 3300, 3299
3186, 3235, 3236, 3301, 3300
3187, 3236, 3237, 3302, 3301
3188, 3237, 3238, 3303, 3302
3189, 3238, 3239, 3304, 3303
3190, 3239, 3240, 3305, 3304
3191, 3240, 3241, 3306, 3305
3192, 3241, 3242, 3307, 3306
3193, 3242, 3243, 3308, 3307
3194, 3243, 3244, 3309, 3308
3195, 3244, 3245, 3310, 3309
3196, 3245, 3246, 3311, 3310
3197, 3246, 3247, 3312, 3311
3198, 3247, 3248, 3313, 3312
3199, 3248, 3249, 3314, 3313
3200, 3249, 3250, 3315, 3314
3201, 3251, 3252, 3317, 3316
3202, 3252, 3253, 3318, 3317
3203, 3253, 3254, 3319, 3318
3204, 3254, 3255, 3320, 3319
3205, 3255, 3256, 3321, 3320
3206, 3256, 3257, 3322, 3321
3207, 3257, 3258, 3323, 3322
3208, 3258, 3259, 3324, 3323
3209, 3259, 3260, 3325, 3324
3210, 3260, 3261, 3326, 3325
3211, 3261, 3262, 3327, 3326
3212, 3262, 3263, 3328, 3327
3213, 3263, 3264, 3329, 3328
3214, 3264, 3265, 3330, 3329
3215, 3265, 3266, 3331, 3330
3216, 3266, 3267, 3332, 3331
3217, 3267, 3268, 3333, 3332
3218, 3268, 3269, 3334, 3333
3219, 3269, 3270, 3335, 3334
3220, 3270, 3271, 3336, 3335
3221, 3271, 3272, 3337, 3336
3222, 3272, 3273, 3338, 3337
3223, 3273, 3274, 3339, 3338
3224, 3274, 3275, 3340, 3339
3225, 3275, 3276, 3341, 3340
3226, 3276, 3277, 3342, 3341
3227, 3277, 3278, 3343, 3342
3228, 3278, 3279, 3344, 3343
3229, 3279, 3280, 3345, 3344
3230, 3280, 3281, 3346, 3345
3231, 3281, 3282, 3347, 3346
3232, 3282, 3283, 3348, 3347
3233, 3283, 3284, 3349, 3348
3234, 3284, 3285, 3350, 3349
3235, 3285, 3286, 3351, 3350
3236, 3286, 3287, 3352, 3351
3237, 3287, 3288, 3353, 3352
3238, 3288, 3289, 3354, 3353
3239, 3289, 3290, 3355, 3354
3240, 3290, 3291, 3356, 3355
3241, 3291, 3292, 3357, 3356
3242, 3292, 3293, 3358, 3357
3243, 3293, 3294, 3359, 3358
3244, 3294, 3295, 3360, 3359
3245, 3295, 3296, 3361, 3360
3246, 3296, 3297, 3362, 3361
3247, 3297, 3298, 3363, 3362
3248, 3298, 3299, 3364, 3363
3249, 3299, 3300, 3365, 3364
3250, 3300, 3301, 3366, 3365
3251, 3301, 3302, 3367, 3366
3252, 3302, 3303, 3368, 3367
3253, 3303, 3304, 3369, 3368
3254, 3304, 3305, 3370, 3369
3255, 3305, 3306, 3371, 3370
3256, 3306, 3307, 3372, 3371
3257, 3307, 3308, 3373, 3372
3258, 3308, 3309, 3374, 3373
3259, 3309, 3310, 3375, 3374
3260, 3310, 3311, 3376, 3375
3261, 3311, 3312, 3377, 3376
3262, 3312, 3313, 3378, 3377
3263, 3313, 3314, 3379, 3378
3264, 3314, 3315, 3380, 3379
3265, 3316, 3317, 3382, 3381
3266, 3317, 3318, 3383, 3382
3267, 3318, 3319, 3384, 3383
3268, 3319, 3320, 3385, 3384
3269, 3320, 3321, 3386, 3385
3270, 3321, 3322, 3387, 3386
3271, 3322, 3323, 3388, 3387
3272, 3323, 3324, 3389, 3388
3273, 3324, 3325, 3390, 3389
3274, 3325, 3326, 3391, 3390
3275, 3326, 3327, 3392, 3391
3276, 3327, 3328, 3393, 3392
3277, 3328, 3329, 3394, 3393
3278, 3329, 3330, 3395, 3394
3279, 3330, 3331, 3396, 3395
3280, 3331, 3332, 3397, 3396
3281, 3332, 3333, 3398, 3397
3282, 3333, 3334, 3399, 3398
3283, 3334, 3335, 3400, 3399
3284, 3335, 3336, 3401, 3400
3285, 3336, 3337, 3402, 3401
3286, 3337, 3338, 3403, 3402
3287, 3338, 3339, 3404, 3403
3288, 3339, 3340, 3405, 3404
3289, 3340, 3341, 3406, 3405
3290, 3341, 3342, 3407, 3406
3291, 3342, 3343, 3408, 3407
3292, 3343, 3344, 3409, 3408
3293, 3344, 3345, 3410, 3409
3294, 3345, 3346, 3411, 3410
3295, 3346, 3347, 3412, 3411
3296, 3347, 3348, 3413, 3412
3297, 3348, 3349, 3414, 3413
3298, 3349, 3350, 3415, 3414
3299, 3350, 3351, 3416, 3415
3300, 3351, 3352, 3417, 3416
3301, 3352, 3353, 3418, 3417
3302, 3353, 3354, 3419, 3418
3303, 3354, 3355, 3420, 3419
3304, 3355, 3356, 3421, 3420
3305, 3356, 3357, 3422, 3421
3306, 3357, 3358, 3423, 3422
3307, 3358, 3359, 3424, 3423
3308, 3359, 3360, 3425, 3424
3309, 3360, 3361, 3426, 3425
3310, 3361, 3362, 3427, 3426
3311, 3362, 3363, 3428, 3427
3312, 3363, 3364, 3429, 3428
3313, 3364, 3365, 3430, 3429
3314, 3365, 3366, 3431, 3430
3315, 3366, 3367, 3432, 3431
3316, 3367, 3368, 3433, 3432
3317, 3368, 3369, 3434, 3433
3318, 3369, 3370, 3435, 3434
3319, 3370, 3371, 3436, 3435
3320, 3371, 3372, 3437, 3436
3321, 3372, 3373, 3438, 3437
3322, 3373, 3374, 3439, 3438
3323, 3374, 3375, 3440, 3439
3324, 3375, 3376, 3441, 3440
3325, 3376, 3377, 3442, 3441
3326, 3377, 3378, 3443, 3442
3327, 3378, 3379, 3444, 3443
3328, 3379, 3380, 3445, 3444
3329, 3381, 3382, 3447, 3446
3330, 3382, 3383, 3448, 3447
3331, 3383, 3384, 3449, 3448
3332, 3384, 3385, 3450, 3449
3333, 3385, 3386, 3451, 3450
3334, 3386, 3387, 3452, 3451
3335, 3387, 3388, 3453, 3452
3336, 3388, 3389, 3454, 3453
3337, 3389, 3390, 3455, 3454
3338, 3390, 3391, 3456, 3455
3339, 3391, 3392, 3457, 3456
3340, 3392, 3393, 3458, 3457
3341, 3393, 3394, 3459, 3458
3342, 3394, 3395, 3460, 3459
3343, 3395, 3396, 3461, 3460
3344, 3396, 3397, 3462, 3461
3345, 3397, 3398, 3463, 3462
3346, 3398, 3399, 3464, 3463
3347, 3399, 3400, 3465, 3464
3348, 3400, 3401, 3466, 3465
3349, 3401, 3402, 3467, 3466
3350, 3402, 3403, 3468, 3467
3351, 3403, 3404, 3469, 3468
3352, 3404, 3405, 3470, 3469
3353, 3405, 3406, 3471, 3470
3354, 3406, 3407, 3472, 3471
3355, 3407, 3408, 3473, 3472
3356, 3408, 3409, 3474, 3473
3357, 3409, 3410, 3475, 3474
3358, 3410, 3411, 3476, 3475
3359, 3411, 3412, 3477, 3476
3360, 3412, 3413, 3478, 3477
3361, 3413, 3414, 3479, 3478
3362, 3414, 3415, 3480, 3479
3363, 3415, 3416, 3481, 3480
3364, 3416, 3417, 3482, 3481
3365, 3417, 3418, 3483, 3482
3366, 3418, 3419, 3484, 3483
3367, 3419, 3420, 3485, 3484
3368, 3420, 3421, 3486, 3485
3369, 3421, 3422, 3487, 3486
3370, 3422, 3423, 3488, 3487
3371, 3423, 3424, 3489, 3488
3372, 3424, 3425, 3490, 3489
3373, 3425, 3426, 3491, 3490
3374, 3426, 3427, 3492, 3491
3375, 3427, 3428, 3493, 3492
3376, 3428, 3429, 3494, 3493
3377, 3429, 3430, 3495, 3494
3378, 3430, 3431, 3496, 3495
3379, 3431, 3432, 3497, 3496
3380, 3432, 3433, 3498, 3497
3381, 3433, 3434, 3499, 3498
3382, 3434, 3435, 3500, 3499
3383, 3435, 3436, 3501, 3500
3384, 3436, 3437, 3502, 3501
3385, 3437, 3438, 3503, 3502
3386, 3438, 3439, 3504, 3503
3387, 3439, 3440, 3505, 3504
3388, 3440, 3441, 3506, 3505
3389, 3441, 3442, 3507, 3506
3390, 3442, 3443, 3508, 3507
3391, 3443, 3444, 3509, 3508
3392, 3444, 3445, 3510, 3509
3393, 3446, 3447, 3512, 3511
3394, 3447, 3448, 3513, 3512
3395, 3448, 3449, 3514, 3513
3396, 3449, 3450, 3515, 3514
3397, 3450, 3451, 3516, 3515
3398, 3451, 3452, 3517, 3516
3399, 3452, 3453, 3518, 3517
3400, 3453, 3454, 3519, 3518
3401, 3454, 3455, 3520, 3519
3402, 3455, 3456, 3521, 3520
3403, 3456, 3457, 3522, 3521
3404, 3457, 3458, 3523, 3522
3405, 3458, 3459, 3524, 3523
3406, 3459, 3460, 3525, 3524
3407, 3460, 3461, 3526, 3525
3408, 3461, 3462, 3527, 3526
3409, 3462, 3463, 3528, 3527
3410, 3463, 3464, 3529, 3528
3411, 3464, 3465, 3530, 3529
3412, 3465, 3466, 3531, 3530
3413, 3466, 3467, 3532, 3531
3414, 3467, 3468, 3533, 3532
3415, 3468, 3469, 3534, 3533
3416, 3469, 3470, 3535, 3534
3417, 3470, 3471, 3536, 3535
3418, 3471, 3472, 3537, 3536
3419, 3472, 3473, 3538, 3537
3420, 3473, 3474, 3539, 3538
3421, 3474, 3475, 3540, 3539
3422, 3475, 3476, 3541, 3540
3423, 3476, 3477, 3542, 3541
3424, 3477, 3478, 3543, 3542
3425, 3478, 3479, 3544, 3543
3426, 3479, 3480, 3545, 3544
3427, 3480, 3481, 3546, 3545
3428, 3481, 3482, 3547, 3546
3429, 3482, 3483, 3548, 3547
3430, 3483, 3484, 3549, 3548
3431, 3484, 3485, 3550, 3549
3432, 3485, 3486, 3551, 3550
3433, 3486, 3487, 3552, 3551
3434, 3487, 3488, 3553, 3552
3435, 3488, 3489, 3554, 3553
3436, 3489, 3490, 3555, 3554
3437, 3490, 3491, 3556, 3555
3438, 3491, 3492, 3557, 3556
3439, 3492, 3493, 3558, 3557
3440, 3493, 3494, 3559, 3558
3441, 3494, 3495, 3560, 3559
3442, 3495, 3496, 3561, 3560
3443, 3496, 3497, 3562, 3561
3444, 3497, 3498, 3563, 3562
3445, 3498, 3499, 3564, 3563
3446, 3499, 3500, 3565, 3564
3447, 3500, 3501, 3566, 3565
3448, 3501, 3502, 3567, 3566
3449, 3502, 3503, 3568, 3567
3450, 3503, 3504, 3569, 3568
3451, 3504, 3505, 3570, 3569
3452, 3505, 3506, 3571, 3570
3453, 3506, 3507, 3572, 3571
3454, 3507, 3508, 3573, 3572
3455, 3508, 3509, 3574, 3573
3456, 3509, 3510, 3575, 3574
3457, 3511, 3512, 3577, 3576
3458, 3512, 3513, 3578, 3577
3459, 3513, 3514, 3579, 3578
3460, 3514, 3515, 3580, 3579
3461, 3515, 3516, 3581, 3580
3462, 3516, 3517, 3582, 3581
3463, 3517, 3518, 3583, 3582
3464, 3518, 3519, 3584, 3583
3465, 3519, 3520, 3585, 3584
3466, 3520, 3521, 3586, 3585
3467, 3521, 3522, 3587, 3586
3468, 3522, 3523, 3588, 3587
3469, 3523, 3524, 3589, 3588
3470, 3524, 3525, 3590, 3589
3471, 3525, 3526, 3591, 3590
3472, 3526, 3527, 3592, 3591
3473, 3527, 3528, 3593, 3592
3474, 3528, 3529, 3594, 3593
3475, 3529, 3530, 3595, 3594
3476, 3530, 3531, 3596, 3595
3477, 3531, 3532, 3597, 3596
3478, 3532, 3533, 3598, 3597
3479, 3533, 3534, 3599, 3598
3480, 3534, 3535, 3600, 3599
3481, 3535, 3536, 3601, 3600
3482, 3536, 3537, 3602, 3601
3483, 3537, 3538, 3603, 3602
3484, 3538, 3539, 3604, 3603
3485, 3539, 3540, 3605, 3604
3486, 3540, 3541, 3606, 3605
3487, 3541, 3542, 3607, 3606
3488, 3542, 3543, 3608, 3607
3489, 3543, 3544, 3609, 3608
3490, 3544, 3545, 3610, 3609
3491, 3545, 3546, 3611, 3610
3492, 3546, 3547, 3612, 3611
3493, 3547, 3548, 3613, 3612
3494, 3548, 3549, 3614, 3613
3495, 3549, 3550, 3615, 3614
3496, 3550, 3551, 3616, 3615
3497, 3551, 3552, 3617, 3616
3498, 3552, 3553, 3618, 3617
3499, 3553, 3554, 3619, 3618
3500, 3554, 3555, 3620, 3619
3501, 3555, 3556, 3621, 3620
3502, 3556, 3557, 3622, 3621
3503, 3557, 3558, 3623, 3622
3504, 3558, 3559, 3624, 3623
3505, 3559, 3560, 3625, 3624
3506, 3560, 3561, 3626, 3625
3507, 3561, 3562, 3627, 3626
3508, 3562, 3563, 3628, 3627
3509, 3563, 3564, 3629, 3628
3510, 3564, 3565, 3630, 3629
3511, 3565, 3566, 3631, 3630
3512, 3566, 3567, 3632, 3631
3513, 3567, 3568, 3633, 3632
3514, 3568, 3569, 3634, 3633
3515, 3569, 3570, 3635, 3634
3516, 3570, 3571, 3636, 3635
3517, 3571, 3572, 3637, 3636
3518, 3572, 3573, 3638, 3637
3519, 3573, 3574, 3639, 3638
3520, 3574, 3575, 3640, 3639
3521, 3576, 3577, 3642, 3641
3522, 3577, 3578, 3643, 3642
3523, 3578, 3579, 3644, 3643
3524, 3579, 3580, 3645, 3644
3525, 3580, 3581, 3646, 3645
3526, 3581, 3582, 3647, 3646
3527, 3582, 3583, 3648, 3647
3528, 3583, 3584, 3649, 3648
3529, 3584, 3585, 3650, 3649
3530, 3585, 3586, 3651, 3650
3531, 3586, 3587, 3652, 3651
3532, 3587, 3588, 3653, 3652
3533, 3588, 3589, 3654, 3653
3534, 3589, 3590, 3655, 3654
3535, 3590, 3591, 3656, 3655
3536, 3591, 3592, 3657, 3656
3537, 3592, 3593, 3658, 3657
3538, 3593, 3594, 3659, 3658
3539, 3594, 3595, 3660, 3659
3540, 3595, 3596, 3661, 3660
3541, 3596, 3597, 3662, 3661
3542, 3597, 3598, 3663, 3662
3543, 3598, 3599, 3664, 3663
3544, 3599, 3600, 3665, 3664
3545, 3600, 3601, 3666, 3665
3546, 3601, 3602, 3667, 3666
3547, 3602, 3603, 3668, 3667
3548, 3603, 3604, 3669, 3668
3549, 3604, 3605, 3670, 3669
3550, 3605, 3606, 3671, 3670
3551, 3606, 3607, 3672, 3671
3552, 3607, 3608, 3673, 3672
3553, 3608, 3609, 3674, 3673
3554, 3609, 3610, 3675, 3674
3555, 3610, 3611, 3676, 3675
3556, 3611, 3612, 3677, 3676
3557, 3612, 3613, 3678, 3677
3558, 3613, 3614, 3679, 3678
3559, 3614, 3615, 3680, 3679
3560, 3615, 3616, 3681, 3680
3561, 3616, 3617, 3682, 3681
3562, 3617, 3618, 3683, 3682
3563, 3618, 3619, 3684, 3683
3564, 3619, 3620, 3685, 3684
3565, 3620, 3621, 3686, 3685
3566, 3621, 3622, 3687, 3686
3567, 3622, 3623, 3688, 3687
3568, 3623, 3624, 3689, 3688
3569, 3624, 3625, 3690, 3689
3570, 3625, 3626, 3691, 3690
3571, 3626, 3627, 3692, 3691
3572, 3627, 3628, 3693, 3692
3573, 3628, 3629, 3694, 3693
3574, 3629, 3630, 3695, 3694
3575, 3630, 3631, 3696, 3695
3576, 3631, 3632, 3697, 3696
3577, 3632, 3633, 3698, 3697
3578, 3633, 3634, 3699, 3698
3579, 3634, 3635, 3700, 3699
3580, 3635, 3636, 3701, 3700
3581, 3636, 3637, 3702, 3701
3582, 3637, 3638, 3703, 3702
3583, 3638, 3639, 3704, 3703
3584, 3639, 3640, 3705, 3704
3585, 3641, 3642, 3707, 3706
3586, 3642, 3643, 3708, 3707
3587, 3643, 3644, 3709, 3708
3588, 3644, 3645, 3710, 3709
3589, 3645, 3646, 3711, 3710
3590, 3646, 3647, 3712, 3711
3591, 3647, 3648, 3713, 3712
3592, 3648, 3649, 3714, 3713
3593, 3649, 3650, 3715, 3714
3594, 3650, 3651, 3716, 3715
3595, 3651, 3652, 3717, 3716
3596, 3652, 3653, 3718, 3717
3597, 3653, 3654, 3719, 3718
3598, 3654, 3655, 3720, 3719
3599, 3655, 3656, 3721, 3720
3600, 3656, 3657, 3722, 3721
3601, 3657, 3658, 3723, 3722
3602, 3658, 3659, 3724, 3723
3603, 3659, 3660, 3725, 3724
3604, 3660, 3661, 3726, 3725
3605, 3661, 3662, 3727, 3726
3606, 3662, 3663, 3728, 3727
3607, 3663, 3664, 3729, 3728
3608, 3664, 3665, 3730, 3729
3609, 3665, 3666, 3731, 3730
3610, 3666, 3667, 3732, 3731
3611, 3667, 3668, 3733, 3732
3612, 3668, 3669, 3734, 3733
3613, 3669, 3670, 3735, 3734
3614, 3670, 3671, 3736, 3735
3615, 3671, 3672, 3737, 3736
3616, 3672, 3673, 3738, 3737
3617, 3673, 3674, 3739, 3738
3618, 3674, 3675, 3740, 3739
3619, 3675, 3676, 3741, 3740
3620, 3676, 3677, 3742, 3741
3621, 3677, 3678, 3743, 3742
3622, 3678, 3679, 3744, 3743
3623, 3679, 3680, 3745, 3744
3624, 3680, 3681, 3746, 3745
3625, 3681, 3682, 3747, 3746
3626, 3682, 3683, 3748, 3747
3627, 3683, 3684, 3749, 3748
3628, 3684, 3685, 3750, 3749
3629, 3685, 3686, 3751, 3750
3630, 3686, 3687, 3752, 3751
3631, 3687, 3688, 3753, 3752
3632, 3688, 3689, 3754, 3753
3633, 3689, 3690, 3755, 3754
3634, 3690, 3691, 3756, 3755
3635, 3691, 3692, 3757, 3756
3636, 3692, 3693, 3758, 3757
3637, 3693, 3694, 3759, 3758
3638, 3694, 3695, 3760, 3759
3639, 3695, 3696, 3761, 3760
3640, 3696, 3697, 3762, 3761
3641, 3697, 3698, 3763, 3762
3642, 3698, 3699, 3764, 3763
3643, 3699, 3700, 3765, 3764
3644, 3700, 3701, 3766, 3765
3645, 3701, 3702, 3767, 3766
3646, 3702, 3703, 3768, 3767
3647, 3703, 3704, 3769, 3768
3648, 3704, 3705, 3770, 3769
3649, 3706, 3707, 3772, 3771
3650, 3707, 3708, 3773, 3772
3651, 3708, 3709, 3774, 3773
3652, 3709, 3710, 3775, 3774
3653, 3710, 3711, 3776, 3775
3654, 3711, 3712, 3777, 3776
3655, 3712, 3713, 3778, 3777
3656, 3713, 3714, 3779, 3778
3657, 3714, 3715, 3780, 3779
3658, 3715, 3716, 3781, 3780
3659, 3716, 3717, 3782, 3781
3660, 3717, 3718, 3783, 3782
3661, 3718, 3719, 3784, 3783
3662, 3719, 3720, 3785, 3784
3663, 3720, 3721, 3786, 3785
3664, 3721, 3722, 3787, 3786
3665, 3722, 3723, 3788, 3787
3666, 3723, 3724, 3789, 3788
3667, 3724, 3725, 3790, 3789
3668, 3725, 3726, 3791, 3790
3669, 3726, 3727, 3792, 3791
3670, 3727, 3728, 3793, 3792
3671, 3728, 3729, 3794, 3793
3672, 3729, 3730, 3795, 3794
3673, 3730, 3731, 3796, 3795
3674, 3731, 3732, 3797, 3796
3675, 3732, 3733, 3798, 3797
3676, 3733, 3734, 3799, 3798
3677, 3734, 3735, 3800, 3799
3678, 3735, 3736, 3801, 3800
3679, 3736, 3737, 3802, 3801
3680, 3737, 3738, 3803, 3802
3681, 3738, 3739, 3804, 3803
3682, 3739, 3740, 3805, 3804
3683, 3740, 3741, 3806, 3805
3684, 3741, 3742, 3807, 3806
3685, 3742, 3743, 3808, 3807
3686, 3743, 3744, 3809, 3808
3687, 3744, 3745, 3810, 3809
3688, 3745, 3746, 3811, 3810
3689, 3746, 3747, 3812, 3811
3690, 3747, 3748, 3813, 3812
3691, 3748, 3749, 3814, 3813
3692, 3749, 3750, 3815, 3814
3693, 3750, 3751, 3816, 3815
3694, 3751, 3752, 3817, 3816
3695, 3752, 3753, 3818, 3817
3696, 3753, 3754, 3819, 3818
3697, 3754, 3755, 3820, 3819
3698, 3755, 3756, 3821, 3820
3699, 3756, 3757, 3822, 3821
3700, 3757, 3758, 3823, 3822
3701, 3758, 3759, 3824, 3823
3702, 3759, 3760, 3825, 3824
3703, 3760, 3761, 3826, 3825
3704, 3761, 3762, 3827, 3826
3705, 3762, 3763, 3828, 3827
3706, 3763, 3764, 3829, 3828
3707, 3764, 3765, 3830, 3829
3708, 3765, 3766, 3831, 3830
3709, 3766, 3767, 3832, 3831
3710, 3767, 3768, 3833, 3832
3711, 3768, 3769, 3834, 3833
3712, 3769, 3770, 3835, 3834
3713, 3771, 3772, 3837, 3836
3714, 3772, 3773, 3838, 3837
3715, 3773, 3774, 3839, 3838
3716, 3774, 3775, 3840, 3839
3717, 3775, 3776, 3841, 3840
3718, 3776, 3777, 3842, 3841
3719, 3777, 3778, 3843, 3842
3720, 3778, 3779, 3844, 3843
3721, 3779, 3780, 3845, 3844
3722, 3780, 3781, 3846, 3845
3723, 3781, 3782, 3847, 3846
3724, 3782, 3783, 3848, 3847
3725, 3783, 3784, 3849, 3848
3726, 3784, 3785, 3850, 3849
3727, 3785, 3786, 3851, 3850
3728, 3786, 3787, 3852, 3851
3729, 3787, 3788, 3853, 3852
3730, 3788, 3789, 3854, 3853
3731, 3789, 3790, 3855, 3854
3732, 3790, 3791, 3856, 3855
3733, 3791, 3792, 3857, 3856
3734, 3792, 3793, 3858, 3857
3735, 3793, 3794, 3859, 3858
3736, 3794, 3795, 3860, 3859
3737, 3795, 3796, 3861, 3860
3738, 3796, 3797, 3862, 3861
3739, 3797, 3798, 3863, 3862
3740, 3798, 3799, 3864, 3863
3741, 3799, 3800, 3865, 3864
3742, 3800, 3801, 3866, 3865
3743, 3801, 3802, 3867, 3866
3744, 3802, 3803, 3868, 3867
3745, 3803, 3804, 3869, 3868
3746, 3804, 3805, 3870, 3869
3747, 3805, 3806, 3871, 3870
3748, 3806, 3807, 3872, 3871
3749, 3807, 3808, 3873, 3872
3750, 3808, 3809, 3874, 3873
3751, 3809, 3810, 3875, 3874
3752, 3810, 3811, 3876, 3875
3753, 3811, 3812, 3877, 3876
3754, 3812, 3813, 3878, 3877
3755, 3813, 3814, 3879, 3878
3756, 3814, 3815, 3880, 3879
3757, 3815, 3816, 3881, 3880
3758, 3816, 3817, 3882, 3881
3759, 3817, 3818, 3883, 3882
3760, 3818, 3819, 3884, 3883
3761, 3819, 3820, 3885, 3884
3762, 3820, 3821, 3886, 3885
3763, 3821, 3822, 3887, 3886
3764, 3822, 3823, 3888, 3887
3765, 3823, 3824, 3889, 3888
3766, 3824, 3825, 3890, 3889
3767, 3825, 3826, 3891, 3890
3768, 3826, 3827, 3892, 3891
3769, 3827, 3828, 3893, 3892
3770, 3828, 3829, 3894, 3893
3771, 3829, 3830, 3895, 3894
3772, 3830, 3831, 3896, 3895
3773, 3831, 3832, 3897, 3896
3774, 3832, 3833, 3898, 3897
3775, 3833, 3834, 3899, 3898
3776, 3834, 3835, 3900, 3899
3777, 3836, 3837, 3902, 3901
3778, 3837, 3838, 3903, 3902
3779, 3838, 3839, 3904, 3903
3780, 3839, 3840, 3905, 3904
3781, 3840, 3841, 3906, 3905
3782, 3841, 3842, 3907, 3906
3783, 3842, 3843, 3908, 3907
3784, 3843, 3844, 3909, 3908
3785, 3844, 3845, 3910, 3909
3786, 3845, 3846, 3911, 3910
3787, 3846, 3847, 3912, 3911
3788, 3847, 3848, 3913, 3912
3789, 3848, 3849, 3914, 3913
3790, 3849, 3850, 3915, 3914
3791, 3850, 3851, 3916, 3915
3792, 3851, 3852, 3917, 3916
3793, 3852, 3853, 3918, 3917
3794, 3853, 3854, 3919, 3918
3795, 3854, 3855, 3920, 3919
3796, 3855, 3856, 3921, 3920
3797, 3856, 3857, 3922, 3921
3798, 3857, 3858, 3923, 3922
3799, 3858, 3859, 3924, 3923
3800, 3859, 3860, 3925, 3924
3801, 3860, 3861, 3926, 3925
3802, 3861, 3862, 3927, 3926
3803, 3862, 3863, 3928, 3927
3804, 3863, 3864, 3929, 3928
3805, 3864, 3865, 3930, 3929
3806, 3865, 3866, 3931, 3930
3807, 3866, 3867, 3932, 3931
3808, 3867, 3868, 3933, 3932
3809, 3868, 3869, 3934, 3933
3810, 3869, 3870, 3935, 3934
3811, 3870, 3871, 3936, 3935
3812, 3871, 3872, 3937, 3936
3813, 3872, 3873, 3938, 3937
3814, 3873, 3874, 3939, 3938
3815, 3874, 3875, 3940, 3939
3816, 3875, 3876, 3941, 3940
3817, 3876, 3877, 3942, 3941
3818, 3877, 3878, 3943, 3942
3819, 3878, 3879, 3944, 3943
3820, 3879, 3880, 3945, 3944
3821, 3880, 3881, 3946, 3945
3822, 3881, 3882, 3947, 3946
3823, 3882, 3883, 3948, 3947
3824, 3883, 3884, 3949, 3948
3825, 3884, 3885, 3950, 3949
3826, 3885, 3886, 3951, 3950
3827, 3886, 3887, 3952, 3951
3828, 3887, 3888, 3953, 3952
3829, 3888, 3889, 3954, 3953
3830, 3889, 3890, 3955, 3954
3831, 3890, 3891, 3956, 3955
3832, 3891, 3892, 3957, 3956
3833, 3892, 3893, 3958, 3957
3834, 3893, 3894, 3959, 3958
3835, 3894, 3895, 3960, 3959
3836, 3895, 3896, 3961, 3960
3837, 3896, 3897, 3962, 3961
3838, 3897, 3898, 3963, 3962
3839, 3898, 3899, 3964, 3963
3840, 3899, 3900, 3965, 3964
3841, 3901, 3902, 3967, 3966
3842, 3902, 3903, 3968, 3967
3843, 3903, 3904, 3969, 3968
3844, 3904, 3905, 3970, 3969
3845, 3905, 3906, 3971, 3970
3846, 3906, 3907, 3972, 3971
3847, 3907, 3908, 3973, 3972
3848, 3908, 3909, 3974, 3973
3849, 3909, 3910, 3975, 3974
3850, 3910, 3911, 3976, 3975
3851, 3911, 3912, 3977, 3976
3852, 3912, 3913, 3978, 3977
3853, 3913, 3914, 3979, 3978
3854, 3914, 3915, 3980, 3979
3855, 3915, 3916, 3981, 3980
3856, 3916, 3917, 3982, 3981
3857, 3917, 3918, 3983, 3982
3858, 3918, 3919, 3984, 3983
3859, 3919, 3920, 3985, 3984
3860, 3920, 3921, 3986, 3985
3861, 3921, 3922, 3987, 3986
3862, 3922, 3923, 3988, 3987
3863, 3923, 3924, 3989, 3988
3864, 3924, 3925, 3990, 3989
3865, 3925, 3926, 3991, 3990
3866, 3926, 3927, 3992, 3991
3867, 3927, 3928, 3993, 3992
3868, 3928, 3929, 3994, 3993
3869, 3929, 3930, 3995, 3994
3870, 3930, 3931, 3996, 3995
3871, 3931, 3932, 3997, 3996
3872, 3932, 3933, 3998, 3997
3873, 3933, 3934, 3999, 3998
3874, 3934, 3935, 4000, 3999
3875, 3935, 3936, 4001, 4000
3876, 3936, 3937, 4002, 4001
3877, 3937, 3938, 4003, 4002
3878, 3938, 3939, 4004, 4003
3879, 3939, 3940, 4005, 4004
3880, 3940, 3941, 4006, 4005
3881, 3941, 3942, 4007, 4006
3882, 3942, 3943, 4008, 4007
3883, 3943, 3944, 4009, 4008
3884, 3944, 3945, 4010, 4009
3885, 3945, 3946, 4011, 4010
3886, 3946, 3947, 4012, 4011
3887, 3947, 3948, 4013, 4012
3888, 3948, 3949, 4014, 4013
3889, 3949, 3950, 4015, 4014
3890, 3950, 3951, 4016, 4015
3891, 3951, 3952, 4017, 4016
3892, 3952, 3953, 4018, 4017
3893, 3953, 3954, 4019, 4018
3894, 3954, 3955, 4020, 4019
3895, 3955, 3956, 4021, 4020
3896, 3956, 3957, 4022, 4021
3897, 3957, 3958, 4023, 4022
3898, 3958, 3959, 4024, 4023
3899, 3959, 3960, 4025, 4024
3900, 3960, 3961, 4026, 4025
3901, 3961, 3962, 4027, 4026
3902, 3962, 3963, 4028, 4027
3903, 3963, 3964, 4029, 4028
3904, 3964, 3965, 4030, 4029
3905, 3966, 3967, 4032, 4031
3906, 3967, 3968, 4033, 4032
3907, 3968, 3969, 4034, 4033
3908, 3969, 3970, 4035, 4034
3909, 3970, 3971, 4036, 4035
3910, 3971, 3972, 4037, 4036
3911, 3972, 3973, 4038, 4037
3912, 3973, 3974, 4039, 4038
3913, 3974, 3975, 4040, 4039
3914, 3975, 3976, 4041, 4040
3915, 3976, 3977, 4042, 4041
3916, 3977, 3978, 4043, 4042
3917, 3978, 3979, 4044, 4043
3918, 3979, 3980, 4045, 4044
3919, 3980, 3981, 4046, 4045
3920, 3981, 3982, 4047, 4046
3921, 3982, 3983, 4048, 4047
3922, 3983, 3984, 4049, 4048
3923, 3984, 3985, 4050, 4049
3924, 3985, 3986, 4051, 4050
3925, 3986, 3987, 4052, 4051
3926, 3987, 3988, 4053, 4052
3927, 3988, 3989, 4054, 4053
3928, 3989, 3990, 4055, 4054
3929, 3990, 3991, 4056, 4055
3930, 3991, 3992, 4057, 4056
3931, 3992, 3993, 4058, 4057
3932, 3993, 3994, 4059, 4058
3933, 3994, 3995, 4060, 4059
3934, 3995, 3996, 4061, 4060
3935, 3996, 3997, 4062, 4061
3936, 3997, 3998, 4063, 4062
3937, 3998, 3999, 4064, 4063
3938, 3999, 4000, 4065, 4064
3939, 4000, 4001, 4066, 4065
3940, 4001, 4002, 4067, 4066
3941, 4002, 4003, 4068, 4067
3942, 4003, 4004, 4069, 4068
3943, 4004, 4005, 4070, 4069
3944, 4005, 4006, 4071, 4070
3945, 4006, 4007, 4072, 4071
3946, 4007, 4008, 4073, 4072
3947, 4008, 4009, 4074, 4073
3948, 4009, 4010, 4075, 4074
3949, 4010, 4011, 4076, 4075
3950, 4011, 4012, 4077, 4076
3951, 4012, 4013, 4078, 4077
3952, 4013, 4014, 4079, 4078
3953, 4014, 4015, 4080, 4079
3954, 4015, 4016, 4081, 4080
3955, 4016, 4017, 4082, 4081
3956, 4017, 4018, 4083, 4082
3957, 4018, 4019, 4084, 4083
3958, 4019, 4020, 4085, 4084
3959, 4020, 4021, 4086, 4085
3960, 4021, 4022, 4087, 4086
3961, 4022, 4023, 4088, 4087
3962, 4023, 4024, 4089, 4088
3963, 4024, 4025, 4090, 4089
3964, 4025, 4026, 4091, 4090
3965, 4026, 4027, 4092, 4091
3966, 4027, 4028, 4093, 4092
3967, 4028, 4029, 4094, 4093
3968, 4029, 4030, 4095, 4094
3969, 4031, 4032, 4097, 4096
3970, 4032, 4033, 4098, 4097
3971, 4033, 4034, 4099, 4098
3972, 4034, 4035, 4100, 4099
3973, 4035, 4036, 4101, 4100
3974, 4036, 4037, 4102, 4101
3975, 4037, 4038, 4103, 4102
3976, 4038, 4039, 4104, 4103
3977, 4039, 4040, 4105, 4104
3978, 4040, 4041, 4106, 4105
3979, 4041, 4042, 4107, 4106
3980, 4042, 4043, 4108, 4107
3981, 4043, 4044, 4109, 4108
3982, 4044, 4045, 4110, 4109
3983, 4045, 4046, 4111, 4110
3984, 4046, 4047, 4112, 4111
3985, 4047, 4048, 4113, 4112
3986, 4048, 4049, 4114, 4113
3987, 4049, 4050, 4115, 4114
3988, 4050, 4051, 4116, 4115
3989, 4051, 4052, 4117, 4116
3990, 4052, 4053, 4118, 4117
3991, 4053, 4054, 4119, 4118
3992, 4054, 4055, 4120, 4119
3993, 4055, 4056, 4121, 4120
3994, 4056, 4057, 4122, 4121
3995, 4057, 4058, 4123, 4122
3996, 4058, 4059, 4124, 4123
3997, 4059, 4060, 4125, 4124
3998, 4060, 4061, 4126, 4125
3999, 4061, 4062, 4127, 4126
4000, 4062, 4063, 4128, 4127
4001, 4063, 4064, 4129, 4128
4002, 4064, 4065, 4130, 4129
4003, 4065, 4066, 4131, 4130
4004, 4066, 4067, 4132, 4131
4005, 4067, 4068, 4133, 4132
4006, 4068, 4069, 4134, 4133
4007, 4069, 4070, 4135, 4134
4008, 4070, 4071, 4136, 4135
4009, 4071, 4072, 4137, 4136
4010, 4072, 4073, 4138, 4137
4011, 4073, 4074, 4139, 4138
4012, 4074, 4075, 4140, 4139
4013, 4075, 4076, 4141, 4140
4014, 4076, 4077, 4142, 4141
4015, 4077, 4078, 4143, 4142
4016, 4078, 4079, 4144, 4143
4017, 4079, 4080, 4145, 4144
4018, 4080, 4081, 4146, 4145
4019, 4081, 4082, 4147, 4146
4020, 4082, 4083, 4148, 4147
4021, 4083, 4084, 4149, 4148
4022, 4084, 4085, 4150, 4149
4023, 4085, 4086, 4151, 4150
4024, 4086, 4087, 4152, 4151
4025, 4087, 4088, 4153, 4152
4026, 4088, 4089, 4154, 4153
4027, 4089, 4090, 4155, 4154
4028, 4090, 4091, 4156, 4155
4029, 4091, 4092, 4157, 4156
4030, 4092, 4093, 4158, 4157
4031, 4093, 4094, 4159, 4158
4032, 4094, 4095, 4160, 4159
4033, 4096, 4097, 4162, 4161
4034, 4097, 4098, 4163, 4162
4035, 4098, 4099, 4164, 4163
4036, 4099, 4100, 4165, 4164
4037, 4100, 4101, 4166, 4165
4038, 4101, 4102, 4167, 4166
4039, 4102, 4103, 4168, 4167
4040, 4103, 4104, 4169, 4168
4041, 4104, 4105, 4170, 4169
4042, 4105, 4106, 4171, 4170
4043, 4106, 4107, 4172, 4171
4044, 4107, 4108, 4173, 4172
4045, 4108, 4109, 4174, 4173
4046, 4109, 4110, 4175, 4174
4047, 4110, 4111, 4176, 4175
4048, 4111, 4112, 4177, 4176
4049, 4112, 4113, 4178, 4177
4050, 4113, 4114, 4179, 4178
4051, 4114, 4115, 4180, 4179
4052, 4115, 4116, 4181, 4180
4053, 4116, 4117, 4182, 4181
4054, 4117, 4118, 4183, 4182
4055, 4118, 4119, 4184, 4183
4056, 4119, 4120, 4185, 4184
4057, 4120, 4121, 4186, 4185
4058, 4121, 4122, 4187, 4186
4059, 4122, 4123, 4188, 4187
4060, 4123, 4124, 4189, 4188
4061, 4124, 4125, 4190, 4189
4062, 4125, 4126, 4191, 4190
4063, 4126, 4127, 4192, 4191
4064, 4127, 4128, 4193, 4192
4065, 4128, 4129, 4194, 4193
4066, 4129, 4130, 4195, 4194
4067, 4130, 4131, 4196, 4195
4068, 4131, 4132, 4197, 4196
4069, 4132, 4133, 4198, 4197
4070, 4133, 4134, 4199, 4198
4071, 4134, 4135, 4200, 4199
4072, 4135, 4136, 4201, 4200
4073, 4136, 4137, 4202, 4201
4074, 4137, 4138, 4203, 4202
4075, 4138, 4139, 4204, 4203
4076, 4139, 4140, 4205, 4204
4077, 4140, 4141, 4206, 4205
4078, 4141, 4142, 4207, 4206
4079, 4142, 4143, 4208, 4207
4080, 4143, 4144, 4209, 4208
4081, 4144, 4145, 4210, 4209
4082, 4145, 4146, 4211, 4210
4083, 4146, 4147, 4212, 4211
4084, 4147, 4148, 4213, 4212
4085, 4148, 4149, 4214, 4213
4086, 4149, 4150, 4215, 4214
4087, 4150, 4151, 4216, 4215
4088, 4151, 4152, 4217, 4216
4089, 4152, 4153, 4218, 4217
4090, 4153, 4154, 4219, 4218
4091, 4154, 4155, 4220, 4219
4092, 4155, 4156, 4221, 4220
4093, 4156, 4157, 4222, 4221
4094, 4157, 4158, 4223, 4222
4095, 4158, 4159, 4224, 4223
4096, 4159, 4160, 4225, 4224
*NSET, NSET=XSYM
1, 66, 131, 196, 261, 326, 391, 456, 521, 586, 651, 716
781, 846, 911, 976, 1041, 1106, 1171, 1236, 1301, 1366, 1431, 1496
1561, 1626, 1691, 1756, 1821, 1886, 1951, 2016, 2081, 2146, 2211, 2276
2341, 2406, 2471, 2536, 2601, 2666, 2731, 2796, 2861, 2926, 2991, 3056
3121, 3186, 3251, 3316, 3381, 3446, 3511, 3576, 3641, 3706, 3771, 3836
3901, 3966, 4031, 4096, 4161
*NSET, NSET=YSYM
1, 2, 3, 4, 5, 6, 7, 8, 9, 10, 11, 12
13, 14, 15, 16, 17, 18, 19, 20, 21, 22, 23, 24
25, 26, 27, 28, 29, 30, 31, 32, 33, 34, 35, 36
37, 38, 39, 40, 41, 42, 43, 44, 45, 46, 47, 48
49, 50, 51, 52, 53, 54, 55, 56, 57, 58, 59, 60
61, 62, 63, 64, 65
*UEL PROPERTY, ELSET=EALL
200000, 0.3, 1., 1., 1e-06, 4
*ELEMENT, TYPE=CPE4, ELSET=GHOST
100001, 1, 2, 67, 66
100002, 2, 3, 68, 67
100003, 3, 4, 69, 68
100004, 4, 5, 70, 69
100005, 5, 6, 71, 70
100006, 6, 7, 72, 71
100007, 7, 8, 73, 72
100008, 8, 9, 74, 73
100009, 9, 10, 75, 74
100010, 10, 11, 76, 75
100011, 11, 12, 77, 76
100012, 12, 13, 78, 77
100013, 13, 14, 79, 78
100014, 14, 15, 80, 79
100015, 15, 16, 81, 80
100016, 16, 17, 82, 81
100017, 17, 18, 83, 82
100018, 18, 19, 84, 83
100019, 19, 20, 85, 84
100020, 20, 21, 86, 85
100021, 21, 22, 87, 86
100022, 22, 23, 88, 87
100023, 23, 24, 89, 88
100024, 24, 25, 90, 89
100025, 25, 26, 91, 90
100026, 26, 27, 92, 91
100027, 27, 28, 93, 92
100028, 28, 29, 94, 93
100029, 29, 30, 95, 94
100030, 30, 31, 96, 95
100031, 31, 32, 97, 96
100032, 32, 33, 98, 97
100033, 33, 34, 99, 98
100034, 34, 35, 100, 99
100035, 35, 36, 101, 100
100036, 36, 37, 102, 101
100037, 37, 38, 103, 102
100038, 38, 39, 104, 103
100039, 39, 40, 105, 104
100040, 40, 41, 106, 105
100041, 41, 42, 107, 106
100042, 42, 43, 108, 107
100043, 43, 44, 109, 108
100044, 44, 45, 110, 109
100045, 45, 46, 111, 110
100046, 46, 47, 112, 111
100047, 47, 48, 113, 112
100048, 48, 49, 114, 113
100049, 49, 50, 115, 114
100050, 50, 51, 116, 115
100051, 51, 52, 117, 116
100052, 52, 53, 118, 117
100053, 53, 54, 119, 118
100054, 54, 55, 120, 119
100055, 55, 56, 121, 120
100056, 56, 57, 122, 121
100057, 57, 58, 123, 122
100058, 58, 59, 124, 123
100059, 59, 60, 125, 124
100060, 60, 61, 126, 125
100061, 61, 62, 127, 126
100062, 62, 63, 128, 127
100063, 63, 64, 129, 128
100064, 64, 65, 130, 129
100065, 66, 67, 132, 131
100066, 67, 68, 133, 132
100067, 68, 69, 134, 133
100068, 69, 70, 135, 134
100069, 70, 71, 136, 135
100070, 71, 72, 137, 136
100071, 72, 73, 138, 137
100072, 73, 74, 139, 138
100073, 74, 75, 140, 139
100074, 75, 76, 141, 140
100075, 76, 77, 142, 141
100076, 77, 78, 143, 142
100077, 78, 79, 144, 143
100078, 79, 80, 145, 144
100079, 80, 81, 146, 145
100080, 81, 82, 147, 146
100081, 82, 83, 148, 147
100082, 83, 84, 149, 148
100083, 84, 85, 150, 149
100084, 85, 86, 151, 150
100085, 86, 87, 152, 151
100086, 87, 88, 153, 152
100087, 88, 89, 154, 153
100088, 89, 90, 155, 154
100089, 90, 91, 156, 155
100090, 91, 92, 157, 156
100091, 92, 93, 158, 157
100092, 93, 94, 159, 158
100093, 94, 95, 160, 159
100094, 95, 96, 161, 160
100095, 96, 97, 162, 161
100096, 97, 98, 163, 162
100097, 98, 99, 164, 163
100098, 99, 100, 165, 164
100099, 100, 101, 166, 165
100100, 101, 102, 167, 166
100101, 102, 103, 168, 167
100102, 103, 104, 169, 168
100103, 104, 105, 170, 169
100104, 105, 106, 171, 170
100105, 106, 107, 172, 171
100106, 107, 108, 173, 172
100107, 108, 109, 174, 173
100108, 109, 110, 175, 174
100109, 110, 111, 176, 175
100110, 111, 112, 177, 176
100111, 112, 113, 178, 177
100112, 113, 114, 179, 178
100113, 114, 115, 180, 179
100114, 115, 116, 181, 180
100115, 116, 117, 182, 181
100116, 117, 118, 183, 182
100117, 118, 119, 184, 183
100118, 119, 120, 185, 184
100119, 120, 121, 186, 185
100120, 121, 122, 187, 186
100121, 122, 123, 188, 187
100122, 123, 124, 189, 188
100123, 124, 125, 190, 189
100124, 125, 126, 191, 190
100125, 126, 127, 192, 191
100126, 127, 128, 193, 192
100127, 128, 129, 194, 193
100128, 129, 130, 195, 194
100129, 131, 132, 197, 196
100130, 132, 133, 198, 197
100131, 133, 134, 199, 198
100132, 134, 135, 200, 199
100133, 135, 136, 201, 200
100134, 136, 137, 202, 201
100135, 137, 138, 203, 202
100136, 138, 139, 204, 203
100137, 139, 140, 205, 204
100138, 140, 141, 206, 205
100139, 141, 142, 207, 206
100140, 142, 143, 208, 207
100141, 143, 144, 209, 208
100142, 144, 145, 210, 209
100143, 145, 146, 211, 210
100144, 146, 147, 212, 211
100145, 147, 148, 213, 212
100146, 148, 149, 214, 213
100147, 149, 150, 215, 214
100148, 150, 151, 216, 215
100149, 151, 152, 217, 216
100150, 152, 153, 218, 217
100151, 153, 154, 219, 218
100152, 154, 155, 220, 219
100153, 155, 156, 221, 220
100154, 156, 157, 222, 221
100155, 157, 158, 223, 222
100156, 158, 159, 224, 223
100157, 159, 160, 225, 224
100158, 160, 161, 226, 225
100159, 161, 162, 227, 226
100160, 162, 163, 228, 227
100161, 163, 164, 229, 228
100162, 164, 165, 230, 229
100163, 165, 166, 231, 230
100164, 166, 167, 232, 231
100165, 167, 168, 233, 232
100166, 168, 169, 234, 233
100167, 169, 170, 235, 234
100168, 170, 171, 236, 235
100169, 171, 172, 237, 236
100170, 172, 173, 238, 237
100171, 173, 174, 239, 238
100172, 174, 175, 240, 239
100173, 175, 176, 241, 240
100174, 176, 177, 242, 241
100175, 177, 178, 243, 242
100176, 178, 179, 244, 243
100177, 179, 180, 245, 244
100178, 180, 181, 246, 245
100179, 181, 182, 247, 246
100180, 182, 183, 248, 247
100181, 183, 184, 249, 248
100182, 184, 185, 250, 249
100183, 185, 186, 251, 250
100184, 186, 187, 252, 251
100185, 187, 188, 253, 252
100186, 188, 189, 254, 253
100187, 189, 190, 255, 254
100188, 190, 191, 256, 255
100189, 191, 192, 257, 256
100190, 192, 193, 258, 257
100191, 193, 194, 259, 258
100192, 194, 195, 260, 259
100193, 196, 197, 262, 261
100194, 197, 198, 263, 262
100195, 198, 199, 264, 263
100196, 199, 200, 265, 264
100197, 200, 201, 266, 265
100198, 201, 202, 267, 266
100199, 202, 203, 268, 267
100200, 203, 204, 269, 268
100201, 204, 205, 270, 269
100202, 205, 206, 271, 270
100203, 206, 207, 272, 271
100204, 207, 208, 273, 272
100205, 208, 209, 274, 273
100206, 209, 210, 275, 274
100207, 210, 211, 276, 275
100208, 211, 212, 277, 276
100209, 212, 213, 278, 277
100210, 213, 214, 279, 278
100211, 214, 215, 280, 279
100212, 215, 216, 281, 280
100213, 216, 217, 282, 281
100214, 217, 218, 283, 282
100215, 218, 219, 284, 283
100216, 219, 220, 285, 284
100217, 220, 221, 286, 285
100218, 221, 222, 287, 286
100219, 222, 223, 288, 287
100220, 223, 224, 289, 288
100221, 224, 225, 290, 289
100222, 225, 226, 291, 290
100223, 226, 227, 292, 291
100224, 227, 228, 293, 292
100225, 228, 229, 294, 293
100226, 229, 230, 295, 294
100227, 230, 231, 296, 295
100228, 231, 232, 297, 296
100229, 232, 233, 298, 297
100230, 233, 234, 299, 298
100231, 234, 235, 300, 299
100232, 235, 236, 301, 300
100233, 236, 237, 302, 301
100234, 237, 238, 303, 302
100235, 238, 239, 304, 303
100236, 239, 240, 305, 304
100237, 240, 241, 306, 305
100238, 241, 242, 307, 306
100239, 242, 243, 308, 307
100240, 243, 244, 309, 308
100241, 244, 245, 310, 309
100242, 245, 246, 311, 310
100243, 246, 247, 312, 311
100244, 247, 248, 313, 312
100245, 248, 249, 314, 313
100246, 249, 250, 315, 314
100247, 250, 251, 316, 315
100248, 251, 252, 317, 316
100249, 252, 253, 318, 317
100250, 253, 254, 319, 318
100251, 254, 255, 320, 319
100252, 255, 256, 321, 320
100253, 256, 257, 322, 321
100254, 257, 258, 323, 322
100255, 258, 259, 324, 323
100256, 259, 260, 325, 324
100257, 261, 262, 327, 326
100258, 262, 263, 328, 327
100259, 263, 264, 329, 328
100260, 264, 265, 330, 329
100261, 265, 266, 331, 330
100262, 266, 267, 332, 331
100263, 267, 268, 333, 332
100264, 268, 269, 334, 333
100265, 269, 270, 335, 334
100266, 270, 271, 336, 335
100267, 271, 272, 337, 336
100268, 272, 273, 338, 337
100269, 273, 274, 339, 338
100270, 274, 275, 340, 339
100271, 275, 276, 341, 340
100272, 276, 277, 342, 341
100273, 277, 278, 343, 342
100274, 278, 279, 344, 343
100275, 279, 280, 345, 344
100276, 280, 281, 346, 345
100277, 281, 282, 347, 346
100278, 282, 283, 348, 347
100279, 283, 284, 349, 348
100280, 284, 285, 350, 349
100281, 285, 286, 351, 350
100282, 286, 287, 352, 351
100283, 287, 288, 353, 352
100284, 288, 289, 354, 353
100285, 289, 290, 355, 354
100286, 290, 291, 356, 355
100287, 291, 292, 357, 356
100288, 292, 293, 358, 357
100289, 293, 294, 359, 358
100290, 294, 295, 360, 359
100291, 295, 296, 361, 360
100292, 296, 297, 362, 361
100293, 297, 298, 363, 362
100294, 298, 299, 364, 363
100295, 299, 300, 365, 364
100296, 300, 301, 366, 365
100297, 301, 302, 367, 366
100298, 302, 303, 368, 367
100299, 303, 304, 369, 368
100300, 304, 305, 370, 369
100301, 305, 306, 371, 370
100302, 306, 307, 372, 371
100303, 307, 308, 373, 372
100304, 308, 309, 374, 373
100305, 309, 310, 375, 374
100306, 310, 311, 376, 375
100307, 311, 312, 377, 376
100308, 312, 313, 378, 377
100309, 313, 314, 379, 378
100310, 314, 315, 380, 379
100311, 315, 316, 381, 380
100312, 316, 317, 382, 381
100313, 317, 318, 383, 382
100314, 318, 319, 384, 383
100315, 319, 320, 385, 384
100316, 320, 321, 386, 385
100317, 321, 322, 387, 386
100318, 322, 323, 388, 387
100319, 323, 324, 389, 388
100320, 324, 325, 390, 389
100321, 326, 327, 392, 391
100322, 327, 328, 393, 392
100323, 328, 329, 394, 393
100324, 329, 330, 395, 394
100325, 330, 331, 396, 395
100326, 331, 332, 397, 396
100327, 332, 333, 398, 397
100328, 333, 334, 399, 398
100329, 334, 335, 400, 399
100330, 335, 336, 401, 400
100331, 336, 337, 402, 401
100332, 337, 338, 403, 402
100333, 338, 339, 404, 403
100334, 339, 340, 405, 404
100335, 340, 341, 406, 405
100336, 341, 342, 407, 406
100337, 342, 343, 408, 407
100338, 343, 344, 409, 408
100339, 344, 345, 410, 409
100340, 345, 346, 411, 410
100341, 346, 347, 412, 411
100342, 347, 348, 413, 412
100343, 348, 349, 414, 413
100344, 349, 350, 415, 414
100345, 350, 351, 416, 415
100346, 351, 352, 417, 416
100347, 352, 353, 418, 417
100348, 353, 354, 419, 418
100349, 354, 355, 420, 419
100350, 355, 356, 421, 420
100351, 356, 357, 422, 421
100352, 357, 358, 423, 422
100353, 358, 359, 424, 423
100354, 359, 360, 425, 424
100355, 360, 361, 426, 425
100356, 361, 362, 427, 426
100357, 362, 363, 428, 427
100358, 363, 364, 429, 428
100359, 364, 365, 430, 429
100360, 365, 366, 431, 430
100361, 366, 367, 432, 431
100362, 367, 368, 433, 432
100363, 368, 369, 434, 433
100364, 369, 370, 435, 434
100365, 370, 371, 436, 435
100366, 371, 372, 437, 436
100367, 372, 373, 438, 437
100368, 373, 374, 439, 438
100369, 374, 375, 440, 439
100370, 375, 376, 441, 440
100371, 376, 377, 442, 441
100372, 377, 378, 443, 442
100373, 378, 379, 444, 443
100374, 379, 380, 445, 444
100375, 380, 381, 446, 445
100376, 381, 382, 447, 446
100377, 382, 383, 448, 447
100378, 383, 384, 449, 448
100379, 384, 385, 450, 449
100380, 385, 386, 451, 450
100381, 386, 387, 452, 451
100382, 387, 388, 453, 452
100383, 388, 389, 454, 453
100384, 389, 390, 455, 454
100385, 391, 392, 457, 456
100386, 392, 393, 458, 457
100387, 393, 394, 459, 458
100388, 394, 395, 460, 459
100389, 395, 396, 461, 460
100390, 396, 397, 462, 461
100391, 397, 398, 463, 462
100392, 398, 399, 464, 463
100393, 399, 400, 465, 464
100394, 400, 401, 466, 465
100395, 401, 402, 467, 466
100396, 402, 403, 468, 467
100397, 403, 404, 469, 468
100398, 404, 405, 470, 469
100399, 405, 406, 471, 470
100400, 406, 407, 472, 471
100401, 407, 408, 473, 472
100402, 408, 409, 474, 473
100403, 409, 410, 475, 474
100404, 410, 411, 476, 475
100405, 411, 412, 477, 476
100406, 412, 413, 478, 477
100407, 413, 414, 479, 478
100408, 414, 415, 480, 479
100409, 415, 416, 481, 480
100410, 416, 417, 482, 481
100411, 417, 418, 483, 482
100412, 418, 419, 484, 483
100413, 419, 420, 485, 484
100414, 420, 421, 486, 485
100415, 421, 422, 487, 486
100416, 422, 423, 488, 487
100417, 423, 424, 489, 488
100418, 424, 425, 490, 489
100419, 425, 426, 491, 490
100420, 426, 427, 492, 491
100421, 427, 428, 493, 492
100422, 428, 429, 494, 493
100423, 429, 430, 495, 494
100424, 430, 431, 496, 495
100425, 431, 432, 497, 496
100426, 432, 433, 498, 497
100427, 433, 434, 499, 498
100428, 434, 435, 500, 499
100429, 435, 436, 501, 500
100430, 436, 437, 502, 501
100431, 437, 438, 503, 502
100432, 438, 439, 504, 503
100433, 439, 440, 505, 504
100434, 440, 441, 506, 505
100435, 441, 442, 507, 506
100436, 442, 443, 508, 507
100437, 443, 444, 509, 508
100438, 444, 445, 510, 509
100439, 445, 446, 511, 510
100440, 446, 447, 512, 511
100441, 447, 448, 513, 512
100442, 448, 449, 514, 513
100443, 449, 450, 515, 514
100444, 450, 451, 516, 515
100445, 451, 452, 517, 516
100446, 452, 453, 518, 517
100447, 453, 454, 519, 518
100448, 454, 455, 520, 519
100449, 456, 457, 522, 521
100450, 457, 458, 523, 522
100451, 458, 459, 524, 523
100452, 459, 460, 525, 524
100453, 460, 461, 526, 525
100454, 461, 462, 527, 526
100455, 462, 463, 528, 527
100456, 463, 464, 529, 528
100457, 464, 465, 530, 529
100458, 465, 466, 531, 530
100459, 466, 467, 532, 531
100460, 467, 468, 533, 532
100461, 468, 469, 534, 533
100462, 469, 470, 535, 534
100463, 470, 471, 536, 535
100464, 471, 472, 537, 536
100465, 472, 473, 538, 537
100466, 473, 474, 539, 538
100467, 474, 475, 540, 539
100468, 475, 476, 541, 540
100469, 476, 477, 542, 541
100470, 477, 478, 543, 542
100471, 478, 479, 544, 543
100472, 479, 480, 545, 544
100473, 480, 481, 546, 545
100474, 481, 482, 547, 546
100475, 482, 483, 548, 547
100476, 483, 484, 549, 548
100477, 484, 485, 550, 549
100478, 485, 486, 551, 550
100479, 486, 487, 552, 551
100480, 487, 488, 553, 552
100481, 488, 489, 554, 553
100482, 489, 490, 555, 554
100483, 490, 491, 556, 555
100484, 491, 492, 557, 556
100485, 492, 493, 558, 557
100486, 493, 494, 559, 558
100487, 494, 495, 560, 559
100488, 495, 496, 561, 560
100489, 496, 497, 562, 561
100490, 497, 498, 563, 562
100491, 498, 499, 564, 563
100492, 499, 500, 565, 564
100493, 500, 501, 566, 565
100494, 501, 502, 567, 566
100495, 502, 503, 568, 567
100496, 503, 504, 569, 568
100497, 504, 505, 570, 569
100498, 505, 506, 571, 570
100499, 506, 507, 572, 571
100500, 507, 508, 573, 572
100501, 508, 509, 574, 573
100502, 509, 510, 575, 574
100503, 510, 511, 576, 575
100504, 511, 512, 577, 576
100505, 512, 513, 578, 577
100506, 513, 514, 579, 578
100507, 514, 515, 580, 579
100508, 515, 516, 581, 580
100509, 516, 517, 582, 581
100510, 517, 518, 583, 582
100511, 518, 519, 584, 583
100512, 519, 520, 585, 584
100513, 521, 522, 587, 586
100514, 522, 523, 588, 587
100515, 523, 524, 589, 588
100516, 524, 525, 590, 589
100517, 525, 526, 591, 590
100518, 526, 527, 592, 591
100519, 527, 528, 593, 592
100520, 528, 529, 594, 593
100521, 529, 530, 595, 594
100522, 530, 531, 596, 595
100523, 531, 532, 597, 596
100524, 532, 533, 598, 597
100525, 533, 534, 599, 598
100526, 534, 535, 600, 599
100527, 535, 536, 601, 600
100528, 536, 537, 602, 601
100529, 537, 538, 603, 602
100530, 538, 539, 604, 603
100531, 539, 540, 605, 604
100532, 540, 541, 606, 605
100533, 541, 542, 607, 606
100534, 542, 543, 608, 607
100535, 543, 544, 609, 608
100536, 544, 545, 610, 609
100537, 545, 546, 611, 610
100538, 546, 547, 612, 611
100539, 547, 548, 613, 612
100540, 548, 549, 614, 613
100541, 549, 550, 615, 614
100542, 550, 551, 616, 615
100543, 551, 552, 617, 616
100544, 552, 553, 618, 617
100545, 553, 554, 619, 618
100546, 554, 555, 620, 619
100547, 555, 556, 621, 620
100548, 556, 557, 622, 621
100549, 557, 558, 623, 622
100550, 558, 559, 624, 623
100551, 559, 560, 625, 624
100552, 560, 561, 626, 625
100553, 561, 562, 627, 626
100554, 562, 563, 628, 627
100555, 563, 564, 629, 628
100556, 564, 565, 630, 629
100557, 565, 566, 631, 630
100558, 566, 567, 632, 631
100559, 567, 568, 633, 632
100560, 568, 569, 634, 633
100561, 569, 570, 635, 634
100562, 570, 571, 636, 635
100563, 571, 572, 637, 636
100564, 572, 573, 638, 637
100565, 573, 574, 639, 638
100566, 574, 575, 640, 639
100567, 575, 576, 641, 640
100568, 576, 577, 642, 641
100569, 577, 578, 643, 642
100570, 578, 579, 644, 643
100571, 579, 580, 645, 644
100572, 580, 581, 646, 645
100573, 581, 582, 647, 646
100574, 582, 583, 648, 647
100575, 583, 584, 649, 648
100576, 584, 585, 650, 649
100577, 586, 587, 652, 651
100578, 587, 588, 653, 652
100579, 588, 589, 654, 653
100580, 589, 590, 655, 654
100581, 590, 591, 656, 655
100582, 591, 592, 657, 656
100583, 592, 593, 658, 657
100584, 593, 594, 659, 658
100585, 594, 595, 660, 659
100586, 595, 596, 661, 660
100587, 596, 597, 662, 661
100588, 597, 598, 663, 662
100589, 598, 599, 664, 663
100590, 599, 600, 665, 664
100591, 600, 601, 666, 665
100592, 601, 602, 667, 666
100593, 602, 603, 668, 667
100594, 603, 604, 669, 668
100595, 604, 605, 670, 669
100596, 605, 606, 671, 670
100597, 606, 607, 672, 671
100598, 607, 608, 673, 672
100599, 608, 609, 674, 673
100600, 609, 610, 675, 674
100601, 610, 611, 676, 675
100602, 611, 612, 677, 676
100603, 612, 613, 678, 677
100604, 613, 614, 679, 678
100605, 614, 615, 680, 679
100606, 615, 616, 681, 680
100607, 616, 617, 682, 681
100608, 617, 618, 683, 682
100609, 618, 619, 684, 683
100610, 619, 620, 685, 684
100611, 620, 621, 686, 685
100612, 621, 622, 687, 686
100613, 622, 623, 688, 687
100614, 623, 624, 689, 688
100615, 624, 625, 690, 689
100616, 625, 626, 691, 690
100617, 626, 627, 692, 691
100618, 627, 628, 693, 692
100619, 628, 629, 694, 693
100620, 629, 630, 695, 694
100621, 630, 631, 696, 695
100622, 631, 632, 697, 696
100623, 632, 633, 698, 697
100624, 633, 634, 699, 698
100625, 634, 635, 700, 699
100626, 635, 636, 701, 700
100627, 636, 637, 702, 701
100628, 637, 638, 703, 702
100629, 638, 639, 704, 703
100630, 639, 640, 705, 704
100631, 640, 641, 706, 705
100632, 641, 642, 707, 706
100633, 642, 643, 708, 707
100634, 643, 644, 709, 708
100635, 644, 645, 710, 709
100636, 645, 646, 711, 710
100637, 646, 647, 712, 711
100638, 647, 648, 713, 712
100639, 648, 649, 714, 713
100640, 649, 650, 715, 714
100641, 651, 652, 717, 716
100642, 652, 653, 718, 717
100643, 653, 654, 719, 718
100644, 654, 655, 720, 719
100645, 655, 656, 721, 720
100646, 656, 657, 722, 721
100647, 657, 658, 723, 722
100648, 658, 659, 724, 723
100649, 659, 660, 725, 724
100650, 660, 661, 726, 725
100651, 661, 662, 727, 726
100652, 662, 663, 728, 727
100653, 663, 664, 729, 728
100654, 664, 665, 730, 729
100655, 665, 666, 731, 730
100656, 666, 667, 732, 731
100657, 667, 668, 733, 732
100658, 668, 669, 734, 733
100659, 669, 670, 735, 734
100660, 670, 671, 736, 735
100661, 671, 672, 737, 736
100662, 672, 673, 738, 737
100663, 673, 674, 739, 738
100664, 674, 675, 740, 739
100665, 675, 676, 741, 740
100666, 676, 677, 742, 741
100667, 677, 678, 743, 742
100668, 678, 679, 744, 743
100669, 679, 680, 745, 744
100670, 680, 681, 746, 745
100671, 681, 682, 747, 746
100672, 682, 683, 748, 747
100673, 683, 684, 749, 748
100674, 684, 685, 750, 749
100675, 685, 686, 751, 750
100676, 686, 687, 752, 751
100677, 687, 688, 753, 752
100678, 688, 689, 754, 753
100679, 689, 690, 755, 754
100680, 690, 691, 756, 755
100681, 691, 692, 757, 756
100682, 692, 693, 758, 757
100683, 693, 694, 759, 758
100684, 694, 695, 760, 759
100685, 695, 696, 761, 760
100686, 696, 697, 762, 761
100687, 697, 698, 763, 762
100688, 698, 699, 764, 763
100689, 699, 700, 765, 764
100690, 700, 701, 766, 765
100691, 701, 702, 767, 766
100692, 702, 703, 768, 767
100693, 703, 704, 769, 768
100694, 704, 705, 770, 769
100695, 705, 706, 771, 770
100696, 706, 707, 772, 771
100697, 707, 708, 773, 772
100698, 708, 709, 774, 773
100699, 709, 710, 775, 774
100700, 710, 711, 776, 775
100701, 711, 712, 777, 776
100702, 712, 713, 778, 777
100703, 713, 714, 779, 778
100704, 714, 715, 780, 779
100705, 716, 717, 782, 781
100706, 717, 718, 783, 782
100707, 718, 719, 784, 783
100708, 719, 720, 785, 784
100709, 720, 721, 786, 785
100710, 721, 722, 787, 786
100711, 722, 723, 788, 787
100712, 723, 724, 789, 788
100713, 724, 725, 790, 789
100714, 725, 726, 791, 790
100715, 726, 727, 792, 791
100716, 727, 728, 793, 792
100717, 728, 729, 794, 793
100718, 729, 730, 795, 794
100719, 730, 731, 796, 795
100720, 731, 732, 797, 796
100721, 732, 733, 798, 797
100722, 733, 734, 799, 798
100723, 734, 735, 800, 799
100724, 735, 736, 801, 800
100725, 736, 737, 802, 801
100726, 737, 738, 803, 802
100727, 738, 739, 804, 803
100728, 739, 740, 805, 804
100729, 740, 741, 806, 805
100730, 741, 742, 807, 806
100731, 742, 743, 808, 807
100732, 743, 744, 809, 808
100733, 744, 745, 810, 809
100734, 745, 746, 811, 810
100735, 746, 747, 812, 811
100736, 747, 748, 813, 812
100737, 748, 749, 814, 813
100738, 749, 750, 815, 814
100739, 750, 751, 816, 815
100740, 751, 752, 817, 816
100741, 752, 753, 818, 817
100742, 753, 754, 819, 818
100743, 754, 755, 820, 819
100744, 755, 756, 821, 820
100745, 756, 757, 822, 821
100746, 757, 758, 823, 822
100747, 758, 759, 824, 823
100748, 759, 760, 825, 824
100749, 760, 761, 826, 825
100750, 761, 762, 827, 826
100751, 762, 763, 828, 827
100752, 763, 764, 829, 828
100753, 764, 765, 830, 829
100754, 765, 766, 831, 830
100755, 766, 767, 832, 831
100756, 767, 768, 833, 832
100757, 768, 769, 834, 833
100758, 769, 770, 835, 834
100759, 770, 771, 836, 835
100760, 771, 772, 837, 836
100761, 772, 773, 838, 837
100762, 773, 774, 839, 838
100763, 774, 775, 840, 839
100764, 775, 776, 841, 840
100765, 776, 777, 842, 841
100766, 777, 778, 843, 842
100767, 778, 779, 844, 843
100768, 779, 780, 845, 844
100769, 781, 782, 847, 846
100770, 782, 783, 848, 847
100771, 783, 784, 849, 848
100772, 784, 785, 850, 849
100773, 785, 786, 851, 850
100774, 786, 787, 852, 851
100775, 787, 788, 853, 852
100776, 788, 789, 854, 853
100777, 789, 790, 855, 854
100778, 790, 791, 856, 855
100779, 791, 792, 857, 856
100780, 792, 793, 858, 857
100781, 793, 794, 859, 858
100782, 794, 795, 860, 859
100783, 795, 796, 861, 860
100784, 796, 797, 862, 861
100785, 797, 798, 863, 862
100786, 798, 799, 864, 863
100787, 799, 800, 865, 864
100788, 800, 801, 866, 865
100789, 801, 802, 867, 866
100790, 802, 803, 868, 867
100791, 803, 804, 869, 868
100792, 804, 805, 870, 869
100793, 805, 806, 871, 870
100794, 806, 807, 872, 871
100795, 807, 808, 873, 872
100796, 808, 809, 874, 873
100797, 809, 810, 875, 874
100798, 810, 811, 876, 875
100799, 811, 812, 877, 876
100800, 812, 813, 878, 877
100801, 813, 814, 879, 878
100802, 814, 815, 880, 879
100803, 815, 816, 881, 880
100804, 816, 817, 882, 881
100805, 817, 818, 883, 882
100806, 818, 819, 884, 883
100807, 819, 820, 885, 884
100808, 820, 821, 886, 885
100809, 821, 822, 887, 886
100810, 822, 823, 888, 887
100811, 823, 824, 889, 888
100812, 824, 825, 890, 889
100813, 825, 826, 891, 890
100814, 826, 827, 892, 891
100815, 827, 828, 893, 892
100816, 828, 829, 894, 893
100817, 829, 830, 895, 894
100818, 830, 831, 896, 895
100819, 831, 832, 897, 896
100820, 832, 833, 898, 897
100821, 833, 834, 899, 898
100822, 834, 835, 900, 899
100823, 835, 836, 901, 900
100824, 836, 837, 902, 901
100825, 837, 838, 903, 902
100826, 838, 839, 904, 903
100827, 839, 840, 905, 904
100828, 840, 841, 906, 905
100829, 841, 842, 907, 906
100830, 842, 843, 908, 907
100831, 843, 844, 909, 908
100832, 844, 845, 910, 909
100833, 846, 847, 912, 911
100834, 847, 848, 913, 912
100835, 848, 849, 914, 913
100836, 849, 850, 915, 914
100837, 850, 851, 916, 915
100838, 851, 852, 917, 916
100839, 852, 853, 918, 917
100840, 853, 854, 919, 918
100841, 854, 855, 920, 919
100842, 855, 856, 921, 920
100843, 856, 857, 922, 921
100844, 857, 858, 923, 922
100845, 858, 859, 924, 923
100846, 859, 860, 925, 924
100847, 860, 861, 926, 925
100848, 861, 862, 927, 926
100849, 862, 863, 928, 927
100850, 863, 864, 929, 928
100851, 864, 865, 930, 929
100852, 865, 866, 931, 930
100853, 866, 867, 932, 931
100854, 867, 868, 933, 932
100855, 868, 869, 934, 933
100856, 869, 870, 935, 934
100857, 870, 871, 936, 935
100858, 871, 872, 937, 936
100859, 872, 873, 938, 937
100860, 873, 874, 939, 938
100861, 874, 875, 940, 939
100862, 875, 876, 941, 940
100863, 876, 877, 942, 941
100864, 877, 878, 943, 942
100865, 878, 879, 944, 943
100866, 879, 880, 945, 944
100867, 880, 881, 946, 945
100868, 881, 882, 947, 946
100869, 882, 883, 948, 947
100870, 883, 884, 949, 948
100871, 884, 885, 950, 949
100872, 885, 886, 951, 950
100873, 886, 887, 952, 951
100874, 887, 888, 953, 952
100875, 888, 889, 954, 953
100876, 889, 890, 955, 954
100877, 890, 891, 956, 955
100878, 891, 892, 957, 956
100879, 892, 893, 958, 957
100880, 893, 894, 959, 958
100881, 894, 895, 960, 959
100882, 895, 896, 961, 960
100883, 896, 897, 962, 961
100884, 897, 898, 963, 962
100885, 898, 899, 964, 963
100886, 899, 900, 965, 964
100887, 900, 901, 966, 965
100888, 901, 902, 967, 966
100889, 902, 903, 968, 967
100890, 903, 904, 969, 968
100891, 904, 905, 970, 969
100892, 905, 906, 971, 970
100893, 906, 907, 972, 971
100894, 907, 908, 973, 972
100895, 908, 909, 974, 973
100896, 909, 910, 975, 974
100897, 911, 912, 977, 976
100898, 912, 913, 978, 977
100899, 913, 914, 979, 978
100900, 914, 915, 980, 979
100901, 915, 916, 981, 980
100902, 916, 917, 982, 981
100903, 917, 918, 983, 982
100904, 918, 919, 984, 983
100905, 919, 920, 985, 984
100906, 920, 921, 986, 985
100907, 921, 922, 987, 986
100908, 922, 923, 988, 987
100909, 923, 924, 989, 988
100910, 924, 925, 990, 989
100911, 925, 926, 991, 990
100912, 926, 927, 992, 991
100913, 927, 928, 993, 992
100914, 928, 929, 994, 993
100915, 929, 930, 995, 994
100916, 930, 931, 996, 995
100917, 931, 932, 997, 996
100918, 932, 933, 998, 997
100919, 933, 934, 999, 998
100920, 934, 935, 1000, 999
100921, 935, 936, 1001, 1000
100922, 936, 937, 1002, 1001
100923, 937, 938, 1003, 1002
100924, 938, 939, 1004, 1003
100925, 939, 940, 1005, 1004
100926, 940, 941, 1006, 1005
100927, 941, 942, 1007, 1006
100928, 942, 943, 1008, 1007
100929, 943, 944, 1009, 1008
100930, 944, 945, 1010, 1009
100931, 945, 946, 1011, 1010
100932, 946, 947, 1012, 1011
100933, 947, 948, 1013, 1012
100934, 948, 949, 1014, 1013
100935, 949, 950, 1015, 1014
100936, 950, 951, 1016, 1015
100937, 951, 952, 1017, 1016
100938, 952, 953, 1018, 1017
100939, 953, 954, 1019, 1018
100940, 954, 955, 1020, 1019
100941, 955, 956, 1021, 1020
100942, 956, 957, 1022, 1021
100943, 957, 958, 1023, 1022
100944, 958, 959, 1024, 1023
100945, 959, 960, 1025, 1024
100946, 960, 961, 1026, 1025
100947, 961, 962, 1027, 1026
100948, 962, 963, 1028, 1027
100949, 963, 964, 1029, 1028
100950, 964, 965, 1030, 1029
100951, 965, 966, 1031, 1030
100952, 966, 967, 1032, 1031
100953, 967, 968, 1033, 1032
100954, 968, 969, 1034, 1033
100955, 969, 970, 1035, 1034
100956, 970, 971, 1036, 1035
100957, 971, 972, 1037, 1036
100958, 972, 973, 1038, 1037
100959, 973, 974, 1039, 1038
100960, 974, 975, 1040, 1039
100961, 976, 977, 1042, 1041
100962, 977, 978, 1043, 1042
100963, 978, 979, 1044, 1043
100964, 979, 980, 1045, 1044
100965, 980, 981, 1046, 1045
100966, 981, 982, 1047, 1046
100967, 982, 983, 1048, 1047
100968, 983, 984, 1049, 1048
100969, 984, 985, 1050, 1049
100970, 985, 986, 1051, 1050
100971, 986, 987, 1052, 1051
100972, 987, 988, 1053, 1052
100973, 988, 989, 1054, 1053
100974, 989, 990, 1055, 1054
100975, 990, 991, 1056, 1055
100976, 991, 992, 1057, 1056
100977, 992, 993, 1058, 1057
100978, 993, 994, 1059, 1058
100979, 994, 995, 1060, 1059
100980, 995, 996, 1061, 1060
100981, 996, 997, 1062, 1061
100982, 997, 998, 1063, 1062
100983, 998, 999, 1064, 1063
100984, 999, 1000, 1065, 1064
100985, 1000, 1001, 1066, 1065
100986, 1001, 1002, 1067, 1066
100987, 1002, 1003, 1068, 1067
100988, 1003, 1004, 1069, 1068
100989, 1004, 1005, 1070, 1069
100990, 1005, 1006, 1071, 1070
100991, 1006, 1007, 1072, 1071
100992, 1007, 1008, 1073, 1072
100993, 1008, 1009, 1074, 1073
100994, 1009, 1010, 1075, 1074
100995, 1010, 1011, 1076, 1075
100996, 1011, 1012, 1077, 1076
100997, 1012, 1013, 1078, 1077
100998, 1013, 1014, 1079, 1078
100999, 1014, 1015, 1080, 1079
101000, 1015, 1016, 1081, 1080
101001, 1016, 1017, 1082, 1081
101002, 1017, 1018, 1083, 1082
101003, 1018, 1019, 1084, 1083
101004, 1019, 1020, 1085, 1084
101005, 1020, 1021, 1086, 1085
101006, 1021, 1022, 1087, 1086
101007, 1022, 1023, 1088, 1087
101008, 1023, 1024, 1089, 1088
101009, 1024, 1025, 1090, 1089
101010, 1025, 1026, 1091, 1090
101011, 1026, 1027, 1092, 1091
101012, 1027, 1028, 1093, 1092
101013, 1028, 1029, 1094, 1093
101014, 1029, 1030, 1095, 1094
101015, 1030, 1031, 1096, 1095
101016, 1031, 1032, 1097, 1096
101017, 1032, 1033, 1098, 1097
101018, 1033, 1034, 1099, 1098
101019, 1034, 1035, 1100, 1099
101020, 1035, 1036, 1101, 1100
101021, 1036, 1037, 1102, 1101
101022, 1037, 1038, 1103, 1102
101023, 1038, 1039, 1104, 1103
101024, 1039, 1040, 1105, 1104
101025, 1041, 1042, 1107, 1106
101026, 1042, 1043, 1108, 1107
101027, 1043, 1044, 1109, 1108
101028, 1044, 1045, 1110, 1109
101029, 1045, 1046, 1111, 1110
101030, 1046, 1047, 1112, 1111
101031, 1047, 1048, 1113, 1112
101032, 1048, 1049, 1114, 1113
101033, 1049, 1050, 1115, 1114
101034, 1050, 1051, 1116, 1115
101035, 1051, 1052, 1117, 1116
101036, 1052, 1053, 1118, 1117
101037, 1053, 1054, 1119, 1118
101038, 1054, 1055, 1120, 1119
101039, 1055, 1056, 1121, 1120
101040, 1056, 1057, 1122, 1121
101041, 1057, 1058, 1123, 1122
101042, 1058, 1059, 1124, 1123
101043, 1059, 1060, 1125, 1124
101044, 1060, 1061, 1126, 1125
101045, 1061, 1062, 1127, 1126
101046, 1062, 1063, 1128, 1127
101047, 1063, 1064, 1129, 1128
101048, 1064, 1065, 1130, 1129
101049, 1065, 1066, 1131, 1130
101050, 1066, 1067, 1132, 1131
101051, 1067, 1068, 1133, 1132
101052, 1068, 1069, 1134, 1133
101053, 1069, 1070, 1135, 1134
101054, 1070, 1071, 1136, 1135
101055, 1071, 1072, 1137, 1136
101056, 1072, 1073, 1138, 1137
101057, 1073, 1074, 1139, 1138
101058, 1074, 1075, 1140, 1139
101059, 1075, 1076, 1141, 1140
101060, 1076, 1077, 1142, 1141
101061, 1077, 1078, 1143, 1142
101062, 1078, 1079, 1144, 1143
101063, 1079, 1080, 1145, 1144
101064, 1080, 1081, 1146, 1145
101065, 1081, 1082, 1147, 1146
101066, 1082, 1083, 1148, 1147
101067, 1083, 1084, 1149, 1148
101068, 1084, 1085, 1150, 1149
101069, 1085, 1086, 1151, 1150
101070, 1086, 1087, 1152, 1151
101071, 1087, 1088, 1153, 1152
101072, 1088, 1089, 1154, 1153
101073, 1089, 1090, 1155, 1154
101074, 1090, 1091, 1156, 1155
101075, 1091, 1092, 1157, 1156
101076, 1092, 1093, 1158, 1157
101077, 1093, 1094, 1159, 1158
101078, 1094, 1095, 1160, 1159
101079, 1095, 1096, 1161, 1160
101080, 1096, 1097, 1162, 1161
101081, 1097, 1098, 1163, 1162
101082, 1098, 1099, 1164, 1163
101083, 1099, 1100, 1165, 1164
101084, 1100, 1101, 1166, 1165
101085, 1101, 1102, 1167, 1166
101086, 1102, 1103, 1168, 1167
101087, 1103, 1104, 1169, 1168
101088, 1104, 1105, 1170, 1169
101089, 1106, 1107, 1172, 1171
101090, 1107, 1108, 1173, 1172
101091, 1108, 1109, 1174, 1173
101092, 1109, 1110, 1175, 1174
101093, 1110, 1111, 1176, 1175
101094, 1111, 1112, 1177, 1176
101095, 1112, 1113, 1178, 1177
101096, 1113, 1114, 1179, 1178
101097, 1114, 1115, 1180, 1179
101098, 1115, 1116, 1181, 1180
101099, 1116, 1117, 1182, 1181
101100, 1117, 1118, 1183, 1182
101101, 1118, 1119, 1184, 1183
101102, 1119, 1120, 1185, 1184
101103, 1120, 1121, 1186, 1185
101104, 1121, 1122, 1187, 1186
101105, 1122, 1123, 1188, 1187
101106, 1123, 1124, 1189, 1188
101107, 1124, 1125, 1190, 1189
101108, 1125, 1126, 1191, 1190
101109, 1126, 1127, 1192, 1191
101110, 1127, 1128, 1193, 1192
101111, 1128, 1129, 1194, 1193
101112, 1129, 1130, 1195, 1194
101113, 1130, 1131, 1196, 1195
101114, 1131, 1132, 1197, 1196
101115, 1132, 1133, 1198, 1197
101116, 1133, 1134, 1199, 1198
101117, 1134, 1135, 1200, 1199
101118, 1135, 1136, 1201, 1200
101119, 1136, 1137, 1202, 1201
101120, 1137, 1138, 1203, 1202
101121, 1138, 1139, 1204, 1203
101122, 1139, 1140, 1205, 1204
101123, 1140, 1141, 1206, 1205
101124, 1141, 1142, 1207, 1206
101125, 1142, 1143, 1208, 1207
101126, 1143, 1144, 1209, 1208
101127, 1144, 1145, 1210, 1209
101128, 1145, 1146, 1211, 1210
101129, 1146, 1147, 1212, 1211
101130, 1147, 1148, 1213, 1212
101131, 1148, 1149, 1214, 1213
101132, 1149, 1150, 1215, 1214
101133, 1150, 1151, 1216, 1215
101134, 1151, 1152, 1217, 1216
101135, 1152, 1153, 1218, 1217
101136, 1153, 1154, 1219, 1218
101137, 1154, 1155, 1220, 1219
101138, 1155, 1156, 1221, 1220
101139, 1156, 1157, 1222, 1221
101140, 1157, 1158, 1223, 1222
101141, 1158, 1159, 1224, 1223
101142, 1159, 1160, 1225, 1224
101143, 1160, 1161, 1226, 1225
101144, 1161, 1162, 1227, 1226
101145, 1162, 1163, 1228, 1227
101146, 1163, 1164, 1229, 1228
101147, 1164, 1165, 1230, 1229
101148, 1165, 1166, 1231, 1230
101149, 1166, 1167, 1232, 1231
101150, 1167, 1168, 1233, 1232
101151, 1168, 1169, 1234, 1233
101152, 1169, 1170, 1235, 1234
101153, 1171, 1172, 1237, 1236
101154, 1172, 1173, 1238, 1237
101155, 1173, 1174, 1239, 1238
101156, 1174, 1175, 1240, 1239
101157, 1175, 1176, 1241, 1240
101158, 1176, 1177, 1242, 1241
101159, 1177, 1178, 1243, 1242
101160, 1178, 1179, 1244, 1243
101161, 1179, 1180, 1245, 1244
101162, 1180, 1181, 1246, 1245
101163, 1181, 1182, 1247, 1246
101164, 1182, 1183, 1248, 1247
101165, 1183, 1184, 1249, 1248
101166, 1184, 1185, 1250, 1249
101167, 1185, 1186, 1251, 1250
101168, 1186, 1187, 1252, 1251
101169, 1187, 1188, 1253, 1252
101170, 1188, 1189, 1254, 1253
101171, 1189, 1190, 1255, 1254
101172, 1190, 1191, 1256, 1255
101173, 1191, 1192, 1257, 1256
101174, 1192, 1193, 1258, 1257
101175, 1193, 1194, 1259, 1258
101176, 1194, 1195, 1260, 1259
101177, 1195, 1196, 1261, 1260
101178, 1196, 1197, 1262, 1261
101179, 1197, 1198, 1263, 1262
101180, 1198, 1199, 1264, 1263
101181, 1199, 1200, 1265, 1264
101182, 1200, 1201, 1266, 1265
101183, 1201, 1202, 1267, 1266
101184, 1202, 1203, 1268, 1267
101185, 1203, 1204, 1269, 1268
101186, 1204, 1205, 1270, 1269
101187, 1205, 1206, 1271, 1270
101188, 1206, 1207, 1272, 1271
101189, 1207, 1208, 1273, 1272
101190, 1208, 1209, 1274, 1273
101191, 1209, 1210, 1275, 1274
101192, 1210, 1211, 1276, 1275
101193, 1211, 1212, 1277, 1276
101194, 1212, 1213, 1278, 1277
101195, 1213, 1214, 1279, 1278
101196, 1214, 1215, 1280, 1279
101197, 1215, 1216, 1281, 1280
101198, 1216, 1217, 1282, 1281
101199, 1217, 1218, 1283, 1282
101200, 1218, 1219, 1284, 1283
101201, 1219, 1220, 1285, 1284
101202, 1220, 1221, 1286, 1285
101203, 1221, 1222, 1287, 1286
101204, 1222, 1223, 1288, 1287
101205, 1223, 1224, 1289, 1288
101206, 1224, 1225, 1290, 1289
101207, 1225, 1226, 1291, 1290
101208, 1226, 1227, 1292, 1291
101209, 1227, 1228, 1293, 1292
101210, 1228, 1229, 1294, 1293
101211, 1229, 1230, 1295, 1294
101212, 1230, 1231, 1296, 1295
101213, 1231, 1232, 1297, 1296
101214, 1232, 1233, 1298, 1297
101215, 1233, 1234, 1299, 1298
101216, 1234, 1235, 1300, 1299
101217, 1236, 1237, 1302, 1301
101218, 1237, 1238, 1303, 1302
101219, 1238, 1239, 1304, 1303
101220, 1239, 1240, 1305, 1304
101221, 1240, 1241, 1306, 1305
101222, 1241, 1242, 1307, 1306
101223, 1242, 1243, 1308, 1307
101224, 1243, 1244, 1309, 1308
101225, 1244, 1245, 1310, 1309
101226, 1245, 1246, 1311, 1310
101227, 1246, 1247, 1312, 1311
101228, 1247, 1248, 1313, 1312
101229, 1248, 1249, 1314, 1313
101230, 1249, 1250, 1315, 1314
101231, 1250, 1251, 1316, 1315
101232, 1251, 1252, 1317, 1316
101233, 1252, 1253, 1318, 1317
101234, 1253, 1254, 1319, 1318
101235, 1254, 1255, 1320, 1319
101236, 1255, 1256, 1321, 1320
101237, 1256, 1257, 1322, 1321
101238, 1257, 1258, 1323, 1322
101239, 1258, 1259, 1324, 1323
101240, 1259, 1260, 1325, 1324
101241, 1260, 1261, 1326, 1325
101242, 1261, 1262, 1327, 1326
101243, 1262, 1263, 1328, 1327
101244, 1263, 1264, 1329, 1328
101245, 1264, 1265, 1330, 1329
101246, 1265, 1266, 1331, 1330
101247, 1266, 1267, 1332, 1331
101248, 1267, 1268, 1333, 1332
101249, 1268, 1269, 1334, 1333
101250, 1269, 1270, 1335, 1334
101251, 1270, 1271, 1336, 1335
101252, 1271, 1272, 1337, 1336
101253, 1272, 1273, 1338, 1337
101254, 1273, 1274, 1339, 1338
101255, 1274, 1275, 1340, 1339
101256, 1275, 1276, 1341, 1340
101257, 1276, 1277, 1342, 1341
101258, 1277, 1278, 1343, 1342
101259, 1278, 1279, 1344, 1343
101260, 1279, 1280, 1345, 1344
101261, 1280, 1281, 1346, 1345
101262, 1281, 1282, 1347, 1346
101263, 1282, 1283, 1348, 1347
101264, 1283, 1284, 1349, 1348
101265, 1284, 1285, 1350, 1349
101266, 1285, 1286, 1351, 1350
101267, 1286, 1287, 1352, 1351
101268, 1287, 1288, 1353, 1352
101269, 1288, 1289, 1354, 1353
101270, 1289, 1290, 1355, 1354
101271, 1290, 1291, 1356, 1355
101272, 1291, 1292, 1357, 1356
101273, 1292, 1293, 1358, 1357
101274, 1293, 1294, 1359, 1358
101275, 1294, 1295, 1360, 1359
101276, 1295, 1296, 1361, 1360
101277, 1296, 1297, 1362, 1361
101278, 1297, 1298, 1363, 1362
101279, 1298, 1299, 1364, 1363
101280, 1299, 1300, 1365, 1364
101281, 1301, 1302, 1367, 1366
101282, 1302, 1303, 1368, 1367
101283, 1303, 1304, 1369, 1368
101284, 1304, 1305, 1370, 1369
101285, 1305, 1306, 1371, 1370
101286, 1306, 1307, 1372, 1371
101287, 1307, 1308, 1373, 1372
101288, 1308, 1309, 1374, 1373
101289, 1309, 1310, 1375, 1374
101290, 1310, 1311, 1376, 1375
101291, 1311, 1312, 1377, 1376
101292, 1312, 1313, 1378, 1377
101293, 1313, 1314, 1379, 1378
101294, 1314, 1315, 1380, 1379
101295, 1315, 1316, 1381, 1380
101296, 1316, 1317, 1382, 1381
101297, 1317, 1318, 1383, 1382
101298, 1318, 1319, 1384, 1383
101299, 1319, 1320, 1385, 1384
101300, 1320, 1321, 1386, 1385
101301, 1321, 1322, 1387, 1386
101302, 1322, 1323, 1388, 1387
101303, 1323, 1324, 1389, 1388
101304, 1324, 1325, 1390, 1389
101305, 1325, 1326, 1391, 1390
101306, 1326, 1327, 1392, 1391
101307, 1327, 1328, 1393, 1392
101308, 1328, 1329, 1394, 1393
101309, 1329, 1330, 1395, 1394
101310, 1330, 1331, 1396, 1395
101311, 1331, 1332, 1397, 1396
101312, 1332, 1333, 1398, 1397
101313, 1333, 1334, 1399, 1398
101314, 1334, 1335, 1400, 1399
101315, 1335, 1336, 1401, 1400
101316, 1336, 1337, 1402, 1401
101317, 1337, 1338, 1403, 1402
101318, 1338, 1339, 1404, 1403
101319, 1339, 1340, 1405, 1404
101320, 1340, 1341, 1406, 1405
101321, 1341, 1342, 1407, 1406
101322, 1342, 1343, 1408, 1407
101323, 1343, 1344, 1409, 1408
101324, 1344, 1345, 1410, 1409
101325, 1345, 1346, 1411, 1410
101326, 1346, 1347, 1412, 1411
101327, 1347, 1348, 1413, 1412
101328, 1348, 1349, 1414, 1413
101329, 1349, 1350, 1415, 1414
101330, 1350, 1351, 1416, 1415
101331, 1351, 1352, 1417, 1416
101332, 1352, 1353, 1418, 1417
101333, 1353, 1354, 1419, 1418
101334, 1354, 1355, 1420, 1419
101335, 1355, 1356, 1421, 1420
101336, 1356, 1357, 1422, 1421
101337, 1357, 1358, 1423, 1422
101338, 1358, 1359, 1424, 1423
101339, 1359, 1360, 1425, 1424
101340, 1360, 1361, 1426, 1425
101341, 1361, 1362, 1427, 1426
101342, 1362, 1363, 1428, 1427
101343, 1363, 1364, 1429, 1428
101344, 1364, 1365, 1430, 1429
101345, 1366, 1367, 1432, 1431
101346, 1367, 1368, 1433, 1432
101347, 1368, 1369, 1434, 1433
101348, 1369, 1370, 1435, 1434
101349, 1370, 1371, 1436, 1435
101350, 1371, 1372, 1437, 1436
101351, 1372, 1373, 1438, 1437
101352, 1373, 1374, 1439, 1438
101353, 1374, 1375, 1440, 1439
101354, 1375, 1376, 1441, 1440
101355, 1376, 1377, 1442, 1441
101356, 1377, 1378, 1443, 1442
101357, 1378, 1379, 1444, 1443
101358, 1379, 1380, 1445, 1444
101359, 1380, 1381, 1446, 1445
101360, 1381, 1382, 1447, 1446
101361, 1382, 1383, 1448, 1447
101362, 1383, 1384, 1449, 1448
101363, 1384, 1385, 1450, 1449
101364, 1385, 1386, 1451, 1450
101365, 1386, 1387, 1452, 1451
101366, 1387, 1388, 1453, 1452
101367, 1388, 1389, 1454, 1453
101368, 1389, 1390, 1455, 1454
101369, 1390, 1391, 1456, 1455
101370, 1391, 1392, 1457, 1456
101371, 1392, 1393, 1458, 1457
101372, 1393, 1394, 1459, 1458
101373, 1394, 1395, 1460, 1459
101374, 1395, 1396, 1461, 1460
101375, 1396, 1397, 1462, 1461
101376, 1397, 1398, 1463, 1462
101377, 1398, 1399, 1464, 1463
101378, 1399, 1400, 1465, 1464
101379, 1400, 1401, 1466, 1465
101380, 1401, 1402, 1467, 1466
101381, 1402, 1403, 1468, 1467
101382, 1403, 1404, 1469, 1468
101383, 1404, 1405, 1470, 1469
101384, 1405, 1406, 1471, 1470
101385, 1406, 1407, 1472, 1471
101386, 1407, 1408, 1473, 1472
101387, 1408, 1409, 1474, 1473
101388, 1409, 1410, 1475, 1474
101389, 1410, 1411, 1476, 1475
101390, 1411, 1412, 1477, 1476
101391, 1412, 1413, 1478, 1477
101392, 1413, 1414, 1479, 1478
101393, 1414, 1415, 1480, 1479
101394, 1415, 1416, 1481, 1480
101395, 1416, 1417, 1482, 1481
101396, 1417, 1418, 1483, 1482
101397, 1418, 1419, 1484, 1483
101398, 1419, 1420, 1485, 1484
101399, 1420, 1421, 1486, 1485
101400, 1421, 1422, 1487, 1486
101401, 1422, 1423, 1488, 1487
101402, 1423, 1424, 1489, 1488
101403, 1424, 1425, 1490, 1489
101404, 1425, 1426, 1491, 1490
101405, 1426, 1427, 1492, 1491
101406, 1427, 1428, 1493, 1492
101407, 1428, 1429, 1494, 1493
101408, 1429, 1430, 1495, 1494
101409, 1431, 1432, 1497, 1496
101410, 1432, 1433, 1498, 1497
101411, 1433, 1434, 1499, 1498
101412, 1434, 1435, 1500, 1499
101413, 1435, 1436, 1501, 1500
101414, 1436, 1437, 1502, 1501
101415, 1437, 1438, 1503, 1502
101416, 1438, 1439, 1504, 1503
101417, 1439, 1440, 1505, 1504
101418, 1440, 1441, 1506, 1505
101419, 1441, 1442, 1507, 1506
101420, 1442, 1443, 1508, 1507
101421, 1443, 1444, 1509, 1508
101422, 1444, 1445, 1510, 1509
101423, 1445, 1446, 1511, 1510
101424, 1446, 1447, 1512, 1511
101425, 1447, 1448, 1513, 1512
101426, 1448, 1449, 1514, 1513
101427, 1449, 1450, 1515, 1514
101428, 1450, 1451, 1516, 1515
101429, 1451, 1452, 1517, 1516
101430, 1452, 1453, 1518, 1517
101431, 1453, 1454, 1519, 1518
101432, 1454, 1455, 1520, 1519
101433, 1455, 1456, 1521, 1520
101434, 1456, 1457, 1522, 1521
101435, 1457, 1458, 1523, 1522
101436, 1458, 1459, 1524, 1523
101437, 1459, 1460, 1525, 1524
101438, 1460, 1461, 1526, 1525
101439, 1461, 1462, 1527, 1526
101440, 1462, 1463, 1528, 1527
101441, 1463, 1464, 1529, 1528
101442, 1464, 1465, 1530, 1529
101443, 1465, 1466, 1531, 1530
101444, 1466, 1467, 1532, 1531
101445, 1467, 1468, 1533, 1532
101446, 1468, 1469, 1534, 1533
101447, 1469, 1470, 1535, 1534
101448, 1470, 1471, 1536, 1535
101449, 1471, 1472, 1537, 1536
101450, 1472, 1473, 1538, 1537
101451, 1473, 1474, 1539, 1538
101452, 1474, 1475, 1540, 1539
101453, 1475, 1476, 1541, 1540
101454, 1476, 1477, 1542, 1541
101455, 1477, 1478, 1543, 1542
101456, 1478, 1479, 1544, 1543
101457, 1479, 1480, 1545, 1544
101458, 1480, 1481, 1546, 1545
101459, 1481, 1482, 1547, 1546
101460, 1482, 1483, 1548, 1547
101461, 1483, 1484, 1549, 1548
101462, 1484, 1485, 1550, 1549
101463, 1485, 1486, 1551, 1550
101464, 1486, 1487, 1552, 1551
101465, 1487, 1488, 1553, 1552
101466, 1488, 1489, 1554, 1553
101467, 1489, 1490, 1555, 1554
101468, 1490, 1491, 1556, 1555
101469, 1491, 1492, 1557, 1556
101470, 1492, 1493, 1558, 1557
101471, 1493, 1494, 1559, 1558
101472, 1494, 1495, 1560, 1559
101473, 1496, 1497, 1562, 1561
101474, 1497, 1498, 1563, 1562
101475, 1498, 1499, 1564, 1563
101476, 1499, 1500, 1565, 1564
101477, 1500, 1501, 1566, 1565
101478, 1501, 1502, 1567, 1566
101479, 1502, 1503, 1568, 1567
101480, 1503, 1504, 1569, 1568
101481, 1504, 1505, 1570, 1569
101482, 1505, 1506, 1571, 1570
101483, 1506, 1507, 1572, 1571
101484, 1507, 1508, 1573, 1572
101485, 1508, 1509, 1574, 1573
101486, 1509, 1510, 1575, 1574
101487, 1510, 1511, 1576, 1575
101488, 1511, 1512, 1577, 1576
101489, 1512, 1513, 1578, 1577
101490, 1513, 1514, 1579, 1578
101491, 1514, 1515, 1580, 1579
101492, 1515, 1516, 1581, 1580
101493, 1516, 1517, 1582, 1581
101494, 1517, 1518, 1583, 1582
101495, 1518, 1519, 1584, 1583
101496, 1519, 1520, 1585, 1584
101497, 1520, 1521, 1586, 1585
101498, 1521, 1522, 1587, 1586
101499, 1522, 1523, 1588, 1587
101500, 1523, 1524, 1589, 1588
101501, 1524, 1525, 1590, 1589
101502, 1525, 1526, 1591, 1590
101503, 1526, 1527, 1592, 1591
101504, 1527, 1528, 1593, 1592
101505, 1528, 1529, 1594, 1593
101506, 1529, 1530, 1595, 1594
101507, 1530, 1531, 1596, 1595
101508, 1531, 1532, 1597, 1596
101509, 1532, 1533, 1598, 1597
101510, 1533, 1534, 1599, 1598
101511, 1534, 1535, 1600, 1599
101512, 1535, 1536, 1601, 1600
101513, 1536, 1537, 1602, 1601
101514, 1537, 1538, 1603, 1602
101515, 1538, 1539, 1604, 1603
101516, 1539, 1540, 1605, 1604
101517, 1540, 1541, 1606, 1605
101518, 1541, 1542, 1607, 1606
101519, 1542, 1543, 1608, 1607
101520, 1543, 1544, 1609, 1608
101521, 1544, 1545, 1610, 1609
101522, 1545, 1546, 1611, 1610
101523, 1546, 1547, 1612, 1611
101524, 1547, 1548, 1613, 1612
101525, 1548, 1549, 1614, 1613
101526, 1549, 1550, 1615, 1614
101527, 1550, 1551, 1616, 1615
101528, 1551, 1552, 1617, 1616
101529, 1552, 1553, 1618, 1617
101530, 1553, 1554, 1619, 1618
101531, 1554, 1555, 1620, 1619
101532, 1555, 1556, 1621, 1620
101533, 1556, 1557, 1622, 1621
101534, 1557, 1558, 1623, 1622
101535, 1558, 1559, 1624, 1623
101536, 1559, 1560, 1625, 1624
101537, 1561, 1562, 1627, 1626
101538, 1562, 1563, 1628, 1627
101539, 1563, 1564, 1629, 1628
101540, 1564, 1565, 1630, 1629
101541, 1565, 1566, 1631, 1630
101542, 1566, 1567, 1632, 1631
101543, 1567, 1568, 1633, 1632
101544, 1568, 1569, 1634, 1633
101545, 1569, 1570, 1635, 1634
101546, 1570, 1571, 1636, 1635
101547, 1571, 1572, 1637, 1636
101548, 1572, 1573, 1638, 1637
101549, 1573, 1574, 1639, 1638
101550, 1574, 1575, 1640, 1639
101551, 1575, 1576, 1641, 1640
101552, 1576, 1577, 1642, 1641
101553, 1577, 1578, 1643, 1642
101554, 1578, 1579, 1644, 1643
101555, 1579, 1580, 1645, 1644
101556, 1580, 1581, 1646, 1645
101557, 1581, 1582, 1647, 1646
101558, 1582, 1583, 1648, 1647
101559, 1583, 1584, 1649, 1648
101560, 1584, 1585, 1650, 1649
101561, 1585, 1586, 1651, 1650
101562, 1586, 1587, 1652, 1651
101563, 1587, 1588, 1653, 1652
101564, 1588, 1589, 1654, 1653
101565, 1589, 1590, 1655, 1654
101566, 1590, 1591, 1656, 1655
101567, 1591, 1592, 1657, 1656
101568, 1592, 1593, 1658, 1657
101569, 1593, 1594, 1659, 1658
101570, 1594, 1595, 1660, 1659
101571, 1595, 1596, 1661, 1660
101572, 1596, 1597, 1662, 1661
101573, 1597, 1598, 1663, 1662
101574, 1598, 1599, 1664, 1663
101575, 1599, 1600, 1665, 1664
101576, 1600, 1601, 1666, 1665
101577, 1601, 1602, 1667, 1666
101578, 1602, 1603, 1668, 1667
101579, 1603, 1604, 1669, 1668
101580, 1604, 1605, 1670, 1669
101581, 1605, 1606, 1671, 1670
101582, 1606, 1607, 1672, 1671
101583, 1607, 1608, 1673, 1672
101584, 1608, 1609, 1674, 1673
101585, 1609, 1610, 1675, 1674
101586, 1610, 1611, 1676, 1675
101587, 1611, 1612, 1677, 1676
101588, 1612, 1613, 1678, 1677
101589, 1613, 1614, 1679, 1678
101590, 1614, 1615, 1680, 1679
101591, 1615, 1616, 1681, 1680
101592, 1616, 1617, 1682, 1681
101593, 1617, 1618, 1683, 1682
101594, 1618, 1619, 1684, 1683
101595, 1619, 1620, 1685, 1684
101596, 1620, 1621, 1686, 1685
101597, 1621, 1622, 1687, 1686
101598, 1622, 1623, 1688, 1687
101599, 1623, 1624, 1689, 1688
101600, 1624, 1625, 1690, 1689
101601, 1626, 1627, 1692, 1691
101602, 1627, 1628, 1693, 1692
101603, 1628, 1629, 1694, 1693
101604, 1629, 1630, 1695, 1694
101605, 1630, 1631, 1696, 1695
101606, 1631, 1632, 1697, 1696
101607, 1632, 1633, 1698, 1697
101608, 1633, 1634, 1699, 1698
101609, 1634, 1635, 1700, 1699
101610, 1635, 1636, 1701, 1700
101611, 1636, 1637, 1702, 1701
101612, 1637, 1638, 1703, 1702
101613, 1638, 1639, 1704, 1703
101614, 1639, 1640, 1705, 1704
101615, 1640, 1641, 1706, 1705
101616, 1641, 1642, 1707, 1706
101617, 1642, 1643, 1708, 1707
101618, 1643, 1644, 1709, 1708
101619, 1644, 1645, 1710, 1709
101620, 1645, 1646, 1711, 1710
101621, 1646, 1647, 1712, 1711
101622, 1647, 1648, 1713, 1712
101623, 1648, 1649, 1714, 1713
101624, 1649, 1650, 1715, 1714
101625, 1650, 1651, 1716, 1715
101626, 1651, 1652, 1717, 1716
101627, 1652, 1653, 1718, 1717
101628, 1653, 1654, 1719, 1718
101629, 1654, 1655, 1720, 1719
101630, 1655, 1656, 1721, 1720
101631, 1656, 1657, 1722, 1721
101632, 1657, 1658, 1723, 1722
101633, 1658, 1659, 1724, 1723
101634, 1659, 1660, 1725, 1724
101635, 1660, 1661, 1726, 1725
101636, 1661, 1662, 1727, 1726
101637, 1662, 1663, 1728, 1727
101638, 1663, 1664, 1729, 1728
101639, 1664, 1665, 1730, 1729
101640, 1665, 1666, 1731, 1730
101641, 1666, 1667, 1732, 1731
101642, 1667, 1668, 1733, 1732
101643, 1668, 1669, 1734, 1733
101644, 1669, 1670, 1735, 1734
101645, 1670, 1671, 1736, 1735
101646, 1671, 1672, 1737, 1736
101647, 1672, 1673, 1738, 1737
101648, 1673, 1674, 1739, 1738
101649, 1674, 1675, 1740, 1739
101650, 1675, 1676, 1741, 1740
101651, 1676, 1677, 1742, 1741
101652, 1677, 1678, 1743, 1742
101653, 1678, 1679, 1744, 1743
101654, 1679, 1680, 1745, 1744
101655, 1680, 1681, 1746, 1745
101656, 1681, 1682, 1747, 1746
101657, 1682, 1683, 1748, 1747
101658, 1683, 1684, 1749, 1748
101659, 1684, 1685, 1750, 1749
101660, 1685, 1686, 1751, 1750
101661, 1686, 1687, 1752, 1751
101662, 1687, 1688, 1753, 1752
101663, 1688, 1689, 1754, 1753
101664, 1689, 1690, 1755, 1754
101665, 1691, 1692, 1757, 1756
101666, 1692, 1693, 1758, 1757
101667, 1693, 1694, 1759, 1758
101668, 1694, 1695, 1760, 1759
101669, 1695, 1696, 1761, 1760
101670, 1696, 1697, 1762, 1761
101671, 1697, 1698, 1763, 1762
101672, 1698, 1699, 1764, 1763
101673, 1699, 1700, 1765, 1764
101674, 1700, 1701, 1766, 1765
101675, 1701, 1702, 1767, 1766
101676, 1702, 1703, 1768, 1767
101677, 1703, 1704, 1769, 1768
101678, 1704, 1705, 1770, 1769
101679, 1705, 1706, 1771, 1770
101680, 1706, 1707, 1772, 1771
101681, 1707, 1708, 1773, 1772
101682, 1708, 1709, 1774, 1773
101683, 1709, 1710, 1775, 1774
101684, 1710, 1711, 1776, 1775
101685, 1711, 1712, 1777, 1776
101686, 1712, 1713, 1778, 1777
101687, 1713, 1714, 1779, 1778
101688, 1714, 1715, 1780, 1779
101689, 1715, 1716, 1781, 1780
101690, 1716, 1717, 1782, 1781
101691, 1717, 1718, 1783, 1782
101692, 1718, 1719, 1784, 1783
101693, 1719, 1720, 1785, 1784
101694, 1720, 1721, 1786, 1785
101695, 1721, 1722, 1787, 1786
101696, 1722, 1723, 1788, 1787
101697, 1723, 1724, 1789, 1788
101698, 1724, 1725, 1790, 1789
101699, 1725, 1726, 1791, 1790
101700, 1726, 1727, 1792, 1791
101701, 1727, 1728, 1793, 1792
101702, 1728, 1729, 1794, 1793
101703, 1729, 1730, 1795, 1794
101704, 1730, 1731, 1796, 1795
101705, 1731, 1732, 1797, 1796
101706, 1732, 1733, 1798, 1797
101707, 1733, 1734, 1799, 1798
101708, 1734, 1735, 1800, 1799
101709, 1735, 1736, 1801, 1800
101710, 1736, 1737, 1802, 1801
101711, 1737, 1738, 1803, 1802
101712, 1738, 1739, 1804, 1803
101713, 1739, 1740, 1805, 1804
101714, 1740, 1741, 1806, 1805
101715, 1741, 1742, 1807, 1806
101716, 1742, 1743, 1808, 1807
101717, 1743, 1744, 1809, 1808
101718, 1744, 1745, 1810, 1809
101719, 1745, 1746, 1811, 1810
101720, 1746, 1747, 1812, 1811
101721, 1747, 1748, 1813, 1812
101722, 1748, 1749, 1814, 1813
101723, 1749, 1750, 1815, 1814
101724, 1750, 1751, 1816, 1815
101725, 1751, 1752, 1817, 1816
101726, 1752, 1753, 1818, 1817
101727, 1753, 1754, 1819, 1818
101728, 1754, 1755, 1820, 1819
101729, 1756, 1757, 1822, 1821
101730, 1757, 1758, 1823, 1822
101731, 1758, 1759, 1824, 1823
101732, 1759, 1760, 1825, 1824
101733, 1760, 1761, 1826, 1825
101734, 1761, 1762, 1827, 1826
101735, 1762, 1763, 1828, 1827
101736, 1763, 1764, 1829, 1828
101737, 1764, 1765, 1830, 1829
101738, 1765, 1766, 1831, 1830
101739, 1766, 1767, 1832, 1831
101740, 1767, 1768, 1833, 1832
101741, 1768, 1769, 1834, 1833
101742, 1769, 1770, 1835, 1834
101743, 1770, 1771, 1836, 1835
101744, 1771, 1772, 1837, 1836
101745, 1772, 1773, 1838, 1837
101746, 1773, 1774, 1839, 1838
101747, 1774, 1775, 1840, 1839
101748, 1775, 1776, 1841, 1840
101749, 1776, 1777, 1842, 1841
101750, 1777, 1778, 1843, 1842
101751, 1778, 1779, 1844, 1843
101752, 1779, 1780, 1845, 1844
101753, 1780, 1781, 1846, 1845
101754, 1781, 1782, 1847, 1846
101755, 1782, 1783, 1848, 1847
101756, 1783, 1784, 1849, 1848
101757, 1784, 1785, 1850, 1849
101758, 1785, 1786, 1851, 1850
101759, 1786, 1787, 1852, 1851
101760, 1787, 1788, 1853, 1852
101761, 1788, 1789, 1854, 1853
101762, 1789, 1790, 1855, 1854
101763, 1790, 1791, 1856, 1855
101764, 1791, 1792, 1857, 1856
101765, 1792, 1793, 1858, 1857
101766, 1793, 1794, 1859, 1858
101767, 1794, 1795, 1860, 1859
101768, 1795, 1796, 1861, 1860
101769, 1796, 1797, 1862, 1861
101770, 1797, 1798, 1863, 1862
101771, 1798, 1799, 1864, 1863
101772, 1799, 1800, 1865, 1864
101773, 1800, 1801, 1866, 1865
101774, 1801, 1802, 1867, 1866
101775, 1802, 1803, 1868, 1867
101776, 1803, 1804, 1869, 1868
101777, 1804, 1805, 1870, 1869
101778, 1805, 1806, 1871, 1870
101779, 1806, 1807, 1872, 1871
101780, 1807, 1808, 1873, 1872
101781, 1808, 1809, 1874, 1873
101782, 1809, 1810, 1875, 1874
101783, 1810, 1811, 1876, 1875
101784, 1811, 1812, 1877, 1876
101785, 1812, 1813, 1878, 1877
101786, 1813, 1814, 1879, 1878
101787, 1814, 1815, 1880, 1879
101788, 1815, 1816, 1881, 1880
101789, 1816, 1817, 1882, 1881
101790, 1817, 1818, 1883, 1882
101791, 1818, 1819, 1884, 1883
101792, 1819, 1820, 1885, 1884
101793, 1821, 1822, 1887, 1886
101794, 1822, 1823, 1888, 1887
101795, 1823, 1824, 1889, 1888
101796, 1824, 1825, 1890, 1889
101797, 1825, 1826, 1891, 1890
101798, 1826, 1827, 1892, 1891
101799, 1827, 1828, 1893, 1892
101800, 1828, 1829, 1894, 1893
101801, 1829, 1830, 1895, 1894
101802, 1830, 1831, 1896, 1895
101803, 1831, 1832, 1897, 1896
101804, 1832, 1833, 1898, 1897
101805, 1833, 1834, 1899, 1898
101806, 1834, 1835, 1900, 1899
101807, 1835, 1836, 1901, 1900
101808, 1836, 1837, 1902, 1901
101809, 1837, 1838, 1903, 1902
101810, 1838, 1839, 1904, 1903
101811, 1839, 1840, 1905, 1904
101812, 1840, 1841, 1906, 1905
101813, 1841, 1842, 1907, 1906
101814, 1842, 1843, 1908, 1907
101815, 1843, 1844, 1909, 1908
101816, 1844, 1845, 1910, 1909
101817, 1845, 1846, 1911, 1910
101818, 1846, 1847, 1912, 1911
101819, 1847, 1848, 1913, 1912
101820, 1848, 1849, 1914, 1913
101821, 1849, 1850, 1915, 1914
101822, 1850, 1851, 1916, 1915
101823, 1851, 1852, 1917, 1916
101824, 1852, 1853, 1918, 1917
101825, 1853, 1854, 1919, 1918
101826, 1854, 1855, 1920, 1919
101827, 1855, 1856, 1921, 1920
101828, 1856, 1857, 1922, 1921
101829, 1857, 1858, 1923, 1922
101830, 1858, 1859, 1924, 1923
101831, 1859, 1860, 1925, 1924
101832, 1860, 1861, 1926, 1925
101833, 1861, 1862, 1927, 1926
101834, 1862, 1863, 1928, 1927
101835, 1863, 1864, 1929, 1928
101836, 1864, 1865, 1930, 1929
101837, 1865, 1866, 1931, 1930
101838, 1866, 1867, 1932, 1931
101839, 1867, 1868, 1933, 1932
101840, 1868, 1869, 1934, 1933
101841, 1869, 1870, 1935, 1934
101842, 1870, 1871, 1936, 1935
101843, 1871, 1872, 1937, 1936
101844, 1872, 1873, 1938, 1937
101845, 1873, 1874, 1939, 1938
101846, 1874, 1875, 1940, 1939
101847, 1875, 1876, 1941, 1940
101848, 1876, 1877, 1942, 1941
101849, 1877, 1878, 1943, 1942
101850, 1878, 1879, 1944, 1943
101851, 1879, 1880, 1945, 1944
101852, 1880, 1881, 1946, 1945
101853, 1881, 1882, 1947, 1946
101854, 1882, 1883, 1948, 1947
101855, 1883, 1884, 1949, 1948
101856, 1884, 1885, 1950, 1949
101857, 1886, 1887, 1952, 1951
101858, 1887, 1888, 1953, 1952
101859, 1888, 1889, 1954, 1953
101860, 1889, 1890, 1955, 1954
101861, 1890, 1891, 1956, 1955
101862, 1891, 1892, 1957, 1956
101863, 1892, 1893, 1958, 1957
101864, 1893, 1894, 1959, 1958
101865, 1894, 1895, 1960, 1959
101866, 1895, 1896, 1961, 1960
101867, 1896, 1897, 1962, 1961
101868, 1897, 1898, 1963, 1962
101869, 1898, 1899, 1964, 1963
101870, 1899, 1900, 1965, 1964
101871, 1900, 1901, 1966, 1965
101872, 1901, 1902, 1967, 1966
101873, 1902, 1903, 1968, 1967
101874, 1903, 1904, 1969, 1968
101875, 1904, 1905, 1970, 1969
101876, 1905, 1906, 1971, 1970
101877, 1906, 1907, 1972, 1971
101878, 1907, 1908, 1973, 1972
101879, 1908, 1909, 1974, 1973
101880, 1909, 1910, 1975, 1974
101881, 1910, 1911, 1976, 1975
101882, 1911, 1912, 1977, 1976
101883, 1912, 1913, 1978, 1977
101884, 1913, 1914, 1979, 1978
101885, 1914, 1915, 1980, 1979
101886, 1915, 1916, 1981, 1980
101887, 1916, 1917, 1982, 1981
101888, 1917, 1918, 1983, 1982
101889, 1918, 1919, 1984, 1983
101890, 1919, 1920, 1985, 1984
101891, 1920, 1921, 1986, 1985
101892, 1921, 1922, 1987, 1986
101893, 1922, 1923, 1988, 1987
101894, 1923, 1924, 1989, 1988
101895, 1924, 1925, 1990, 1989
101896, 1925, 1926, 1991, 1990
101897, 1926, 1927, 1992, 1991
101898, 1927, 1928, 1993, 1992
101899, 1928, 1929, 1994, 1993
101900, 1929, 1930, 1995, 1994
101901, 1930, 1931, 1996, 1995
101902, 1931, 1932, 1997, 1996
101903, 1932, 1933, 1998, 1997
101904, 1933, 1934, 1999, 1998
101905, 1934, 1935, 2000, 1999
101906, 1935, 1936, 2001, 2000
101907, 1936, 1937, 2002, 2001
101908, 1937, 1938, 2003, 2002
101909, 1938, 1939, 2004, 2003
101910, 1939, 1940, 2005, 2004
101911, 1940, 1941, 2006, 2005
101912, 1941, 1942, 2007, 2006
101913, 1942, 1943, 2008, 2007
101914, 1943, 1944, 2009, 2008
101915, 1944, 1945, 2010, 2009
101916, 1945, 1946, 2011, 2010
101917, 1946, 1947, 2012, 2011
101918, 1947, 1948, 2013, 2012
101919, 1948, 1949, 2014, 2013
101920, 1949, 1950, 2015, 2014
101921, 1951, 1952, 2017, 2016
101922, 1952, 1953, 2018, 2017
101923, 1953, 1954, 2019, 2018
101924, 1954, 1955, 2020, 2019
101925, 1955, 1956, 2021, 2020
101926, 1956, 1957, 2022, 2021
101927, 1957, 1958, 2023, 2022
101928, 1958, 1959, 2024, 2023
101929, 1959, 1960, 2025, 2024
101930, 1960, 1961, 2026, 2025
101931, 1961, 1962, 2027, 2026
101932, 1962, 1963, 2028, 2027
101933, 1963, 1964, 2029, 2028
101934, 1964, 1965, 2030, 2029
101935, 1965, 1966, 2031, 2030
101936, 1966, 1967, 2032, 2031
101937, 1967, 1968, 2033, 2032
101938, 1968, 1969, 2034, 2033
101939, 1969, 1970, 2035, 2034
101940, 1970, 1971, 2036, 2035
101941, 1971, 1972, 2037, 2036
101942, 1972, 1973, 2038, 2037
101943, 1973, 1974, 2039, 2038
101944, 1974, 1975, 2040, 2039
101945, 1975, 1976, 2041, 2040
101946, 1976, 1977, 2042, 2041
101947, 1977, 1978, 2043, 2042
101948, 1978, 1979, 2044, 2043
101949, 1979, 1980, 2045, 2044
101950, 1980, 1981, 2046, 2045
101951, 1981, 1982, 2047, 2046
101952, 1982, 1983, 2048, 2047
101953, 1983, 1984, 2049, 2048
101954, 1984, 1985, 2050, 2049
101955, 1985, 1986, 2051, 2050
101956, 1986, 1987, 2052, 2051
101957, 1987, 1988, 2053, 2052
101958, 1988, 1989, 2054, 2053
101959, 1989, 1990, 2055, 2054
101960, 1990, 1991, 2056, 2055
101961, 1991, 1992, 2057, 2056
101962, 1992, 1993, 2058, 2057
101963, 1993, 1994, 2059, 2058
101964, 1994, 1995, 2060, 2059
101965, 1995, 1996, 2061, 2060
101966, 1996, 1997, 2062, 2061
101967, 1997, 1998, 2063, 2062
101968, 1998, 1999, 2064, 2063
101969, 1999, 2000, 2065, 2064
101970, 2000, 2001, 2066, 2065
101971, 2001, 2002, 2067, 2066
101972, 2002, 2003, 2068, 2067
101973, 2003, 2004, 2069, 2068
101974, 2004, 2005, 2070, 2069
101975, 2005, 2006, 2071, 2070
101976, 2006, 2007, 2072, 2071
101977, 2007, 2008, 2073, 2072
101978, 2008, 2009, 2074, 2073
101979, 2009, 2010, 2075, 2074
101980, 2010, 2011, 2076, 2075
101981, 2011, 2012, 2077, 2076
101982, 2012, 2013, 2078, 2077
101983, 2013, 2014, 2079, 2078
101984, 2014, 2015, 2080, 2079
101985, 2016, 2017, 2082, 2081
101986, 2017, 2018, 2083, 2082
101987, 2018, 2019, 2084, 2083
101988, 2019, 2020, 2085, 2084
101989, 2020, 2021, 2086, 2085
101990, 2021, 2022, 2087, 2086
101991, 2022, 2023, 2088, 2087
101992, 2023, 2024, 2089, 2088
101993, 2024, 2025, 2090, 2089
101994, 2025, 2026, 2091, 2090
101995, 2026, 2027, 2092, 2091
101996, 2027, 2028, 2093, 2092
101997, 2028, 2029, 2094, 2093
101998, 2029, 2030, 2095, 2094
101999, 2030, 2031, 2096, 2095
102000, 2031, 2032, 2097, 2096
102001, 2032, 2033, 2098, 2097
102002, 2033, 2034, 2099, 2098
102003, 2034, 2035, 2100, 2099
102004, 2035, 2036, 2101, 2100
102005, 2036, 2037, 2102, 2101
102006, 2037, 2038, 2103, 2102
102007, 2038, 2039, 2104, 2103
102008, 2039, 2040, 2105, 2104
102009, 2040, 2041, 2106, 2105
102010, 2041, 2042, 2107, 2106
102011, 2042, 2043, 2108, 2107
102012, 2043, 2044, 2109, 2108
102013, 2044, 2045, 2110, 2109
102014, 2045, 2046, 2111, 2110
102015, 2046, 2047, 2112, 2111
102016, 2047, 2048, 2113, 2112
102017, 2048, 2049, 2114, 2113
102018, 2049, 2050, 2115, 2114
102019, 2050, 2051, 2116, 2115
102020, 2051, 2052, 2117, 2116
102021, 2052, 2053, 2118, 2117
102022, 2053, 2054, 2119, 2118
102023, 2054, 2055, 2120, 2119
102024, 2055, 2056, 2121, 2120
102025, 2056, 2057, 2122, 2121
102026, 2057, 2058, 2123, 2122
102027, 2058, 2059, 2124, 2123
102028, 2059, 2060, 2125, 2124
102029, 2060, 2061, 2126, 2125
102030, 2061, 2062, 2127, 2126
102031, 2062, 2063, 2128, 2127
102032, 2063, 2064, 2129, 2128
102033, 2064, 2065, 2130, 2129
102034, 2065, 2066, 2131, 2130
102035, 2066, 2067, 2132, 2131
102036, 2067, 2068, 2133, 2132
102037, 2068, 2069, 2134, 2133
102038, 2069, 2070, 2135, 2134
102039, 2070, 2071, 2136, 2135
102040, 2071, 2072, 2137, 2136
102041, 2072, 2073, 2138, 2137
102042, 2073, 2074, 2139, 2138
102043, 2074, 2075, 2140, 2139
102044, 2075, 2076, 2141, 2140
102045, 2076, 2077, 2142, 2141
102046, 2077, 2078, 2143, 2142
102047, 2078, 2079, 2144, 2143
102048, 2079, 2080, 2145, 2144
102049, 2081, 2082, 2147, 2146
102050, 2082, 2083, 2148, 2147
102051, 2083, 2084, 2149, 2148
102052, 2084, 2085, 2150, 2149
102053, 2085, 2086, 2151, 2150
102054, 2086, 2087, 2152, 2151
102055, 2087, 2088, 2153, 2152
102056, 2088, 2089, 2154, 2153
102057, 2089, 2090, 2155, 2154
102058, 2090, 2091, 2156, 2155
102059, 2091, 2092, 2157, 2156
102060, 2092, 2093, 2158, 2157
102061, 2093, 2094, 2159, 2158
102062, 2094, 2095, 2160, 2159
102063, 2095, 2096, 2161, 2160
102064, 2096, 2097, 2162, 2161
102065, 2097, 2098, 2163, 2162
102066, 2098, 2099, 2164, 2163
102067, 2099, 2100, 2165, 2164
102068, 2100, 2101, 2166, 2165
102069, 2101, 2102, 2167, 2166
102070, 2102, 2103, 2168, 2167
102071, 2103, 2104, 2169, 2168
102072, 2104, 2105, 2170, 2169
102073, 2105, 2106, 2171, 2170
102074, 2106, 2107, 2172, 2171
102075, 2107, 2108, 2173, 2172
102076, 2108, 2109, 2174, 2173
102077, 2109, 2110, 2175, 2174
102078, 2110, 2111, 2176, 2175
102079, 2111, 2112, 2177, 2176
102080, 2112, 2113, 2178, 2177
102081, 2113, 2114, 2179, 2178
102082, 2114, 2115, 2180, 2179
102083, 2115, 2116, 2181, 2180
102084, 2116, 2117, 2182, 2181
102085, 2117, 2118, 2183, 2182
102086, 2118, 2119, 2184, 2183
102087, 2119, 2120, 2185, 2184
102088, 2120, 2121, 2186, 2185
102089, 2121, 2122, 2187, 2186
102090, 2122, 2123, 2188, 2187
102091, 2123, 2124, 2189, 2188
102092, 2124, 2125, 2190, 2189
102093, 2125, 2126, 2191, 2190
102094, 2126, 2127, 2192, 2191
102095, 2127, 2128, 2193, 2192
102096, 2128, 2129, 2194, 2193
102097, 2129, 2130, 2195, 2194
102098, 2130, 2131, 2196, 2195
102099, 2131, 2132, 2197, 2196
102100, 2132, 2133, 2198, 2197
102101, 2133, 2134, 2199, 2198
102102, 2134, 2135, 2200, 2199
102103, 2135, 2136, 2201, 2200
102104, 2136, 2137, 2202, 2201
102105, 2137, 2138, 2203, 2202
102106, 2138, 2139, 2204, 2203
102107, 2139, 2140, 2205, 2204
102108, 2140, 2141, 2206, 2205
102109, 2141, 2142, 2207, 2206
102110, 2142, 2143, 2208, 2207
102111, 2143, 2144, 2209, 2208
102112, 2144, 2145, 2210, 2209
102113, 2146, 2147, 2212, 2211
102114, 2147, 2148, 2213, 2212
102115, 2148, 2149, 2214, 2213
102116, 2149, 2150, 2215, 2214
102117, 2150, 2151, 2216, 2215
102118, 2151, 2152, 2217, 2216
102119, 2152, 2153, 2218, 2217
102120, 2153, 2154, 2219, 2218
102121, 2154, 2155, 2220, 2219
102122, 2155, 2156, 2221, 2220
102123, 2156, 2157, 2222, 2221
102124, 2157, 2158, 2223, 2222
102125, 2158, 2159, 2224, 2223
102126, 2159, 2160, 2225, 2224
102127, 2160, 2161, 2226, 2225
102128, 2161, 2162, 2227, 2226
102129, 2162, 2163, 2228, 2227
102130, 2163, 2164, 2229, 2228
102131, 2164, 2165, 2230, 2229
102132, 2165, 2166, 2231, 2230
102133, 2166, 2167, 2232, 2231
102134, 2167, 2168, 2233, 2232
102135, 2168, 2169, 2234, 2233
102136, 2169, 2170, 2235, 2234
102137, 2170, 2171, 2236, 2235
102138, 2171, 2172, 2237, 2236
102139, 2172, 2173, 2238, 2237
102140, 2173, 2174, 2239, 2238
102141, 2174, 2175, 2240, 2239
102142, 2175, 2176, 2241, 2240
102143, 2176, 2177, 2242, 2241
102144, 2177, 2178, 2243, 2242
102145, 2178, 2179, 2244, 2243
102146, 2179, 2180, 2245, 2244
102147, 2180, 2181, 2246, 2245
102148, 2181, 2182, 2247, 2246
102149, 2182, 2183, 2248, 2247
102150, 2183, 2184, 2249, 2248
102151, 2184, 2185, 2250, 2249
102152, 2185, 2186, 2251, 2250
102153, 2186, 2187, 2252, 2251
102154, 2187, 2188, 2253, 2252
102155, 2188, 2189, 2254, 2253
102156, 2189, 2190, 2255, 2254
102157, 2190, 2191, 2256, 2255
102158, 2191, 2192, 2257, 2256
102159, 2192, 2193, 2258, 2257
102160, 2193, 2194, 2259, 2258
102161, 2194, 2195, 2260, 2259
102162, 2195, 2196, 2261, 2260
102163, 2196, 2197, 2262, 2261
102164, 2197, 2198, 2263, 2262
102165, 2198, 2199, 2264, 2263
102166, 2199, 2200, 2265, 2264
102167, 2200, 2201, 2266, 2265
102168, 2201, 2202, 2267, 2266
102169, 2202, 2203, 2268, 2267
102170, 2203, 2204, 2269, 2268
102171, 2204, 2205, 2270, 2269
102172, 2205, 2206, 2271, 2270
102173, 2206, 2207, 2272, 2271
102174, 2207, 2208, 2273, 2272
102175, 2208, 2209, 2274, 2273
102176, 2209, 2210, 2275, 2274
102177, 2211, 2212, 2277, 2276
102178, 2212, 2213, 2278, 2277
102179, 2213, 2214, 2279, 2278
102180, 2214, 2215, 2280, 2279
102181, 2215, 2216, 2281, 2280
102182, 2216, 2217, 2282, 2281
102183, 2217, 2218, 2283, 2282
102184, 2218, 2219, 2284, 2283
102185, 2219, 2220, 2285, 2284
102186, 2220, 2221, 2286, 2285
102187, 2221, 2222, 2287, 2286
102188, 2222, 2223, 2288, 2287
102189, 2223, 2224, 2289, 2288
102190, 2224, 2225, 2290, 2289
102191, 2225, 2226, 2291, 2290
102192, 2226, 2227, 2292, 2291
102193, 2227, 2228, 2293, 2292
102194, 2228, 2229, 2294, 2293
102195, 2229, 2230, 2295, 2294
102196, 2230, 2231, 2296, 2295
102197, 2231, 2232, 2297, 2296
102198, 2232, 2233, 2298, 2297
102199, 2233, 2234, 2299, 2298
102200, 2234, 2235, 2300, 2299
102201, 2235, 2236, 2301, 2300
102202, 2236, 2237, 2302, 2301
102203, 2237, 2238, 2303, 2302
102204, 2238, 2239, 2304, 2303
102205, 2239, 2240, 2305, 2304
102206, 2240, 2241, 2306, 2305
102207, 2241, 2242, 2307, 2306
102208, 2242, 2243, 2308, 2307
102209, 2243, 2244, 2309, 2308
102210, 2244, 2245, 2310, 2309
102211, 2245, 2246, 2311, 2310
102212, 2246, 2247, 2312, 2311
102213, 2247, 2248, 2313, 2312
102214, 2248, 2249, 2314, 2313
102215, 2249, 2250, 2315, 2314
102216, 2250, 2251, 2316, 2315
102217, 2251, 2252, 2317, 2316
102218, 2252, 2253, 2318, 2317
102219, 2253, 2254, 2319, 2318
102220, 2254, 2255, 2320, 2319
102221, 2255, 2256, 2321, 2320
102222, 2256, 2257, 2322, 2321
102223, 2257, 2258, 2323, 2322
102224, 2258, 2259, 2324, 2323
102225, 2259, 2260, 2325, 2324
102226, 2260, 2261, 2326, 2325
102227, 2261, 2262, 2327, 2326
102228, 2262, 2263, 2328, 2327
102229, 2263, 2264, 2329, 2328
102230, 2264, 2265, 2330, 2329
102231, 2265, 2266, 2331, 2330
102232, 2266, 2267, 2332, 2331
102233, 2267, 2268, 2333, 2332
102234, 2268, 2269, 2334, 2333
102235, 2269, 2270, 2335, 2334
102236, 2270, 2271, 2336, 2335
102237, 2271, 2272, 2337, 2336
102238, 2272, 2273, 2338, 2337
102239, 2273, 2274, 2339, 2338
102240, 2274, 2275, 2340, 2339
102241, 2276, 2277, 2342, 2341
102242, 2277, 2278, 2343, 2342
102243, 2278, 2279, 2344, 2343
102244, 2279, 2280, 2345, 2344
102245, 2280, 2281, 2346, 2345
102246, 2281, 2282, 2347, 2346
102247, 2282, 2283, 2348, 2347
102248, 2283, 2284, 2349, 2348
102249, 2284, 2285, 2350, 2349
102250, 2285, 2286, 2351, 2350
102251, 2286, 2287, 2352, 2351
102252, 2287, 2288, 2353, 2352
102253, 2288, 2289, 2354, 2353
102254, 2289, 2290, 2355, 2354
102255, 2290, 2291, 2356, 2355
102256, 2291, 2292, 2357, 2356
102257, 2292, 2293, 2358, 2357
102258, 2293, 2294, 2359, 2358
102259, 2294, 2295, 2360, 2359
102260, 2295, 2296, 2361, 2360
102261, 2296, 2297, 2362, 2361
102262, 2297, 2298, 2363, 2362
102263, 2298, 2299, 2364, 2363
102264, 2299, 2300, 2365, 2364
102265, 2300, 2301, 2366, 2365
102266, 2301, 2302, 2367, 2366
102267, 2302, 2303, 2368, 2367
102268, 2303, 2304, 2369, 2368
102269, 2304, 2305, 2370, 2369
102270, 2305, 2306, 2371, 2370
102271, 2306, 2307, 2372, 2371
102272, 2307, 2308, 2373, 2372
102273, 2308, 2309, 2374, 2373
102274, 2309, 2310, 2375, 2374
102275, 2310, 2311, 2376, 2375
102276, 2311, 2312, 2377, 2376
102277, 2312, 2313, 2378, 2377
102278, 2313, 2314, 2379, 2378
102279, 2314, 2315, 2380, 2379
102280, 2315, 2316, 2381, 2380
102281, 2316, 2317, 2382, 2381
102282, 2317, 2318, 2383, 2382
102283, 2318, 2319, 2384, 2383
102284, 2319, 2320, 2385, 2384
102285, 2320, 2321, 2386, 2385
102286, 2321, 2322, 2387, 2386
102287, 2322, 2323, 2388, 2387
102288, 2323, 2324, 2389, 2388
102289, 2324, 2325, 2390, 2389
102290, 2325, 2326, 2391, 2390
102291, 2326, 2327, 2392, 2391
102292, 2327, 2328, 2393, 2392
102293, 2328, 2329, 2394, 2393
102294, 2329, 2330, 2395, 2394
102295, 2330, 2331, 2396, 2395
102296, 2331, 2332, 2397, 2396
102297, 2332, 2333, 2398, 2397
102298, 2333, 2334, 2399, 2398
102299, 2334, 2335, 2400, 2399
102300, 2335, 2336, 2401, 2400
102301, 2336, 2337, 2402, 2401
102302, 2337, 2338, 2403, 2402
102303, 2338, 2339, 2404, 2403
102304, 2339, 2340, 2405, 2404
102305, 2341, 2342, 2407, 2406
102306, 2342, 2343, 2408, 2407
102307, 2343, 2344, 2409, 2408
102308, 2344, 2345, 2410, 2409
102309, 2345, 2346, 2411, 2410
102310, 2346, 2347, 2412, 2411
102311, 2347, 2348, 2413, 2412
102312, 2348, 2349, 2414, 2413
102313, 2349, 2350, 2415, 2414
102314, 2350, 2351, 2416, 2415
102315, 2351, 2352, 2417, 2416
102316, 2352, 2353, 2418, 2417
102317, 2353, 2354, 2419, 2418
102318, 2354, 2355, 2420, 2419
102319, 2355, 2356, 2421, 2420
102320, 2356, 2357, 2422, 2421
102321, 2357, 2358, 2423, 2422
102322, 2358, 2359, 2424, 2423
102323, 2359, 2360, 2425, 2424
102324, 2360, 2361, 2426, 2425
102325, 2361, 2362, 2427, 2426
102326, 2362, 2363, 2428, 2427
102327, 2363, 2364, 2429, 2428
102328, 2364, 2365, 2430, 2429
102329, 2365, 2366, 2431, 2430
102330, 2366, 2367, 2432, 2431
102331, 2367, 2368, 2433, 2432
102332, 2368, 2369, 2434, 2433
102333, 2369, 2370, 2435, 2434
102334, 2370, 2371, 2436, 2435
102335, 2371, 2372, 2437, 2436
102336, 2372, 2373, 2438, 2437
102337, 2373, 2374, 2439, 2438
102338, 2374, 2375, 2440, 2439
102339, 2375, 2376, 2441, 2440
102340, 2376, 2377, 2442, 2441
102341, 2377, 2378, 2443, 2442
102342, 2378, 2379, 2444, 2443
102343, 2379, 2380, 2445, 2444
102344, 2380, 2381, 2446, 2445
102345, 2381, 2382, 2447, 2446
102346, 2382, 2383, 2448, 2447
102347, 2383, 2384, 2449, 2448
102348, 2384, 2385, 2450, 2449
102349, 2385, 2386, 2451, 2450
102350, 2386, 2387, 2452, 2451
102351, 2387, 2388, 2453, 2452
102352, 2388, 2389, 2454, 2453
102353, 2389, 2390, 2455, 2454
102354, 2390, 2391, 2456, 2455
102355, 2391, 2392, 2457, 2456
102356, 2392, 2393, 2458, 2457
102357, 2393, 2394, 2459, 2458
102358, 2394, 2395, 2460, 2459
102359, 2395, 2396, 2461, 2460
102360, 2396, 2397, 2462, 2461
102361, 2397, 2398, 2463, 2462
102362, 2398, 2399, 2464, 2463
102363, 2399, 2400, 2465, 2464
102364, 2400, 2401, 2466, 2465
102365, 2401, 2402, 2467, 2466
102366, 2402, 2403, 2468, 2467
102367, 2403, 2404, 2469, 2468
102368, 2404, 2405, 2470, 2469
102369, 2406, 2407, 2472, 2471
102370, 2407, 2408, 2473, 2472
102371, 2408, 2409, 2474, 2473
102372, 2409, 2410, 2475, 2474
102373, 2410, 2411, 2476, 2475
102374, 2411, 2412, 2477, 2476
102375, 2412, 2413, 2478, 2477
102376, 2413, 2414, 2479, 2478
102377, 2414, 2415, 2480, 2479
102378, 2415, 2416, 2481, 2480
102379, 2416, 2417, 2482, 2481
102380, 2417, 2418, 2483, 2482
102381, 2418, 2419, 2484, 2483
102382, 2419, 2420, 2485, 2484
102383, 2420, 2421, 2486, 2485
102384, 2421, 2422, 2487, 2486
102385, 2422, 2423, 2488, 2487
102386, 2423, 2424, 2489, 2488
102387, 2424, 2425, 2490, 2489
102388, 2425, 2426, 2491, 2490
102389, 2426, 2427, 2492, 2491
102390, 2427, 2428, 2493, 2492
102391, 2428, 2429, 2494, 2493
102392, 2429, 2430, 2495, 2494
102393, 2430, 2431, 2496, 2495
102394, 2431, 2432, 2497, 2496
102395, 2432, 2433, 2498, 2497
102396, 2433, 2434, 2499, 2498
102397, 2434, 2435, 2500, 2499
102398, 2435, 2436, 2501, 2500
102399, 2436, 2437, 2502, 2501
102400, 2437, 2438, 2503, 2502
102401, 2438, 2439, 2504, 2503
102402, 2439, 2440, 2505, 2504
102403, 2440, 2441, 2506, 2505
102404, 2441, 2442, 2507, 2506
102405, 2442, 2443, 2508, 2507
102406, 2443, 2444, 2509, 2508
102407, 2444, 2445, 2510, 2509
102408, 2445, 2446, 2511, 2510
102409, 2446, 2447, 2512, 2511
102410, 2447, 2448, 2513, 2512
102411, 2448, 2449, 2514, 2513
102412, 2449, 2450, 2515, 2514
102413, 2450, 2451, 2516, 2515
102414, 2451, 2452, 2517, 2516
102415, 2452, 2453, 2518, 2517
102416, 2453, 2454, 2519, 2518
102417, 2454, 2455, 2520, 2519
102418, 2455, 2456, 2521, 2520
102419, 2456, 2457, 2522, 2521
102420, 2457, 2458, 2523, 2522
102421, 2458, 2459, 2524, 2523
102422, 2459, 2460, 2525, 2524
102423, 2460, 2461, 2526, 2525
102424, 2461, 2462, 2527, 2526
102425, 2462, 2463, 2528, 2527
102426, 2463, 2464, 2529, 2528
102427, 2464, 2465, 2530, 2529
102428, 2465, 2466, 2531, 2530
102429, 2466, 2467, 2532, 2531
102430, 2467, 2468, 2533, 2532
102431, 2468, 2469, 2534, 2533
102432, 2469, 2470, 2535, 2534
102433, 2471, 2472, 2537, 2536
102434, 2472, 2473, 2538, 2537
102435, 2473, 2474, 2539, 2538
102436, 2474, 2475, 2540, 2539
102437, 2475, 2476, 2541, 2540
102438, 2476, 2477, 2542, 2541
102439, 2477, 2478, 2543, 2542
102440, 2478, 2479, 2544, 2543
102441, 2479, 2480, 2545, 2544
102442, 2480, 2481, 2546, 2545
102443, 2481, 2482, 2547, 2546
102444, 2482, 2483, 2548, 2547
102445, 2483, 2484, 2549, 2548
102446, 2484, 2485, 2550, 2549
102447, 2485, 2486, 2551, 2550
102448, 2486, 2487, 2552, 2551
102449, 2487, 2488, 2553, 2552
102450, 2488, 2489, 2554, 2553
102451, 2489, 2490, 2555, 2554
102452, 2490, 2491, 2556, 2555
102453, 2491, 2492, 2557, 2556
102454, 2492, 2493, 2558, 2557
102455, 2493, 2494, 2559, 2558
102456, 2494, 2495, 2560, 2559
102457, 2495, 2496, 2561, 2560
102458, 2496, 2497, 2562, 2561
102459, 2497, 2498, 2563, 2562
102460, 2498, 2499, 2564, 2563
102461, 2499, 2500, 2565, 2564
102462, 2500, 2501, 2566, 2565
102463, 2501, 2502, 2567, 2566
102464, 2502, 2503, 2568, 2567
102465, 2503, 2504, 2569, 2568
102466, 2504, 2505, 2570, 2569
102467, 2505, 2506, 2571, 2570
102468, 2506, 2507, 2572, 2571
102469, 2507, 2508, 2573, 2572
102470, 2508, 2509, 2574, 2573
102471, 2509, 2510, 2575, 2574
102472, 2510, 2511, 2576, 2575
102473, 2511, 2512, 2577, 2576
102474, 2512, 2513, 2578, 2577
102475, 2513, 2514, 2579, 2578
102476, 2514, 2515, 2580, 2579
102477, 2515, 2516, 2581, 2580
102478, 2516, 2517, 2582, 2581
102479, 2517, 2518, 2583, 2582
102480, 2518, 2519, 2584, 2583
102481, 2519, 2520, 2585, 2584
102482, 2520, 2521, 2586, 2585
102483, 2521, 2522, 2587, 2586
102484, 2522, 2523, 2588, 2587
102485, 2523, 2524, 2589, 2588
102486, 2524, 2525, 2590, 2589
102487, 2525, 2526, 2591, 2590
102488, 2526, 2527, 2592, 2591
102489, 2527, 2528, 2593, 2592
102490, 2528, 2529, 2594, 2593
102491, 2529, 2530, 2595, 2594
102492, 2530, 2531, 2596, 2595
102493, 2531, 2532, 2597, 2596
102494, 2532, 2533, 2598, 2597
102495, 2533, 2534, 2599, 2598
102496, 2534, 2535, 2600, 2599
102497, 2536, 2537, 2602, 2601
102498, 2537, 2538, 2603, 2602
102499, 2538, 2539, 2604, 2603
102500, 2539, 2540, 2605, 2604
102501, 2540, 2541, 2606, 2605
102502, 2541, 2542, 2607, 2606
102503, 2542, 2543, 2608, 2607
102504, 2543, 2544, 2609, 2608
102505, 2544, 2545, 2610, 2609
102506, 2545, 2546, 2611, 2610
102507, 2546, 2547, 2612, 2611
102508, 2547, 2548, 2613, 2612
102509, 2548, 2549, 2614, 2613
102510, 2549, 2550, 2615, 2614
102511, 2550, 2551, 2616, 2615
102512, 2551, 2552, 2617, 2616
102513, 2552, 2553, 2618, 2617
102514, 2553, 2554, 2619, 2618
102515, 2554, 2555, 2620, 2619
102516, 2555, 2556, 2621, 2620
102517, 2556, 2557, 2622, 2621
102518, 2557, 2558, 2623, 2622
102519, 2558, 2559, 2624, 2623
102520, 2559, 2560, 2625, 2624
102521, 2560, 2561, 2626, 2625
102522, 2561, 2562, 2627, 2626
102523, 2562, 2563, 2628, 2627
102524, 2563, 2564, 2629, 2628
102525, 2564, 2565, 2630, 2629
102526, 2565, 2566, 2631, 2630
102527, 2566, 2567, 2632, 2631
102528, 2567, 2568, 2633, 2632
102529, 2568, 2569, 2634, 2633
102530, 2569, 2570, 2635, 2634
102531, 2570, 2571, 2636, 2635
102532, 2571, 2572, 2637, 2636
102533, 2572, 2573, 2638, 2637
102534, 2573, 2574, 2639, 2638
102535, 2574, 2575, 2640, 2639
102536, 2575, 2576, 2641, 2640
102537, 2576, 2577, 2642, 2641
102538, 2577, 2578, 2643, 2642
102539, 2578, 2579, 2644, 2643
102540, 2579, 2580, 2645, 2644
102541, 2580, 2581, 2646, 2645
102542, 2581, 2582, 2647, 2646
102543, 2582, 2583, 2648, 2647
102544, 2583, 2584, 2649, 2648
102545, 2584, 2585, 2650, 2649
102546, 2585, 2586, 2651, 2650
102547, 2586, 2587, 2652, 2651
102548, 2587, 2588, 2653, 2652
102549, 2588, 2589, 2654, 2653
102550, 2589, 2590, 2655, 2654
102551, 2590, 2591, 2656, 2655
102552, 2591, 2592, 2657, 2656
102553, 2592, 2593, 2658, 2657
102554, 2593, 2594, 2659, 2658
102555, 2594, 2595, 2660, 2659
102556, 2595, 2596, 2661, 2660
102557, 2596, 2597, 2662, 2661
102558, 2597, 2598, 2663, 2662
102559, 2598, 2599, 2664, 2663
102560, 2599, 2600, 2665, 2664
102561, 2601, 2602, 2667, 2666
102562, 2602, 2603, 2668, 2667
102563, 2603, 2604, 2669, 2668
102564, 2604, 2605, 2670, 2669
102565, 2605, 2606, 2671, 2670
102566, 2606, 2607, 2672, 2671
102567, 2607, 2608, 2673, 2672
102568, 2608, 2609, 2674, 2673
102569, 2609, 2610, 2675, 2674
102570, 2610, 2611, 2676, 2675
102571, 2611, 2612, 2677, 2676
102572, 2612, 2613, 2678, 2677
102573, 2613, 2614, 2679, 2678
102574, 2614, 2615, 2680, 2679
102575, 2615, 2616, 2681, 2680
102576, 2616, 2617, 2682, 2681
102577, 2617, 2618, 2683, 2682
102578, 2618, 2619, 2684, 2683
102579, 2619, 2620, 2685, 2684
102580, 2620, 2621, 2686, 2685
102581, 2621, 2622, 2687, 2686
102582, 2622, 2623, 2688, 2687
102583, 2623, 2624, 2689, 2688
102584, 2624, 2625, 2690, 2689
102585, 2625, 2626, 2691, 2690
102586, 2626, 2627, 2692, 2691
102587, 2627, 2628, 2693, 2692
102588, 2628, 2629, 2694, 2693
102589, 2629, 2630, 2695, 2694
102590, 2630, 2631, 2696, 2695
102591, 2631, 2632, 2697, 2696
102592, 2632, 2633, 2698, 2697
102593, 2633, 2634, 2699, 2698
102594, 2634, 2635, 2700, 2699
102595, 2635, 2636, 2701, 2700
102596, 2636, 2637, 2702, 2701
102597, 2637, 2638, 2703, 2702
102598, 2638, 2639, 2704, 2703
102599, 2639, 2640, 2705, 2704
102600, 2640, 2641, 2706, 2705
102601, 2641, 2642, 2707, 2706
102602, 2642, 2643, 2708, 2707
102603, 2643, 2644, 2709, 2708
102604, 2644, 2645, 2710, 2709
102605, 2645, 2646, 2711, 2710
102606, 2646, 2647, 2712, 2711
102607, 2647, 2648, 2713, 2712
102608, 2648, 2649, 2714, 2713
102609, 2649, 2650, 2715, 2714
102610, 2650, 2651, 2716, 2715
102611, 2651, 2652, 2717, 2716
102612, 2652, 2653, 2718, 2717
102613, 2653, 2654, 2719, 2718
102614, 2654, 2655, 2720, 2719
102615, 2655, 2656, 2721, 2720
102616, 2656, 2657, 2722, 2721
102617, 2657, 2658, 2723, 2722
102618, 2658, 2659, 2724, 2723
102619, 2659, 2660, 2725, 2724
102620, 2660, 2661, 2726, 2725
102621, 2661, 2662, 2727, 2726
102622, 2662, 2663, 2728, 2727
102623, 2663, 2664, 2729, 2728
102624, 2664, 2665, 2730, 2729
102625, 2666, 2667, 2732, 2731
102626, 2667, 2668, 2733, 2732
102627, 2668, 2669, 2734, 2733
102628, 2669, 2670, 2735, 2734
102629, 2670, 2671, 2736, 2735
102630, 2671, 2672, 2737, 2736
102631, 2672, 2673, 2738, 2737
102632, 2673, 2674, 2739, 2738
102633, 2674, 2675, 2740, 2739
102634, 2675, 2676, 2741, 2740
102635, 2676, 2677, 2742, 2741
102636, 2677, 2678, 2743, 2742
102637, 2678, 2679, 2744, 2743
102638, 2679, 2680, 2745, 2744
102639, 2680, 2681, 2746, 2745
102640, 2681, 2682, 2747, 2746
102641, 2682, 2683, 2748, 2747
102642, 2683, 2684, 2749, 2748
102643, 2684, 2685, 2750, 2749
102644, 2685, 2686, 2751, 2750
102645, 2686, 2687, 2752, 2751
102646, 2687, 2688, 2753, 2752
102647, 2688, 2689, 2754, 2753
102648, 2689, 2690, 2755, 2754
102649, 2690, 2691, 2756, 2755
102650, 2691, 2692, 2757, 2756
102651, 2692, 2693, 2758, 2757
102652, 2693, 2694, 2759, 2758
102653, 2694, 2695, 2760, 2759
102654, 2695, 2696, 2761, 2760
102655, 2696, 2697, 2762, 2761
102656, 2697, 2698, 2763, 2762
102657, 2698, 2699, 2764, 2763
102658, 2699, 2700, 2765, 2764
102659, 2700, 2701, 2766, 2765
102660, 2701, 2702, 2767, 2766
102661, 2702, 2703, 2768, 2767
102662, 2703, 2704, 2769, 2768
102663, 2704, 2705, 2770, 2769
102664, 2705, 2706, 2771, 2770
102665, 2706, 2707, 2772, 2771
102666, 2707, 2708, 2773, 2772
102667, 2708, 2709, 2774, 2773
102668, 2709, 2710, 2775, 2774
102669, 2710, 2711, 2776, 2775
102670, 2711, 2712, 2777, 2776
102671, 2712, 2713, 2778, 2777
102672, 2713, 2714, 2779, 2778
102673, 2714, 2715, 2780, 2779
102674, 2715, 2716, 2781, 2780
102675, 2716, 2717, 2782, 2781
102676, 2717, 2718, 2783, 2782
102677, 2718, 2719, 2784, 2783
102678, 2719, 2720, 2785, 2784
102679, 2720, 2721, 2786, 2785
102680, 2721, 2722, 2787, 2786
102681, 2722, 2723, 2788, 2787
102682, 2723, 2724, 2789, 2788
102683, 2724, 2725, 2790, 2789
102684, 2725, 2726, 2791, 2790
102685, 2726, 2727, 2792, 2791
102686, 2727, 2728, 2793, 2792
102687, 2728, 2729, 2794, 2793
102688, 2729, 2730, 2795, 2794
102689, 2731, 2732, 2797, 2796
102690, 2732, 2733, 2798, 2797
102691, 2733, 2734, 2799, 2798
102692, 2734, 2735, 2800, 2799
102693, 2735, 2736, 2801, 2800
102694, 2736, 2737, 2802, 2801
102695, 2737, 2738, 2803, 2802
102696, 2738, 2739, 2804, 2803
102697, 2739, 2740, 2805, 2804
102698, 2740, 2741, 2806, 2805
102699, 2741, 2742, 2807, 2806
102700, 2742, 2743, 2808, 2807
102701, 2743, 2744, 2809, 2808
102702, 2744, 2745, 2810, 2809
102703, 2745, 2746, 2811, 2810
102704, 2746, 2747, 2812, 2811
102705, 2747, 2748, 2813, 2812
102706, 2748, 2749, 2814, 2813
102707, 2749, 2750, 2815, 2814
102708, 2750, 2751, 2816, 2815
102709, 2751, 2752, 2817, 2816
102710, 2752, 2753, 2818, 2817
102711, 2753, 2754, 2819, 2818
102712, 2754, 2755, 2820, 2819
102713, 2755, 2756, 2821, 2820
102714, 2756, 2757, 2822, 2821
102715, 2757, 2758, 2823, 2822
102716, 2758, 2759, 2824, 2823
102717, 2759, 2760, 2825, 2824
102718, 2760, 2761, 2826, 2825
102719, 2761, 2762, 2827, 2826
102720, 2762, 2763, 2828, 2827
102721, 2763, 2764, 2829, 2828
102722, 2764, 2765, 2830, 2829
102723, 2765, 2766, 2831, 2830
102724, 2766, 2767, 2832, 2831
102725, 2767, 2768, 2833, 2832
102726, 2768, 2769, 2834, 2833
102727, 2769, 2770, 2835, 2834
102728, 2770, 2771, 2836, 2835
102729, 2771, 2772, 2837, 2836
102730, 2772, 2773, 2838, 2837
102731, 2773, 2774, 2839, 2838
102732, 2774, 2775, 2840, 2839
102733, 2775, 2776, 2841, 2840
102734, 2776, 2777, 2842, 2841
102735, 2777, 2778, 2843, 2842
102736, 2778, 2779, 2844, 2843
102737, 2779, 2780, 2845, 2844
102738, 2780, 2781, 2846, 2845
102739, 2781, 2782, 2847, 2846
102740, 2782, 2783, 2848, 2847
102741, 2783, 2784, 2849, 2848
102742, 2784, 2785, 2850, 2849
102743, 2785, 2786, 2851, 2850
102744, 2786, 2787, 2852, 2851
102745, 2787, 2788, 2853, 2852
102746, 2788, 2789, 2854, 2853
102747, 2789, 2790, 2855, 2854
102748, 2790, 2791, 2856, 2855
102749, 2791, 2792, 2857, 2856
102750, 2792, 2793, 2858, 2857
102751, 2793, 2794, 2859, 2858
102752, 2794, 2795, 2860, 2859
102753, 2796, 2797, 2862, 2861
102754, 2797, 2798, 2863, 2862
102755, 2798, 2799, 2864, 2863
102756, 2799, 2800, 2865, 2864
102757, 2800, 2801, 2866, 2865
102758, 2801, 2802, 2867, 2866
102759, 2802, 2803, 2868, 2867
102760, 2803, 2804, 2869, 2868
102761, 2804, 2805, 2870, 2869
102762, 2805, 2806, 2871, 2870
102763, 2806, 2807, 2872, 2871
102764, 2807, 2808, 2873, 2872
102765, 2808, 2809, 2874, 2873
102766, 2809, 2810, 2875, 2874
102767, 2810, 2811, 2876, 2875
102768, 2811, 2812, 2877, 2876
102769, 2812, 2813, 2878, 2877
102770, 2813, 2814, 2879, 2878
102771, 2814, 2815, 2880, 2879
102772, 2815, 2816, 2881, 2880
102773, 2816, 2817, 2882, 2881
102774, 2817, 2818, 2883, 2882
102775, 2818, 2819, 2884, 2883
102776, 2819, 2820, 2885, 2884
102777, 2820, 2821, 2886, 2885
102778, 2821, 2822, 2887, 2886
102779, 2822, 2823, 2888, 2887
102780, 2823, 2824, 2889, 2888
102781, 2824, 2825, 2890, 2889
102782, 2825, 2826, 2891, 2890
102783, 2826, 2827, 2892, 2891
102784, 2827, 2828, 2893, 2892
102785, 2828, 2829, 2894, 2893
102786, 2829, 2830, 2895, 2894
102787, 2830, 2831, 2896, 2895
102788, 2831, 2832, 2897, 2896
102789, 2832, 2833, 2898, 2897
102790, 2833, 2834, 2899, 2898
102791, 2834, 2835, 2900, 2899
102792, 2835, 2836, 2901, 2900
102793, 2836, 2837, 2902, 2901
102794, 2837, 2838, 2903, 2902
102795, 2838, 2839, 2904, 2903
102796, 2839, 2840, 2905, 2904
102797, 2840, 2841, 2906, 2905
102798, 2841, 2842, 2907, 2906
102799, 2842, 2843, 2908, 2907
102800, 2843, 2844, 2909, 2908
102801, 2844, 2845, 2910, 2909
102802, 2845, 2846, 2911, 2910
102803, 2846, 2847, 2912, 2911
102804, 2847, 2848, 2913, 2912
102805, 2848, 2849, 2914, 2913
102806, 2849, 2850, 2915, 2914
102807, 2850, 2851, 2916, 2915
102808, 2851, 2852, 2917, 2916
102809, 2852, 2853, 2918, 2917
102810, 2853, 2854, 2919, 2918
102811, 2854, 2855, 2920, 2919
102812, 2855, 2856, 2921, 2920
102813, 2856, 2857, 2922, 2921
102814, 2857, 2858, 2923, 2922
102815, 2858, 2859, 2924, 2923
102816, 2859, 2860, 2925, 2924
102817, 2861, 2862, 2927, 2926
102818, 2862, 2863, 2928, 2927
102819, 2863, 2864, 2929, 2928
102820, 2864, 2865, 2930, 2929
102821, 2865, 2866, 2931, 2930
102822, 2866, 2867, 2932, 2931
102823, 2867, 2868, 2933, 2932
102824, 2868, 2869, 2934, 2933
102825, 2869, 2870, 2935, 2934
102826, 2870, 2871, 2936, 2935
102827, 2871, 2872, 2937, 2936
102828, 2872, 2873, 2938, 2937
102829, 2873, 2874, 2939, 2938
102830, 2874, 2875, 2940, 2939
102831, 2875, 2876, 2941, 2940
102832, 2876, 2877, 2942, 2941
102833, 2877, 2878, 2943, 2942
102834, 2878, 2879, 2944, 2943
102835, 2879, 2880, 2945, 2944
102836, 2880, 2881, 2946, 2945
102837, 2881, 2882, 2947, 2946
102838, 2882, 2883, 2948, 2947
102839, 2883, 2884, 2949, 2948
102840, 2884, 2885, 2950, 2949
102841, 2885, 2886, 2951, 2950
102842, 2886, 2887, 2952, 2951
102843, 2887, 2888, 2953, 2952
102844, 2888, 2889, 2954, 2953
102845, 2889, 2890, 2955, 2954
102846, 2890, 2891, 2956, 2955
102847, 2891, 2892, 2957, 2956
102848, 2892, 2893, 2958, 2957
102849, 2893, 2894, 2959, 2958
102850, 2894, 2895, 2960, 2959
102851, 2895, 2896, 2961, 2960
102852, 2896, 2897, 2962, 2961
102853, 2897, 2898, 2963, 2962
102854, 2898, 2899, 2964, 2963
102855, 2899, 2900, 2965, 2964
102856, 2900, 2901, 2966, 2965
102857, 2901, 2902, 2967, 2966
102858, 2902, 2903, 2968, 2967
102859, 2903, 2904, 2969, 2968
102860, 2904, 2905, 2970, 2969
102861, 2905, 2906, 2971, 2970
102862, 2906, 2907, 2972, 2971
102863, 2907, 2908, 2973, 2972
102864, 2908, 2909, 2974, 2973
102865, 2909, 2910, 2975, 2974
102866, 2910, 2911, 2976, 2975
102867, 2911, 2912, 2977, 2976
102868, 2912, 2913, 2978, 2977
102869, 2913, 2914, 2979, 2978
102870, 2914, 2915, 2980, 2979
102871, 2915, 2916, 2981, 2980
102872, 2916, 2917, 2982, 2981
102873, 2917, 2918, 2983, 2982
102874, 2918, 2919, 2984, 2983
102875, 2919, 2920, 2985, 2984
102876, 2920, 2921, 2986, 2985
102877, 2921, 2922, 2987, 2986
102878, 2922, 2923, 2988, 2987
102879, 2923, 2924, 2989, 2988
102880, 2924, 2925, 2990, 2989
102881, 2926, 2927, 2992, 2991
102882, 2927, 2928, 2993, 2992
102883, 2928, 2929, 2994, 2993
102884, 2929, 2930, 2995, 2994
102885, 2930, 2931, 2996, 2995
102886, 2931, 2932, 2997, 2996
102887, 2932, 2933, 2998, 2997
102888, 2933, 2934, 2999, 2998
102889, 2934, 2935, 3000, 2999
102890, 2935, 2936, 3001, 3000
102891, 2936, 2937, 3002, 3001
102892, 2937, 2938, 3003, 3002
102893, 2938, 2939, 3004, 3003
102894, 2939, 2940, 3005, 3004
102895, 2940, 2941, 3006, 3005
102896, 2941, 2942, 3007, 3006
102897, 2942, 2943, 3008, 3007
102898, 2943, 2944, 3009, 3008
102899, 2944, 2945, 3010, 3009
102900, 2945, 2946, 3011, 3010
102901, 2946, 2947, 3012, 3011
102902, 2947, 2948, 3013, 3012
102903, 2948, 2949, 3014, 3013
102904, 2949, 2950, 3015, 3014
102905, 2950, 2951, 3016, 3015
102906, 2951, 2952, 3017, 3016
102907, 2952, 2953, 3018, 3017
102908, 2953, 2954, 3019, 3018
102909, 2954, 2955, 3020, 3019
102910, 2955, 2956, 3021, 3020
102911, 2956, 2957, 3022, 3021
102912, 2957, 2958, 3023, 3022
102913, 2958, 2959, 3024, 3023
102914, 2959, 2960, 3025, 3024
102915, 2960, 2961, 3026, 3025
102916, 2961, 2962, 3027, 3026
102917, 2962, 2963, 3028, 3027
102918, 2963, 2964, 3029, 3028
102919, 2964, 2965, 3030, 3029
102920, 2965, 2966, 3031, 3030
102921, 2966, 2967, 3032, 3031
102922, 2967, 2968, 3033, 3032
102923, 2968, 2969, 3034, 3033
102924, 2969, 2970, 3035, 3034
102925, 2970, 2971, 3036, 3035
102926, 2971, 2972, 3037, 3036
102927, 2972, 2973, 3038, 3037
102928, 2973, 2974, 3039, 3038
102929, 2974, 2975, 3040, 3039
102930, 2975, 2976, 3041, 3040
102931, 2976, 2977, 3042, 3041
102932, 2977, 2978, 3043, 3042
102933, 2978, 2979, 3044, 3043
102934, 2979, 2980, 3045, 3044
102935, 2980, 2981, 3046, 3045
102936, 2981, 2982, 3047, 3046
102937, 2982, 2983, 3048, 3047
102938, 2983, 2984, 3049, 3048
102939, 2984, 2985, 3050, 3049
102940, 2985, 2986, 3051, 3050
102941, 2986, 2987, 3052, 3051
102942, 2987, 2988, 3053, 3052
102943, 2988, 2989, 3054, 3053
102944, 2989, 2990, 3055, 3054
102945, 2991, 2992, 3057, 3056
102946, 2992, 2993, 3058, 3057
102947, 2993, 2994, 3059, 3058
102948, 2994, 2995, 3060, 3059
102949, 2995, 2996, 3061, 3060
102950, 2996, 2997, 3062, 3061
102951, 2997, 2998, 3063, 3062
102952, 2998, 2999, 3064, 3063
102953, 2999, 3000, 3065, 3064
102954, 3000, 3001, 3066, 3065
102955, 3001, 3002, 3067, 3066
102956, 3002, 3003, 3068, 3067
102957, 3003, 3004, 3069, 3068
102958, 3004, 3005, 3070, 3069
102959, 3005, 3006, 3071, 3070
102960, 3006, 3007, 3072, 3071
102961, 3007, 3008, 3073, 3072
102962, 3008, 3009, 3074, 3073
102963, 3009, 3010, 3075, 3074
102964, 3010, 3011, 3076, 3075
102965, 3011, 3012, 3077, 3076
102966, 3012, 3013, 3078, 3077
102967, 3013, 3014, 3079, 3078
102968, 3014, 3015, 3080, 3079
102969, 3015, 3016, 3081, 3080
102970, 3016, 3017, 3082, 3081
102971, 3017, 3018, 3083, 3082
102972, 3018, 3019, 3084, 3083
102973, 3019, 3020, 3085, 3084
102974, 3020, 3021, 3086, 3085
102975, 3021, 3022, 3087, 3086
102976, 3022, 3023, 3088, 3087
102977, 3023, 3024, 3089, 3088
102978, 3024, 3025, 3090, 3089
102979, 3025, 3026, 3091, 3090
102980, 3026, 3027, 3092, 3091
102981, 3027, 3028, 3093, 3092
102982, 3028, 3029, 3094, 3093
102983, 3029, 3030, 3095, 3094
102984, 3030, 3031, 3096, 3095
102985, 3031, 3032, 3097, 3096
102986, 3032, 3033, 3098, 3097
102987, 3033, 3034, 3099, 3098
102988, 3034, 3035, 3100, 3099
102989, 3035, 3036, 3101, 3100
102990, 3036, 3037, 3102, 3101
102991, 3037, 3038, 3103, 3102
102992, 3038, 3039, 3104, 3103
102993, 3039, 3040, 3105, 3104
102994, 3040, 3041, 3106, 3105
102995, 3041, 3042, 3107, 3106
102996, 3042, 3043, 3108, 3107
102997, 3043, 3044, 3109, 3108
102998, 3044, 3045, 3110, 3109
102999, 3045, 3046, 3111, 3110
103000, 3046, 3047, 3112, 3111
103001, 3047, 3048, 3113, 3112
103002, 3048, 3049, 3114, 3113
103003, 3049, 3050, 3115, 3114
103004, 3050, 3051, 3116, 3115
103005, 3051, 3052, 3117, 3116
103006, 3052, 3053, 3118, 3117
103007, 3053, 3054, 3119, 3118
103008, 3054, 3055, 3120, 3119
103009, 3056, 3057, 3122, 3121
103010, 3057, 3058, 3123, 3122
103011, 3058, 3059, 3124, 3123
103012, 3059, 3060, 3125, 3124
103013, 3060, 3061, 3126, 3125
103014, 3061, 3062, 3127, 3126
103015, 3062, 3063, 3128, 3127
103016, 3063, 3064, 3129, 3128
103017, 3064, 3065, 3130, 3129
103018, 3065, 3066, 3131, 3130
103019, 3066, 3067, 3132, 3131
103020, 3067, 3068, 3133, 3132
103021, 3068, 3069, 3134, 3133
103022, 3069, 3070, 3135, 3134
103023, 3070, 3071, 3136, 3135
103024, 3071, 3072, 3137, 3136
103025, 3072, 3073, 3138, 3137
103026, 3073, 3074, 3139, 3138
103027, 3074, 3075, 3140, 3139
103028, 3075, 3076, 3141, 3140
103029, 3076, 3077, 3142, 3141
103030, 3077, 3078, 3143, 3142
103031, 3078, 3079, 3144, 3143
103032, 3079, 3080, 3145, 3144
103033, 3080, 3081, 3146, 3145
103034, 3081, 3082, 3147, 3146
103035, 3082, 3083, 3148, 3147
103036, 3083, 3084, 3149, 3148
103037, 3084, 3085, 3150, 3149
103038, 3085, 3086, 3151, 3150
103039, 3086, 3087, 3152, 3151
103040, 3087, 3088, 3153, 3152
103041, 3088, 3089, 3154, 3153
103042, 3089, 3090, 3155, 3154
103043, 3090, 3091, 3156, 3155
103044, 3091, 3092, 3157, 3156
103045, 3092, 3093, 3158, 3157
103046, 3093, 3094, 3159, 3158
103047, 3094, 3095, 3160, 3159
103048, 3095, 3096, 3161, 3160
103049, 3096, 3097, 3162, 3161
103050, 3097, 3098, 3163, 3162
103051, 3098, 3099, 3164, 3163
103052, 3099, 3100, 3165, 3164
103053, 3100, 3101, 3166, 3165
103054, 3101, 3102, 3167, 3166
103055, 3102, 3103, 3168, 3167
103056, 3103, 3104, 3169, 3168
103057, 3104, 3105, 3170, 3169
103058, 3105, 3106, 3171, 3170
103059, 3106, 3107, 3172, 3171
103060, 3107, 3108, 3173, 3172
103061, 3108, 3109, 3174, 3173
103062, 3109, 3110, 3175, 3174
103063, 3110, 3111, 3176, 3175
103064, 3111, 3112, 3177, 3176
103065, 3112, 3113, 3178, 3177
103066, 3113, 3114, 3179, 3178
103067, 3114, 3115, 3180, 3179
103068, 3115, 3116, 3181, 3180
103069, 3116, 3117, 3182, 3181
103070, 3117, 3118, 3183, 3182
103071, 3118, 3119, 3184, 3183
103072, 3119, 3120, 3185, 3184
103073, 3121, 3122, 3187, 3186
103074, 3122, 3123, 3188, 3187
103075, 3123, 3124, 3189, 3188
103076, 3124, 3125, 3190, 3189
103077, 3125, 3126, 3191, 3190
103078, 3126, 3127, 3192, 3191
103079, 3127, 3128, 3193, 3192
103080, 3128, 3129, 3194, 3193
103081, 3129, 3130, 3195, 3194
103082, 3130, 3131, 3196, 3195
103083, 3131, 3132, 3197, 3196
103084, 3132, 3133, 3198, 3197
103085, 3133, 3134, 3199, 3198
103086, 3134, 3135, 3200, 3199
103087, 3135, 3136, 3201, 3200
103088, 3136, 3137, 3202, 3201
103089, 3137, 3138, 3203, 3202
103090, 3138, 3139, 3204, 3203
103091, 3139, 3140, 3205, 3204
103092, 3140, 3141, 3206, 3205
103093, 3141, 3142, 3207, 3206
103094, 3142, 3143, 3208, 3207
103095, 3143, 3144, 3209, 3208
103096, 3144, 3145, 3210, 3209
103097, 3145, 3146, 3211, 3210
103098, 3146, 3147, 3212, 3211
103099, 3147, 3148, 3213, 3212
103100, 3148, 3149, 3214, 3213
103101, 3149, 3150, 3215, 3214
103102, 3150, 3151, 3216, 3215
103103, 3151, 3152, 3217, 3216
103104, 3152, 3153, 3218, 3217
103105, 3153, 3154, 3219, 3218
103106, 3154, 3155, 3220, 3219
103107, 3155, 3156, 3221, 3220
103108, 3156, 3157, 3222, 3221
103109, 3157, 3158, 3223, 3222
103110, 3158, 3159, 3224, 3223
103111, 3159, 3160, 3225, 3224
103112, 3160, 3161, 3226, 3225
103113, 3161, 3162, 3227, 3226
103114, 3162, 3163, 3228, 3227
103115, 3163, 3164, 3229, 3228
103116, 3164, 3165, 3230, 3229
103117, 3165, 3166, 3231, 3230
103118, 3166, 3167, 3232, 3231
103119, 3167, 3168, 3233, 3232
103120, 3168, 3169, 3234, 3233
103121, 3169, 3170, 3235, 3234
103122, 3170, 3171, 3236, 3235
103123, 3171, 3172, 3237, 3236
103124, 3172, 3173, 3238, 3237
103125, 3173, 3174, 3239, 3238
103126, 3174, 3175, 3240, 3239
103127, 3175, 3176, 3241, 3240
103128, 3176, 3177, 3242, 3241
103129, 3177, 3178, 3243, 3242
103130, 3178, 3179, 3244, 3243
103131, 3179, 3180, 3245, 3244
103132, 3180, 3181, 3246, 3245
103133, 3181, 3182, 3247, 3246
103134, 3182, 3183, 3248, 3247
103135, 3183, 3184, 3249, 3248
103136, 3184, 3185, 3250, 3249
103137, 3186, 3187, 3252, 3251
103138, 3187, 3188, 3253, 3252
103139, 3188, 3189, 3254, 3253
103140, 3189, 3190, 3255, 3254
103141, 3190, 3191, 3256, 3255
103142, 3191, 3192, 3257, 3256
103143, 3192, 3193, 3258, 3257
103144, 3193, 3194, 3259, 3258
103145, 3194, 3195, 3260, 3259
103146, 3195, 3196, 3261, 3260
103147, 3196, 3197, 3262, 3261
103148, 3197, 3198, 3263, 3262
103149, 3198, 3199, 3264, 3263
103150, 3199, 3200, 3265, 3264
103151, 3200, 3201, 3266, 3265
103152, 3201, 3202, 3267, 3266
103153, 3202, 3203, 3268, 3267
103154, 3203, 3204, 3269, 3268
103155, 3204, 3205, 3270, 3269
103156, 3205, 3206, 3271, 3270
103157, 3206, 3207, 3272, 3271
103158, 3207, 3208, 3273, 3272
103159, 3208, 3209, 3274, 3273
103160, 3209, 3210, 3275, 3274
103161, 3210, 3211, 3276, 3275
103162, 3211, 3212, 3277, 3276
103163, 3212, 3213, 3278, 3277
103164, 3213, 3214, 3279, 3278
103165, 3214, 3215, 3280, 3279
103166, 3215, 3216, 3281, 3280
103167, 3216, 3217, 3282, 3281
103168, 3217, 3218, 3283, 3282
103169, 3218, 3219, 3284, 3283
103170, 3219, 3220, 3285, 3284
103171, 3220, 3221, 3286, 3285
103172, 3221, 3222, 3287, 3286
103173, 3222, 3223, 3288, 3287
103174, 3223, 3224, 3289, 3288
103175, 3224, 3225, 3290, 3289
103176, 3225, 3226, 3291, 3290
103177, 3226, 3227, 3292, 3291
103178, 3227, 3228, 3293, 3292
103179, 3228, 3229, 3294, 3293
103180, 3229, 3230, 3295, 3294
103181, 3230, 3231, 3296, 3295
103182, 3231, 3232, 3297, 3296
103183, 3232, 3233, 3298, 3297
103184, 3233, 3234, 3299, 3298
103185, 3234, 3235, 3300, 3299
103186, 3235, 3236, 3301, 3300
103187, 3236, 3237, 3302, 3301
103188, 3237, 3238, 3303, 3302
103189, 3238, 3239, 3304, 3303
103190, 3239, 3240, 3305, 3304
103191, 3240, 3241, 3306, 3305
103192, 3241, 3242, 3307, 3306
103193, 3242, 3243, 3308, 3307
103194, 3243, 3244, 3309, 3308
103195, 3244, 3245, 3310, 3309
103196, 3245, 3246, 3311, 3310
103197, 3246, 3247, 3312, 3311
103198, 3247, 3248, 3313, 3312
103199, 3248, 3249, 3314, 3313
103200, 3249, 3250, 3315, 3314
103201, 3251, 3252, 3317, 3316
103202, 3252, 3253, 3318, 3317
103203, 3253, 3254, 3319, 3318
103204, 3254, 3255, 3320, 3319
103205, 3255, 3256, 3321, 3320
103206, 3256, 3257, 3322, 3321
103207, 3257, 3258, 3323, 3322
103208, 3258, 3259, 3324, 3323
103209, 3259, 3260, 3325, 3324
103210, 3260, 3261, 3326, 3325
103211, 3261, 3262, 3327, 3326
103212, 3262, 3263, 3328, 3327
103213, 3263, 3264, 3329, 3328
103214, 3264, 3265, 3330, 3329
103215, 3265, 3266, 3331, 3330
103216, 3266, 3267, 3332, 3331
103217, 3267, 3268, 3333, 3332
103218, 3268, 3269, 3334, 3333
103219, 3269, 3270, 3335, 3334
103220, 3270, 3271, 3336, 3335
103221, 3271, 3272, 3337, 3336
103222, 3272, 3273, 3338, 3337
103223, 3273, 3274, 3339, 3338
103224, 3274, 3275, 3340, 3339
103225, 3275, 3276, 3341, 3340
103226, 3276, 3277, 3342, 3341
103227, 3277, 3278, 3343, 3342
103228, 3278, 3279, 3344, 3343
103229, 3279, 3280, 3345, 3344
103230, 3280, 3281, 3346, 3345
103231, 3281, 3282, 3347, 3346
103232, 3282, 3283, 3348, 3347
103233, 3283, 3284, 3349, 3348
103234, 3284, 3285, 3350, 3349
103235, 3285, 3286, 3351, 3350
103236, 3286, 3287, 3352, 3351
103237, 3287, 3288, 3353, 3352
103238, 3288, 3289, 3354, 3353
103239, 3289, 3290, 3355, 3354
103240, 3290, 3291, 3356, 3355
103241, 3291, 3292, 3357, 3356
103242, 3292, 3293, 3358, 3357
103243, 3293, 3294, 3359, 3358
103244, 3294, 3295, 3360, 3359
103245, 3295, 3296, 3361, 3360
103246, 3296, 3297, 3362, 3361
103247, 3297, 3298, 3363, 3362
103248, 3298, 3299, 3364, 3363
103249, 3299, 3300, 3365, 3364
103250, 3300, 3301, 3366, 3365
103251, 3301, 3302, 3367, 3366
103252, 3302, 3303, 3368, 3367
103253, 3303, 3304, 3369, 3368
103254, 3304, 3305, 3370, 3369
103255, 3305, 3306, 3371, 3370
103256, 3306, 3307, 3372, 3371
103257, 3307, 3308, 3373, 3372
103258, 3308, 3309, 3374, 3373
103259, 3309, 3310, 3375, 3374
103260, 3310, 3311, 3376, 3375
103261, 3311, 3312, 3377, 3376
103262, 3312, 3313, 3378, 3377
103263, 3313, 3314, 3379, 3378
103264, 3314, 3315, 3380, 3379
103265, 3316, 3317, 3382, 3381
103266, 3317, 3318, 3383, 3382
103267, 3318, 3319, 3384, 3383
103268, 3319, 3320, 3385, 3384
103269, 3320, 3321, 3386, 3385
103270, 3321, 3322, 3387, 3386
103271, 3322, 3323, 3388, 3387
103272, 3323, 3324, 3389, 3388
103273, 3324, 3325, 3390, 3389
103274, 3325, 3326, 3391, 3390
103275, 3326, 3327, 3392, 3391
103276, 3327, 3328, 3393, 3392
103277, 3328, 3329, 3394, 3393
103278, 3329, 3330, 3395, 3394
103279, 3330, 3331, 3396, 3395
103280, 3331, 3332, 3397, 3396
103281, 3332, 3333, 3398, 3397
103282, 3333, 3334, 3399, 3398
103283, 3334, 3335, 3400, 3399
103284, 3335, 3336, 3401, 3400
103285, 3336, 3337, 3402, 3401
103286, 3337, 3338, 3403, 3402
103287, 3338, 3339, 3404, 3403
103288, 3339, 3340, 3405, 3404
103289, 3340, 3341, 3406, 3405
103290, 3341, 3342, 3407, 3406
103291, 3342, 3343, 3408, 3407
103292, 3343, 3344, 3409, 3408
103293, 3344, 3345, 3410, 3409
103294, 3345, 3346, 3411, 3410
103295, 3346, 3347, 3412, 3411
103296, 3347, 3348, 3413, 3412
103297, 3348, 3349, 3414, 3413
103298, 3349, 3350, 3415, 3414
103299, 3350, 3351, 3416, 3415
103300, 3351, 3352, 3417, 3416
103301, 3352, 3353, 3418, 3417
103302, 3353, 3354, 3419, 3418
103303, 3354, 3355, 3420, 3419
103304, 3355, 3356, 3421, 3420
103305, 3356, 3357, 3422, 3421
103306, 3357, 3358, 3423, 3422
103307, 3358, 3359, 3424, 3423
103308, 3359, 3360, 3425, 3424
103309, 3360, 3361, 3426, 3425
103310, 3361, 3362, 3427, 3426
103311, 3362, 3363, 3428, 3427
103312, 3363, 3364, 3429, 3428
103313, 3364, 3365, 3430, 3429
103314, 3365, 3366, 3431, 3430
103315, 3366, 3367, 3432, 3431
103316, 3367, 3368, 3433, 3432
103317, 3368, 3369, 3434, 3433
103318, 3369, 3370, 3435, 3434
103319, 3370, 3371, 3436, 3435
103320, 3371, 3372, 3437, 3436
103321, 3372, 3373, 3438, 3437
103322, 3373, 3374, 3439, 3438
103323, 3374, 3375, 3440, 3439
103324, 3375, 3376, 3441, 3440
103325, 3376, 3377, 3442, 3441
103326, 3377, 3378, 3443, 3442
103327, 3378, 3379, 3444, 3443
103328, 3379, 3380, 3445, 3444
103329, 3381, 3382, 3447, 3446
103330, 3382, 3383, 3448, 3447
103331, 3383, 3384, 3449, 3448
103332, 3384, 3385, 3450, 3449
103333, 3385, 3386, 3451, 3450
103334, 3386, 3387, 3452, 3451
103335, 3387, 3388, 3453, 3452
103336, 3388, 3389, 3454, 3453
103337, 3389, 3390, 3455, 3454
103338, 3390, 3391, 3456, 3455
103339, 3391, 3392, 3457, 3456
103340, 3392, 3393, 3458, 3457
103341, 3393, 3394, 3459, 3458
103342, 3394, 3395, 3460, 3459
103343, 3395, 3396, 3461, 3460
103344, 3396, 3397, 3462, 3461
103345, 3397, 3398, 3463, 3462
103346, 3398, 3399, 3464, 3463
103347, 3399, 3400, 3465, 3464
103348, 3400, 3401, 3466, 3465
103349, 3401, 3402, 3467, 3466
103350, 3402, 3403, 3468, 3467
103351, 3403, 3404, 3469, 3468
103352, 3404, 3405, 3470, 3469
103353, 3405, 3406, 3471, 3470
103354, 3406, 3407, 3472, 3471
103355, 3407, 3408, 3473, 3472
103356, 3408, 3409, 3474, 3473
103357, 3409, 3410, 3475, 3474
103358, 3410, 3411, 3476, 3475
103359, 3411, 3412, 3477, 3476
103360, 3412, 3413, 3478, 3477
103361, 3413, 3414, 3479, 3478
103362, 3414, 3415, 3480, 3479
103363, 3415, 3416, 3481, 3480
103364, 3416, 3417, 3482, 3481
103365, 3417, 3418, 3483, 3482
103366, 3418, 3419, 3484, 3483
103367, 3419, 3420, 3485, 3484
103368, 3420, 3421, 3486, 3485
103369, 3421, 3422, 3487, 3486
103370, 3422, 3423, 3488, 3487
103371, 3423, 3424, 3489, 3488
103372, 3424, 3425, 3490, 3489
103373, 3425, 3426, 3491, 3490
103374, 3426, 3427, 3492, 3491
103375, 3427, 3428, 3493, 3492
103376, 3428, 3429, 3494, 3493
103377, 3429, 3430, 3495, 3494
103378, 3430, 3431, 3496, 3495
103379, 3431, 3432, 3497, 3496
103380, 3432, 3433, 3498, 3497
103381, 3433, 3434, 3499, 3498
103382, 3434, 3435, 3500, 3499
103383, 3435, 3436, 3501, 3500
103384, 3436, 3437, 3502, 3501
103385, 3437, 3438, 3503, 3502
103386, 3438, 3439, 3504, 3503
103387, 3439, 3440, 3505, 3504
103388, 3440, 3441, 3506, 3505
103389, 3441, 3442, 3507, 3506
103390, 3442, 3443, 3508, 3507
103391, 3443, 3444, 3509, 3508
103392, 3444, 3445, 3510, 3509
103393, 3446, 3447, 3512, 3511
103394, 3447, 3448, 3513, 3512
103395, 3448, 3449, 3514, 3513
103396, 3449, 3450, 3515, 3514
103397, 3450, 3451, 3516, 3515
103398, 3451, 3452, 3517, 3516
103399, 3452, 3453, 3518, 3517
103400, 3453, 3454, 3519, 3518
103401, 3454, 3455, 3520, 3519
103402, 3455, 3456, 3521, 3520
103403, 3456, 3457, 3522, 3521
103404, 3457, 3458, 3523, 3522
103405, 3458, 3459, 3524, 3523
103406, 3459, 3460, 3525, 3524
103407, 3460, 3461, 3526, 3525
103408, 3461, 3462, 3527, 3526
103409, 3462, 3463, 3528, 3527
103410, 3463, 3464, 3529, 3528
103411, 3464, 3465, 3530, 3529
103412, 3465, 3466, 3531, 3530
103413, 3466, 3467, 3532, 3531
103414, 3467, 3468, 3533, 3532
103415, 3468, 3469, 3534, 3533
103416, 3469, 3470, 3535, 3534
103417, 3470, 3471, 3536, 3535
103418, 3471, 3472, 3537, 3536
103419, 3472, 3473, 3538, 3537
103420, 3473, 3474, 3539, 3538
103421, 3474, 3475, 3540, 3539
103422, 3475, 3476, 3541, 3540
103423, 3476, 3477, 3542, 3541
103424, 3477, 3478, 3543, 3542
103425, 3478, 3479, 3544, 3543
103426, 3479, 3480, 3545, 3544
103427, 3480, 3481, 3546, 3545
103428, 3481, 3482, 3547, 3546
103429, 3482, 3483, 3548, 3547
103430, 3483, 3484, 3549, 3548
103431, 3484, 3485, 3550, 3549
103432, 3485, 3486, 3551, 3550
103433, 3486, 3487, 3552, 3551
103434, 3487, 3488, 3553, 3552
103435, 3488, 3489, 3554, 3553
103436, 3489, 3490, 3555, 3554
103437, 3490, 3491, 3556, 3555
103438, 3491, 3492, 3557, 3556
103439, 3492, 3493, 3558, 3557
103440, 3493, 3494, 3559, 3558
103441, 3494, 3495, 3560, 3559
103442, 3495, 3496, 3561, 3560
103443, 3496, 3497, 3562, 3561
103444, 3497, 3498, 3563, 3562
103445, 3498, 3499, 3564, 3563
103446, 3499, 3500, 3565, 3564
103447, 3500, 3501, 3566, 3565
103448, 3501, 3502, 3567, 3566
103449, 3502, 3503, 3568, 3567
103450, 3503, 3504, 3569, 3568
103451, 3504, 3505, 3570, 3569
103452, 3505, 3506, 3571, 3570
103453, 3506, 3507, 3572, 3571
103454, 3507, 3508, 3573, 3572
103455, 3508, 3509, 3574, 3573
103456, 3509, 3510, 3575, 3574
103457, 3511, 3512, 3577, 3576
103458, 3512, 3513, 3578, 3577
103459, 3513, 3514, 3579, 3578
103460, 3514, 3515, 3580, 3579
103461, 3515, 3516, 3581, 3580
103462, 3516, 3517, 3582, 3581
103463, 3517, 3518, 3583, 3582
103464, 3518, 3519, 3584, 3583
103465, 3519, 3520, 3585, 3584
103466, 3520, 3521, 3586, 3585
103467, 3521, 3522, 3587, 3586
103468, 3522, 3523, 3588, 3587
103469, 3523, 3524, 3589, 3588
103470, 3524, 3525, 3590, 3589
103471, 3525, 3526, 3591, 3590
103472, 3526, 3527, 3592, 3591
103473, 3527, 3528, 3593, 3592
103474, 3528, 3529, 3594, 3593
103475, 3529, 3530, 3595, 3594
103476, 3530, 3531, 3596, 3595
103477, 3531, 3532, 3597, 3596
103478, 3532, 3533, 3598, 3597
103479, 3533, 3534, 3599, 3598
103480, 3534, 3535, 3600, 3599
103481, 3535, 3536, 3601, 3600
103482, 3536, 3537, 3602, 3601
103483, 3537, 3538, 3603, 3602
103484, 3538, 3539, 3604, 3603
103485, 3539, 3540, 3605, 3604
103486, 3540, 3541, 3606, 3605
103487, 3541, 3542, 3607, 3606
103488, 3542, 3543, 3608, 3607
103489, 3543, 3544, 3609, 3608
103490, 3544, 3545, 3610, 3609
103491, 3545, 3546, 3611, 3610
103492, 3546, 3547, 3612, 3611
103493, 3547, 3548, 3613, 3612
103494, 3548, 3549, 3614, 3613
103495, 3549, 3550, 3615, 3614
103496, 3550, 3551, 3616, 3615
103497, 3551, 3552, 3617, 3616
103498, 3552, 3553, 3618, 3617
103499, 3553, 3554, 3619, 3618
103500, 3554, 3555, 3620, 3619
103501, 3555, 3556, 3621, 3620
103502, 3556, 3557, 3622, 3621
103503, 3557, 3558, 3623, 3622
103504, 3558, 3559, 3624, 3623
103505, 3559, 3560, 3625, 3624
103506, 3560, 3561, 3626, 3625
103507, 3561, 3562, 3627, 3626
103508, 3562, 3563, 3628, 3627
103509, 3563, 3564, 3629, 3628
103510, 3564, 3565, 3630, 3629
103511, 3565, 3566, 3631, 3630
103512, 3566, 3567, 3632, 3631
103513, 3567, 3568, 3633, 3632
103514, 3568, 3569, 3634, 3633
103515, 3569, 3570, 3635, 3634
103516, 3570, 3571, 3636, 3635
103517, 3571, 3572, 3637, 3636
103518, 3572, 3573, 3638, 3637
103519, 3573, 3574, 3639, 3638
103520, 3574, 3575, 3640, 3639
103521, 3576, 3577, 3642, 3641
103522, 3577, 3578, 3643, 3642
103523, 3578, 3579, 3644, 3643
103524, 3579, 3580, 3645, 3644
103525, 3580, 3581, 3646, 3645
103526, 3581, 3582, 3647, 3646
103527, 3582, 3583, 3648, 3647
103528, 3583, 3584, 3649, 3648
103529, 3584, 3585, 3650, 3649
103530, 3585, 3586, 3651, 3650
103531, 3586, 3587, 3652, 3651
103532, 3587, 3588, 3653, 3652
103533, 3588, 3589, 3654, 3653
103534, 3589, 3590, 3655, 3654
103535, 3590, 3591, 3656, 3655
103536, 3591, 3592, 3657, 3656
103537, 3592, 3593, 3658, 3657
103538, 3593, 3594, 3659, 3658
103539, 3594, 3595, 3660, 3659
103540, 3595, 3596, 3661, 3660
103541, 3596, 3597, 3662, 3661
103542, 3597, 3598, 3663, 3662
103543, 3598, 3599, 3664, 3663
103544, 3599, 3600, 3665, 3664
103545, 3600, 3601, 3666, 3665
103546, 3601, 3602, 3667, 3666
103547, 3602, 3603, 3668, 3667
103548, 3603, 3604, 3669, 3668
103549, 3604, 3605, 3670, 3669
103550, 3605, 3606, 3671, 3670
103551, 3606, 3607, 3672, 3671
103552, 3607, 3608, 3673, 3672
103553, 3608, 3609, 3674, 3673
103554, 3609, 3610, 3675, 3674
103555, 3610, 3611, 3676, 3675
103556, 3611, 3612, 3677, 3676
103557, 3612, 3613, 3678, 3677
103558, 3613, 3614, 3679, 3678
103559, 3614, 3615, 3680, 3679
103560, 3615, 3616, 3681, 3680
103561, 3616, 3617, 3682, 3681
103562, 3617, 3618, 3683, 3682
103563, 3618, 3619, 3684, 3683
103564, 3619, 3620, 3685, 3684
103565, 3620, 3621, 3686, 3685
103566, 3621, 3622, 3687, 3686
103567, 3622, 3623, 3688, 3687
103568, 3623, 3624, 3689, 3688
103569, 3624, 3625, 3690, 3689
103570, 3625, 3626, 3691, 3690
103571, 3626, 3627, 3692, 3691
103572, 3627, 3628, 3693, 3692
103573, 3628, 3629, 3694, 3693
103574, 3629, 3630, 3695, 3694
103575, 3630, 3631, 3696, 3695
103576, 3631, 3632, 3697, 3696
103577, 3632, 3633, 3698, 3697
103578, 3633, 3634, 3699, 3698
103579, 3634, 3635, 3700, 3699
103580, 3635, 3636, 3701, 3700
103581, 3636, 3637, 3702, 3701
103582, 3637, 3638, 3703, 3702
103583, 3638, 3639, 3704, 3703
103584, 3639, 3640, 3705, 3704
103585, 3641, 3642, 3707, 3706
103586, 3642, 3643, 3708, 3707
103587, 3643, 3644, 3709, 3708
103588, 3644, 3645, 3710, 3709
103589, 3645, 3646, 3711, 3710
103590, 3646, 3647, 3712, 3711
103591, 3647, 3648, 3713, 3712
103592, 3648, 3649, 3714, 3713
103593, 3649, 3650, 3715, 3714
103594, 3650, 3651, 3716, 3715
103595, 3651, 3652, 3717, 3716
103596, 3652, 3653, 3718, 3717
103597, 3653, 3654, 3719, 3718
103598, 3654, 3655, 3720, 3719
103599, 3655, 3656, 3721, 3720
103600, 3656, 3657, 3722, 3721
103601, 3657, 3658, 3723, 3722
103602, 3658, 3659, 3724, 3723
103603, 3659, 3660, 3725, 3724
103604, 3660, 3661, 3726, 3725
103605, 3661, 3662, 3727, 3726
103606, 3662, 3663, 3728, 3727
103607, 3663, 3664, 3729, 3728
103608, 3664, 3665, 3730, 3729
103609, 3665, 3666, 3731, 3730
103610, 3666, 3667, 3732, 3731
103611, 3667, 3668, 3733, 3732
103612, 3668, 3669, 3734, 3733
103613, 3669, 3670, 3735, 3734
103614, 3670, 3671, 3736, 3735
103615, 3671, 3672, 3737, 3736
103616, 3672, 3673, 3738, 3737
103617, 3673, 3674, 3739, 3738
103618, 3674, 3675, 3740, 3739
103619, 3675, 3676, 3741, 3740
103620, 3676, 3677, 3742, 3741
103621, 3677, 3678, 3743, 3742
103622, 3678, 3679, 3744, 3743
103623, 3679, 3680, 3745, 3744
103624, 3680, 3681, 3746, 3745
103625, 3681, 3682, 3747, 3746
103626, 3682, 3683, 3748, 3747
103627, 3683, 3684, 3749, 3748
103628, 3684, 3685, 3750, 3749
103629, 3685, 3686, 3751, 3750
103630, 3686, 3687, 3752, 3751
103631, 3687, 3688, 3753, 3752
103632, 3688, 3689, 3754, 3753
103633, 3689, 3690, 3755, 3754
103634, 3690, 3691, 3756, 3755
103635, 3691, 3692, 3757, 3756
103636, 3692, 3693, 3758, 3757
103637, 3693, 3694, 3759, 3758
103638, 3694, 3695, 3760, 3759
103639, 3695, 3696, 3761, 3760
103640, 3696, 3697, 3762, 3761
103641, 3697, 3698, 3763, 3762
103642, 3698, 3699, 3764, 3763
103643, 3699, 3700, 3765, 3764
103644, 3700, 3701, 3766, 3765
103645, 3701, 3702, 3767, 3766
103646, 3702, 3703, 3768, 3767
103647, 3703, 3704, 3769, 3768
103648, 3704, 3705, 3770, 3769
103649, 3706, 3707, 3772, 3771
103650, 3707, 3708, 3773, 3772
103651, 3708, 3709, 3774, 3773
103652, 3709, 3710, 3775, 3774
103653, 3710, 3711, 3776, 3775
103654, 3711, 3712, 3777, 3776
103655, 3712, 3713, 3778, 3777
103656, 3713, 3714, 3779, 3778
103657, 3714, 3715, 3780, 3779
103658, 3715, 3716, 3781, 3780
103659, 3716, 3717, 3782, 3781
103660, 3717, 3718, 3783, 3782
103661, 3718, 3719, 3784, 3783
103662, 3719, 3720, 3785, 3784
103663, 3720, 3721, 3786, 3785
103664, 3721, 3722, 3787, 3786
103665, 3722, 3723, 3788, 3787
103666, 3723, 3724, 3789, 3788
103667, 3724, 3725, 3790, 3789
103668, 3725, 3726, 3791, 3790
103669, 3726, 3727, 3792, 3791
103670, 3727, 3728, 3793, 3792
103671, 3728, 3729, 3794, 3793
103672, 3729, 3730, 3795, 3794
103673, 3730, 3731, 3796, 3795
103674, 3731, 3732, 3797, 3796
103675, 3732, 3733, 3798, 3797
103676, 3733, 3734, 3799, 3798
103677, 3734, 3735, 3800, 3799
103678, 3735, 3736, 3801, 3800
103679, 3736, 3737, 3802, 3801
103680, 3737, 3738, 3803, 3802
103681, 3738, 3739, 3804, 3803
103682, 3739, 3740, 3805, 3804
103683, 3740, 3741, 3806, 3805
103684, 3741, 3742, 3807, 3806
103685, 3742, 3743, 3808, 3807
103686, 3743, 3744, 3809, 3808
103687, 3744, 3745, 3810, 3809
103688, 3745, 3746, 3811, 3810
103689, 3746, 3747, 3812, 3811
103690, 3747, 3748, 3813, 3812
103691, 3748, 3749, 3814, 3813
103692, 3749, 3750, 3815, 3814
103693, 3750, 3751, 3816, 3815
103694, 3751, 3752, 3817, 3816
103695, 3752, 3753, 3818, 3817
103696, 3753, 3754, 3819, 3818
103697, 3754, 3755, 3820, 3819
103698, 3755, 3756, 3821, 3820
103699, 3756, 3757, 3822, 3821
103700, 3757, 3758, 3823, 3822
103701, 3758, 3759, 3824, 3823
103702, 3759, 3760, 3825, 3824
103703, 3760, 3761, 3826, 3825
103704, 3761, 3762, 3827, 3826
103705, 3762, 3763, 3828, 3827
103706, 3763, 3764, 3829, 3828
103707, 3764, 3765, 3830, 3829
103708, 3765, 3766, 3831, 3830
103709, 3766, 3767, 3832, 3831
103710, 3767, 3768, 3833, 3832
103711, 3768, 3769, 3834, 3833
103712, 3769, 3770, 3835, 3834
103713, 3771, 3772, 3837, 3836
103714, 3772, 3773, 3838, 3837
103715, 3773, 3774, 3839, 3838
103716, 3774, 3775, 3840, 3839
103717, 3775, 3776, 3841, 3840
103718, 3776, 3777, 3842, 3841
103719, 3777, 3778, 3843, 3842
103720, 3778, 3779, 3844, 3843
103721, 3779, 3780, 3845, 3844
103722, 3780, 3781, 3846, 3845
103723, 3781, 3782, 3847, 3846
103724, 3782, 3783, 3848, 3847
103725, 3783, 3784, 3849, 3848
103726, 3784, 3785, 3850, 3849
103727, 3785, 3786, 3851, 3850
103728, 3786, 3787, 3852, 3851
103729, 3787, 3788, 3853, 3852
103730, 3788, 3789, 3854, 3853
103731, 3789, 3790, 3855, 3854
103732, 3790, 3791, 3856, 3855
103733, 3791, 3792, 3857, 3856
103734, 3792, 3793, 3858, 3857
103735, 3793, 3794, 3859, 3858
103736, 3794, 3795, 3860, 3859
103737, 3795, 3796, 3861, 3860
103738, 3796, 3797, 3862, 3861
103739, 3797, 3798, 3863, 3862
103740, 3798, 3799, 3864, 3863
103741, 3799, 3800, 3865, 3864
103742, 3800, 3801, 3866, 3865
103743, 3801, 3802, 3867, 3866
103744, 3802, 3803, 3868, 3867
103745, 3803, 3804, 3869, 3868
103746, 3804, 3805, 3870, 3869
103747, 3805, 3806, 3871, 3870
103748, 3806, 3807, 3872, 3871
103749, 3807, 3808, 3873, 3872
103750, 3808, 3809, 3874, 3873
103751, 3809, 3810, 3875, 3874
103752, 3810, 3811, 3876, 3875
103753, 3811, 3812, 3877, 3876
103754, 3812, 3813, 3878, 3877
103755, 3813, 3814, 3879, 3878
103756, 3814, 3815, 3880, 3879
103757, 3815, 3816, 3881, 3880
103758, 3816, 3817, 3882, 3881
103759, 3817, 3818, 3883, 3882
103760, 3818, 3819, 3884, 3883
103761, 3819, 3820, 3885, 3884
103762, 3820, 3821, 3886, 3885
103763, 3821, 3822, 3887, 3886
103764, 3822, 3823, 3888, 3887
103765, 3823, 3824, 3889, 3888
103766, 3824, 3825, 3890, 3889
103767, 3825, 3826, 3891, 3890
103768, 3826, 3827, 3892, 3891
103769, 3827, 3828, 3893, 3892
103770, 3828, 3829, 3894, 3893
103771, 3829, 3830, 3895, 3894
103772, 3830, 3831, 3896, 3895
103773, 3831, 3832, 3897, 3896
103774, 3832, 3833, 3898, 3897
103775, 3833, 3834, 3899, 3898
103776, 3834, 3835, 3900, 3899
103777, 3836, 3837, 3902, 3901
103778, 3837, 3838, 3903, 3902
103779, 3838, 3839, 3904, 3903
103780, 3839, 3840, 3905, 3904
103781, 3840, 3841, 3906, 3905
103782, 3841, 3842, 3907, 3906
103783, 3842, 3843, 3908, 3907
103784, 3843, 3844, 3909, 3908
103785, 3844, 3845, 3910, 3909
103786, 3845, 3846, 3911, 3910
103787, 3846, 3847, 3912, 3911
103788, 3847, 3848, 3913, 3912
103789, 3848, 3849, 3914, 3913
103790, 3849, 3850, 3915, 3914
103791, 3850, 3851, 3916, 3915
103792, 3851, 3852, 3917, 3916
103793, 3852, 3853, 3918, 3917
103794, 3853, 3854, 3919, 3918
103795, 3854, 3855, 3920, 3919
103796, 3855, 3856, 3921, 3920
103797, 3856, 3857, 3922, 3921
103798, 3857, 3858, 3923, 3922
103799, 3858, 3859, 3924, 3923
103800, 3859, 3860, 3925, 3924
103801, 3860, 3861, 3926, 3925
103802, 3861, 3862, 3927, 3926
103803, 3862, 3863, 3928, 3927
103804, 3863, 3864, 3929, 3928
103805, 3864, 3865, 3930, 3929
103806, 3865, 3866, 3931, 3930
103807, 3866, 3867, 3932, 3931
103808, 3867, 3868, 3933, 3932
103809, 3868, 3869, 3934, 3933
103810, 3869, 3870, 3935, 3934
103811, 3870, 3871, 3936, 3935
103812, 3871, 3872, 3937, 3936
103813, 3872, 3873, 3938, 3937
103814, 3873, 3874, 3939, 3938
103815, 3874, 3875, 3940, 3939
103816, 3875, 3876, 3941, 3940
103817, 3876, 3877, 3942, 3941
103818, 3877, 3878, 3943, 3942
103819, 3878, 3879, 3944, 3943
103820, 3879, 3880, 3945, 3944
103821, 3880, 3881, 3946, 3945
103822, 3881, 3882, 3947, 3946
103823, 3882, 3883, 3948, 3947
103824, 3883, 3884, 3949, 3948
103825, 3884, 3885, 3950, 3949
103826, 3885, 3886, 3951, 3950
103827, 3886, 3887, 3952, 3951
103828, 3887, 3888, 3953, 3952
103829, 3888, 3889, 3954, 3953
103830, 3889, 3890, 3955, 3954
103831, 3890, 3891, 3956, 3955
103832, 3891, 3892, 3957, 3956
103833, 3892, 3893, 3958, 3957
103834, 3893, 3894, 3959, 3958
103835, 3894, 3895, 3960, 3959
103836, 3895, 3896, 3961, 3960
103837, 3896, 3897, 3962, 3961
103838, 3897, 3898, 3963, 3962
103839, 3898, 3899, 3964, 3963
103840, 3899, 3900, 3965, 3964
103841, 3901, 3902, 3967, 3966
103842, 3902, 3903, 3968, 3967
103843, 3903, 3904, 3969, 3968
103844, 3904, 3905, 3970, 3969
103845, 3905, 3906, 3971, 3970
103846, 3906, 3907, 3972, 3971
103847, 3907, 3908, 3973, 3972
103848, 3908, 3909, 3974, 3973
103849, 3909, 3910, 3975, 3974
103850, 3910, 3911, 3976, 3975
103851, 3911, 3912, 3977, 3976
103852, 3912, 3913, 3978, 3977
103853, 3913, 3914, 3979, 3978
103854, 3914, 3915, 3980, 3979
103855, 3915, 3916, 3981, 3980
103856, 3916, 3917, 3982, 3981
103857, 3917, 3918, 3983, 3982
103858, 3918, 3919, 3984, 3983
103859, 3919, 3920, 3985, 3984
103860, 3920, 3921, 3986, 3985
103861, 3921, 3922, 3987, 3986
103862, 3922, 3923, 3988, 3987
103863, 3923, 3924, 3989, 3988
103864, 3924, 3925, 3990, 3989
103865, 3925, 3926, 3991, 3990
103866, 3926, 3927, 3992, 3991
103867, 3927, 3928, 3993, 3992
103868, 3928, 3929, 3994, 3993
103869, 3929, 3930, 3995, 3994
103870, 3930, 3931, 3996, 3995
103871, 3931, 3932, 3997, 3996
103872, 3932, 3933, 3998, 3997
103873, 3933, 3934, 3999, 3998
103874, 3934, 3935, 4000, 3999
103875, 3935, 3936, 4001, 4000
103876, 3936, 3937, 4002, 4001
103877, 3937, 3938, 4003, 4002
103878, 3938, 3939, 4004, 4003
103879, 3939, 3940, 4005, 4004
103880, 3940, 3941, 4006, 4005
103881, 3941, 3942, 4007, 4006
103882, 3942, 3943, 4008, 4007
103883, 3943, 3944, 4009, 4008
103884, 3944, 3945, 4010, 4009
103885, 3945, 3946, 4011, 4010
103886, 3946, 3947, 4012, 4011
103887, 3947, 3948, 4013, 4012
103888, 3948, 3949, 4014, 4013
103889, 3949, 3950, 4015, 4014
103890, 3950, 3951, 4016, 4015
103891, 3951, 3952, 4017, 4016
103892, 3952, 3953, 4018, 4017
103893, 3953, 3954, 4019, 4018
103894, 3954, 3955, 4020, 4019
103895, 3955, 3956, 4021, 4020
103896, 3956, 3957, 4022, 4021
103897, 3957, 3958, 4023, 4022
103898, 3958, 3959, 4024, 4023
103899, 3959, 3960, 4025, 4024
103900, 3960, 3961, 4026, 4025
103901, 3961, 3962, 4027, 4026
103902, 3962, 3963, 4028, 4027
103903, 3963, 3964, 4029, 4028
103904, 3964, 3965, 4030, 4029
103905, 3966, 3967, 4032, 4031
103906, 3967, 3968, 4033, 4032
103907, 3968, 3969, 4034, 4033
103908, 3969, 3970, 4035, 4034
103909, 3970, 3971, 4036, 4035
103910, 3971, 3972, 4037, 4036
103911, 3972, 3973, 4038, 4037
103912, 3973, 3974, 4039, 4038
103913, 3974, 3975, 4040, 4039
103914, 3975, 3976, 4041, 4040
103915, 3976, 3977, 4042, 4041
103916, 3977, 3978, 4043, 4042
103917, 3978, 3979, 4044, 4043
103918, 3979, 3980, 4045, 4044
103919, 3980, 3981, 4046, 4045
103920, 3981, 3982, 4047, 4046
103921, 3982, 3983, 4048, 4047
103922, 3983, 3984, 4049, 4048
103923, 3984, 3985, 4050, 4049
103924, 3985, 3986, 4051, 4050
103925, 3986, 3987, 4052, 4051
103926, 3987, 3988, 4053, 4052
103927, 3988, 3989, 4054, 4053
103928, 3989, 3990, 4055, 4054
103929, 3990, 3991, 4056, 4055
103930, 3991, 3992, 4057, 4056
103931, 3992, 3993, 4058, 4057
103932, 3993, 3994, 4059, 4058
103933, 3994, 3995, 4060, 4059
103934, 3995, 3996, 4061, 4060
103935, 3996, 3997, 4062, 4061
103936, 3997, 3998, 4063, 4062
103937, 3998, 3999, 4064, 4063
103938, 3999, 4000, 4065, 4064
103939, 4000, 4001, 4066, 4065
103940, 4001, 4002, 4067, 4066
103941, 4002, 4003, 4068, 4067
103942, 4003, 4004, 4069, 4068
103943, 4004, 4005, 4070, 4069
103944, 4005, 4006, 4071, 4070
103945, 4006, 4007, 4072, 4071
103946, 4007, 4008, 4073, 4072
103947, 4008, 4009, 4074, 4073
103948, 4009, 4010, 4075, 4074
103949, 4010, 4011, 4076, 4075
103950, 4011, 4012, 4077, 4076
103951, 4012, 4013, 4078, 4077
103952, 4013, 4014, 4079, 4078
103953, 4014, 4015, 4080, 4079
103954, 4015, 4016, 4081, 4080
103955, 4016, 4017, 4082, 4081
103956, 4017, 4018, 4083, 4082
103957, 4018, 4019, 4084, 4083
103958, 4019, 4020, 4085, 4084
103959, 4020, 4021, 4086, 4085
103960, 4021, 4022, 4087, 4086
103961, 4022, 4023, 4088, 4087
103962, 4023, 4024, 4089, 4088
103963, 4024, 4025, 4090, 4089
103964, 4025, 4026, 4091, 4090
103965, 4026, 4027, 4092, 4091
103966, 4027, 4028, 4093, 4092
103967, 4028, 4029, 4094, 4093
103968, 4029, 4030, 4095, 4094
103969, 4031, 4032, 4097, 4096
103970, 4032, 4033, 4098, 4097
103971, 4033, 4034, 4099, 4098
103972, 4034, 4035, 4100, 4099
103973, 4035, 4036, 4101, 4100
103974, 4036, 4037, 4102, 4101
103975, 4037, 4038, 4103, 4102
103976, 4038, 4039, 4104, 4103
103977, 4039, 4040, 4105, 4104
103978, 4040, 4041, 4106, 4105
103979, 4041, 4042, 4107, 4106
103980, 4042, 4043, 4108, 4107
103981, 4043, 4044, 4109, 4108
103982, 4044, 4045, 4110, 4109
103983, 4045, 4046, 4111, 4110
103984, 4046, 4047, 4112, 4111
103985, 4047, 4048, 4113, 4112
103986, 4048, 4049, 4114, 4113
103987, 4049, 4050, 4115, 4114
103988, 4050, 4051, 4116, 4115
103989, 4051, 4052, 4117, 4116
103990, 4052, 4053, 4118, 4117
103991, 4053, 4054, 4119, 4118
103992, 4054, 4055, 4120, 4119
103993, 4055, 4056, 4121, 4120
103994, 4056, 4057, 4122, 4121
103995, 4057, 4058, 4123, 4122
103996, 4058, 4059, 4124, 4123
103997, 4059, 4060, 4125, 4124
103998, 4060, 4061, 4126, 4125
103999, 4061, 4062, 4127, 4126
104000, 4062, 4063, 4128, 4127
104001, 4063, 4064, 4129, 4128
104002, 4064, 4065, 4130, 4129
104003, 4065, 4066, 4131, 4130
104004, 4066, 4067, 4132, 4131
104005, 4067, 4068, 4133, 4132
104006, 4068, 4069, 4134, 4133
104007, 4069, 4070, 4135, 4134
104008, 4070, 4071, 4136, 4135
104009, 4071, 4072, 4137, 4136
104010, 4072, 4073, 4138, 4137
104011, 4073, 4074, 4139, 4138
104012, 4074, 4075, 4140, 4139
104013, 4075, 4076, 4141, 4140
104014, 4076, 4077, 4142, 4141
104015, 4077, 4078, 4143, 4142
104016, 4078, 4079, 4144, 4143
104017, 4079, 4080, 4145, 4144
104018, 4080, 4081, 4146, 4145
104019, 4081, 4082, 4147, 4146
104020, 4082, 4083, 4148, 4147
104021, 4083, 4084, 4149, 4148
104022, 4084, 4085, 4150, 4149
104023, 4085, 4086, 4151, 4150
104024, 4086, 4087, 4152, 4151
104025, 4087, 4088, 4153, 4152
104026, 4088, 4089, 4154, 4153
104027, 4089, 4090, 4155, 4154
104028, 4090, 4091, 4156, 4155
104029, 4091, 4092, 4157, 4156
104030, 4092, 4093, 4158, 4157
104031, 4093, 4094, 4159, 4158
104032, 4094, 4095, 4160, 4159
104033, 4096, 4097, 4162, 4161
104034, 4097, 4098, 4163, 4162
104035, 4098, 4099, 4164, 4163
104036, 4099, 4100, 4165, 4164
104037, 4100, 4101, 4166, 4165
104038, 4101, 4102, 4167, 4166
104039, 4102, 4103, 4168, 4167
104040, 4103, 4104, 4169, 4168
104041, 4104, 4105, 4170, 4169
104042, 4105, 4106, 4171, 4170
104043, 4106, 4107, 4172, 4171
104044, 4107, 4108, 4173, 4172
104045, 4108, 4109, 4174, 4173
104046, 4109, 4110, 4175, 4174
104047, 4110, 4111, 4176, 4175
104048, 4111, 4112, 4177, 4176
104049, 4112, 4113, 4178, 4177
104050, 4113, 4114, 4179, 4178
104051, 4114, 4115, 4180, 4179
104052, 4115, 4116, 4181, 4180
104053, 4116, 4117, 4182, 4181
104054, 4117, 4118, 4183, 4182
104055, 4118, 4119, 4184, 4183
104056, 4119, 4120, 4185, 4184
104057, 4120, 4121, 4186, 4185
104058, 4121, 4122, 4187, 4186
104059, 4122, 4123, 4188, 4187
104060, 4123, 4124, 4189, 4188
104061, 4124, 4125, 4190, 4189
104062, 4125, 4126, 4191, 4190
104063, 4126, 4127, 4192, 4191
104064, 4127, 4128, 4193, 4192
104065, 4128, 4129, 4194, 4193
104066, 4129, 4130, 4195, 4194
104067, 4130, 4131, 4196, 4195
104068, 4131, 4132, 4197, 4196
104069, 4132, 4133, 4198, 4197
104070, 4133, 4134, 4199, 4198
104071, 4134, 4135, 4200, 4199
104072, 4135, 4136, 4201, 4200
104073, 4136, 4137, 4202, 4201
104074, 4137, 4138, 4203, 4202
104075, 4138, 4139, 4204, 4203
104076, 4139, 4140, 4205, 4204
104077, 4140, 4141, 4206, 4205
104078, 4141, 4142, 4207, 4206
104079, 4142, 4143, 4208, 4207
104080, 4143, 4144, 4209, 4208
104081, 4144, 4145, 4210, 4209
104082, 4145, 4146, 4211, 4210
104083, 4146, 4147, 4212, 4211
104084, 4147, 4148, 4213, 4212
104085, 4148, 4149, 4214, 4213
104086, 4149, 4150, 4215, 4214
104087, 4150, 4151, 4216, 4215
104088, 4151, 4152, 4217, 4216
104089, 4152, 4153, 4218, 4217
104090, 4153, 4154, 4219, 4218
104091, 4154, 4155, 4220, 4219
104092, 4155, 4156, 4221, 4220
104093, 4156, 4157, 4222, 4221
104094, 4157, 4158, 4223, 4222
104095, 4158, 4159, 4224, 4223
104096, 4159, 4160, 4225, 4224
*SOLID SECTION, ELSET=GHOST, MATERIAL=GHOST
1.
*MATERIAL, NAME=GHOST
*USER MATERIAL, CONSTANTS=1
100000
*DEPVAR
5
1, S11
2, S22
3, S33
4, S12
5, VFRAC
*STEP
*STATIC
*BOUNDARY
XSYM, 1, 1
YSYM, 2, 2
*CLOAD
65, 1, 2.65512911198377
65, 2, -0.00470359218479517
130, 1, 5.31145491804274
130, 2, -0.0281927543807912
195, 1, 5.31503686299045
195, 2, -0.0562418299220756
260, 1, 5.32097975188694
260, 2, -0.0840050106332314
325, 1, 5.32924342070981
325, 2, -0.111342981146853
390, 1, 5.3397723620398
390, 2, -0.138120714993804
455, 1, 5.35249642933264
455, 2, -0.164208790230239
520, 1, 5.36733171739327
520, 2, -0.189484611123698
585, 1, 5.38418160132986
585, 2, -0.213833516974638
650, 1, 5.40293791343006
650, 2, -0.237149761948644
715, 1, 5.42348223515733
715, 2, -0.259337352926413
780, 1, 5.44568727985832
780, 2, -0.280310735737564
845, 1, 5.46941834082719
845, 2, -0.299995323620971
910, 1, 5.49453477908838
910, 2, -0.318327865239429
975, 1, 5.52089152561213
975, 2, -0.335256652966154
1040, 1, 5.54834057362368
1040, 2, -0.350741575359813
1105, 1, 5.57673243814509
1105, 2, -0.36475402067072
1170, 1, 5.60591756184269
1170, 2, -0.377276640805556
1235, 1, 5.63574764855821
1235, 2, -0.388302987369733
1300, 1, 5.66607690848489
1300, 2, -0.397837033170917
1365, 1, 5.69676320171904
1365, 2, -0.405892593886738
1430, 1, 5.72766906978047
1430, 2, -0.412492665473081
1495, 1, 5.75866264756559
1495, 2, -0.417668693330302
1560, 1, 5.78961845099584
1560, 2, -0.421459789279286
1625, 1, 5.82041803828406
1625, 2, -0.423911912064684
1690, 1, 5.85095054520326
1690, 2, -0.425077026443448
1755, 1, 5.88111309696327
1755, 2, -0.425012254983526
1820, 1, 5.9108111012468
1820, 2, -0.423779035543424
1885, 1, 5.93995842860754
1885, 2, -0.421442296082455
1950, 1, 5.96847748778084
1950, 2, -0.418069657016561
2015, 1, 5.99629920450111
2015, 2, -0.413730669835422
2080, 1, 6.02336291317202
2080, 2, -0.40849609917862
2145, 1, 6.04961617121021
2145, 2, -0.402437254072049
2210, 1, 6.07501450610501
2210, 2, -0.39562537258487
2275, 1, 6.0995211052321
2275, 2, -0.388131062810083
2340, 1, 6.12310645825682
2340, 2, -0.380023801820048
2405, 1, 6.14574796159503
2405, 2, -0.371371493117852
2470, 1, 6.16742949389567
2470, 2, -0.362240082106387
2535, 1, 6.18814097090053
2535, 2, -0.352693228234542
2600, 1, 6.20787788735048
2600, 2, -0.342792031754607
2665, 1, 6.22664085287101
2665, 2, -0.332594812433896
2730, 1, 6.24443512800516
2730, 2, -0.322156937100399
2795, 1, 6.26127016579075
2795, 2, -0.311530692558727
2860, 1, 6.2771591635175
2860, 2, -0.300765200178364
2925, 1, 6.29211862856351
2925, 2, -0.289906368320076
2990, 1, 6.30616796151002
2990, 2, -0.278996878716265
3055, 1, 6.31932905907859
3055, 2, -0.26807620294514
3120, 1, 6.33162593883027
3120, 2, -0.257180645224784
3185, 1, 6.34308438701753
3185, 2, -0.246343407890298
3250, 1, 6.35373163048798
3250, 2, -0.235594676094442
3315, 1, 6.36359603310453
3315, 2, -0.224961718479858
3380, 1, 6.37270681676911
3380, 2, -0.214469000800193
3445, 1, 6.3810938068143
3445, 2, -0.204138309710486
3510, 1, 6.38878720125563
3510, 2, -0.19398888419729
3575, 1, 6.39581736317487
3575, 2, -0.18403755237045
3640, 1, 6.40221463532556
3640, 2, -0.174298871586443
3705, 1, 6.40800917591426
3705, 2, -0.164785270113928
3770, 1, 6.41323081440831
3770, 2, -0.155507188782558
3835, 1, 6.41790892615083
3835, 2, -0.146473221273917
3900, 1, 6.42207232452077
3900, 2, -0.137690251917048
3965, 1, 6.42574916935734
3965, 2, -0.129163590039352
4030, 1, 6.42896689036919
4030, 2, -0.12089710009613
4095, 1, 6.43175212426731
4095, 2, -0.112893326958474
4160, 1, 6.43413066439212
4160, 2, -0.105153615879878
4161, 1, 0.00266938494694584
4161, 2, 0.27458222599438
4162, 1, 0.0159946572841835
4162, 2, 0.548253627556746
4163, 1, 0.0318813113779844
4163, 2, 0.545527898128561
4164, 1, 0.0475531614913648
4164, 2, 0.541007404638716
4165, 1, 0.062905790102508
4165, 2, 0.534725415015151
4166, 1, 0.077838301333363
4166, 2, 0.526727880443856
4167, 1, 0.0922543969969722
4167, 2, 0.517072827343916
4168, 1, 0.106063372114628
4168, 2, 0.505829597768826
4169, 1, 0.119181013785214
4169, 2, 0.493077953907981
4170, 1, 0.131530389748906
4170, 2, 0.478907064853099
4171, 1, 0.14304251573621
4171, 2, 0.463414395755001
4172, 1, 0.153656893636727
4172, 2, 0.446704520884478
4173, 1, 0.163321915562456
4173, 2, 0.428887882906847
4174, 1, 0.171995131920743
4174, 2, 0.41007952088478
4175, 1, 0.17964338456005
4175, 2, 0.390397789160282
4176, 1, 0.186242808823455
4176, 2, 0.369963088375253
4177, 1, 0.191778710867497
4177, 2, 0.348896628527308
4178, 1, 0.196245328818227
4178, 2, 0.327319242192856
4179, 1, 0.199645488197505
4179, 2, 0.305350263960466
4180, 1, 0.201990163531614
4180, 2, 0.283106489787738
4181, 1, 0.203297959137321
4181, 2, 0.260701227508356
4182, 1, 0.203594522768278
4182, 2, 0.23824344715561
4183, 1, 0.20291190611101
4183, 2, 0.215837037211825
4184, 1, 0.201287886069858
4184, 2, 0.193580170410127
4185, 1, 0.198765260408519
4185, 2, 0.171564780366828
4186, 1, 0.195391130663538
4186, 2, 0.149876148159717
4187, 1, 0.191216184358306
4187, 2, 0.128592596029023
4188, 1, 0.186293987472945
4188, 2, 0.107785283691574
4189, 1, 0.180680296914836
4189, 2, 0.0875181013416488
4190, 1, 0.174432401433405
4190, 2, 0.0678476522708229
4191, 1, 0.167608498075659
4191, 2, 0.0488233171714004
4192, 1, 0.160267109925757
4192, 2, 0.0304873915833858
4193, 1, 0.152466549547998
4193, 2, 0.0128752875867297
4194, 1, 0.144264431287528
4194, 2, -0.00398420929292894
4195, 1, 0.135717234400945
4195, 2, -0.0200686369308339
4196, 1, 0.126879917908033
4196, 2, -0.0353615159297792
4197, 1, 0.117805587088951
4197, 2, -0.0498519797728867
4198, 1, 0.108545210706225
4198, 2, -0.0635343836513504
4199, 1, 0.0991473873110369
4199, 2, -0.0764078992306717
4200, 1, 0.0896581583980888
4200, 2, -0.0884761019710847
4201, 1, 0.0801208656987505
4201, 2, -0.0997465569309009
4202, 1, 0.0705760495418989
4202, 2, -0.110230408276299
4203, 1, 0.0610613849572343
4203, 2, -0.119941977015659
4204, 1, 0.0516116520370913
4204, 2, -0.128898370786215
4205, 1, 0.0422587369990928
4205, 2, -0.137119108857944
4206, 1, 0.0330316603921909
4206, 2, -0.144625764894022
4207, 1, 0.0239566289515741
4207, 2, -0.151441629426104
4208, 1, 0.0150571077226687
4208, 2, -0.157591393471102
4209, 1, 0.0063539092306961
4209, 2, -0.163100854237084
4210, 1, -0.00213470333962192
4210, 2, -0.167996643440624
4211, 1, -0.0103929017783244
4211, 2, -0.172305978386214
4212, 1, -0.0184071698958863
4212, 2, -0.176056435638869
4213, 1, -0.0261661743424875
4213, 2, -0.17927574685153
4214, 1, -0.0336606313250765
4214, 2, -0.181991616086184
4215, 1, -0.0408831711105485
4215, 2, -0.184231557788474
4216, 1, -0.047828201973633
4216, 2, -0.186022754435971
4217, 1, -0.0544917750276295
4217, 2, -0.187391932776322
4218, 1, -0.0608714511673977
4218, 2, -0.188365257499188
4219, 1, -0.0669661711587234
4219, 2, -0.188968241141219
4220, 1, -0.0727761297275145
4220, 2, -0.189225669002513
4221, 1, -0.0783026543369163
4221, 2, -0.189161537852508
4222, 1, -0.0835480891905959
4222, 2, -0.18879900721957
4223, 1, -0.088515684866051
4223, 2, -0.188160362088785
4224, 1, -0.0932094938624643
4224, 2, -0.187266985873677
4225, 1, 3.16965968454809
4225, 2, -0.143339147125034
*ENERGY PRINT
*OUTPUT, FIELD
*NODE OUTPUT
U
*ELEMENT OUTPUT, ELSET=GHOST
SDV
*END STEP
