** ======================================================================
** LevelSetWear, input file of an example
**
** Written by Inigo Llavori
**
** I. Llavori, Wear simulation on a fixed mesh with level sets
** and immersed frictional contact,
** submitted for publication. Mondragon Unibertsitatea.
** https://github.com/illavori/LevelSetWear       BSD 3-Clause
** ======================================================================
*HEADING
Block-on-ring test of Cruzado et al., 3600 m of sliding, mesh-motion model
** Job name: frettingWear Model name: Model-1
** Generated by: Abaqus/CAE 2020
*Preprint, echo=NO, model=NO, history=NO, contact=NO
**
** PARTS
**
*Part, name=CYLINDER
*Node
      1,  -1.79757094, 0.0809453428
      2,  -1.77765107,  0.079157725
      3,  -1.77587426, 0.0990686119
      4,  -1.79577434,  0.100854442
      5,  -1.75772929, 0.0773900375
      6,   -1.7559725, 0.0973026901
      7,  -1.73780584, 0.0756422728
      8,  -1.73606884, 0.0955566689
      9,  -1.71788061, 0.0739144236
     10,  -1.71616352, 0.0938305557
     11,   -1.6979537, 0.0722065121
     12,  -1.69625652, 0.0921243429
     13,  -1.67802501, 0.0705185235
     14,  -1.67634785, 0.0904380381
     15,  -1.65809464, 0.0688504577
     16,   -1.6564374, 0.0887716487
     17,  -1.63816273, 0.0672023296
     18,  -1.63652539, 0.0871251673
     19,  -1.61822915, 0.0655741319
     20,  -1.61661172, 0.0854986012
     21,   -1.5982939, 0.0639658719
     22,  -1.59669638, 0.0838919431
     23,   -1.5783571, 0.0623775497
     24,  -1.57677948, 0.0823052078
     25,  -1.55841863, 0.0608091615
     26,  -1.55686104,  0.080738388
     27,  -1.53847873, 0.0592607111
     28,  -1.53694093, 0.0791914836
     29,  -1.51853716, 0.0577322021
     30,  -1.51701939,  0.077664502
     31,  -1.49859416, 0.0562236384
     32,   -1.4970963, 0.0761574432
     33,  -1.47864962, 0.0547350161
     34,  -1.47717166, 0.0746703148
     35,  -1.45870364,  0.053266339
     36,  -1.45724559, 0.0732031018
     37,  -1.43875611, 0.0518176071
     38,  -1.43731809,  0.071755819
     39,  -1.41880727, 0.0503888279
     40,  -1.41738915, 0.0703284666
     41,    -1.398857, 0.0489799939
     42,  -1.39745879, 0.0689210445
     43,  -1.37890518, 0.0475911126
     44,    -1.377527, 0.0675335526
     45,  -1.35895216, 0.0462221839
     46,  -1.35759389, 0.0661659911
     47,  -1.33899772, 0.0448732115
     48,  -1.33765936, 0.0648183599
     49,  -1.31904185, 0.0435441919
     50,  -1.31772351, 0.0634906739
     51,  -1.29908478, 0.0422351249
     52,  -1.29778636, 0.0621829145
     53,  -1.27912641, 0.0409460217
     54,  -1.27784789, 0.0608951002
     55,  -1.25916672, 0.0396768749
     56,  -1.25790811,   0.05962722
     57,  -1.23920572, 0.0384276882
     58,  -1.23796713, 0.0583792813
     59,  -1.21924353, 0.0371984616
     60,  -1.21802485, 0.0571512878
     61,  -1.19928014, 0.0359892026
     62,  -1.19808149,  0.055943232
     63,  -1.17931557, 0.0347999036
     64,  -1.17813683, 0.0547551252
     65,  -1.15934968, 0.0336305723
     66,  -1.15819097, 0.0535869598
     67,  -1.13938284, 0.0324812047
     68,  -1.13824403, 0.0524387434
     69,  -1.11941469, 0.0313518047
     70,  -1.11829591, 0.0513104722
     71,  -1.09944546,  0.030242376
     72,  -1.09834659, 0.0502021499
     73,  -1.07947516, 0.0291529149
     74,  -1.07839632, 0.0491137803
     75,  -1.05950379,  0.028083425
     76,  -1.05844486, 0.0480453596
     77,  -1.03953135, 0.0270339083
     78,  -1.03849232, 0.0469968915
     79,  -1.01955783, 0.0260043629
     80,  -1.01853883, 0.0459683761
     81, -0.999583364, 0.0249947924
     82,  -0.99858433, 0.0449598134
     83,  -0.97960788,  0.024005197
     84, -0.978628755,  0.043971207
     85, -0.959631383, 0.0230355766
     86, -0.958672225,  0.043002557
     87, -0.939653933,  0.022085933
     88, -0.938714802, 0.0420538634
     89, -0.919675589, 0.0211562682
     90, -0.918756366, 0.0411251262
     91,  -0.89969629,  0.020246584
     92, -0.898797035, 0.0402163491
     93, -0.879716098, 0.0193568766
     94, -0.878836811, 0.0393275321
     95, -0.859735012, 0.0184871517
     96, -0.858875692, 0.0384586751
     97, -0.839753091, 0.0176374074
     98, -0.838913739, 0.0376097821
     99, -0.819770277, 0.0168076456
    100, -0.818950951, 0.0367808491
    101, -0.799786687, 0.0159978662
    102, -0.798987269,   0.03597188
    103, -0.779802263,  0.015208072
    104, -0.779022872, 0.0351828746
    105, -0.759817123, 0.0144382622
    106, -0.759057641, 0.0344138332
    107,  -0.73983115, 0.0136884386
    108, -0.739091694, 0.0336647592
    109,  -0.71984446, 0.0129586002
    110, -0.719125032, 0.0329356529
    111, -0.699857116, 0.0122487498
    112, -0.699157596, 0.0322265103
    113, -0.679868996, 0.0115588866
    114, -0.679189444, 0.0315373354
    115, -0.659880221, 0.0108890114
    116, -0.659220695, 0.0308681317
    117,  -0.63989079, 0.0102391262
    118, -0.639251232, 0.0302188955
    119, -0.619900703, 0.00960923079
    120, -0.619281113, 0.0295896288
    121, -0.599910021, 0.00899932534
    122, -0.599310398, 0.0289803334
    123, -0.579918683, 0.00840941072
    124, -0.579339087, 0.0283910092
    125, -0.559926808, 0.00783948787
    126,  -0.55936718, 0.0278216563
    127, -0.539934397, 0.00728955725
    128, -0.539394736, 0.0272722747
    129,  -0.51994139, 0.00675961934
    130, -0.519421756, 0.0267428663
    131, -0.499947906, 0.0062496746
    132,  -0.49944821,  0.026233431
    133, -0.479953915, 0.00575972348
    134, -0.479474217, 0.0257439706
    135, -0.459959447, 0.00528976694
    136, -0.459499717, 0.0252744835
    137, -0.439964503, 0.00483980495
    138,  -0.43952477, 0.0248249713
    139, -0.419969141,  0.004409838
    140, -0.419549376, 0.0243954342
    141, -0.399973333, 0.00399986655
    142, -0.399573565,  0.023985872
    143, -0.379977137, 0.00360989152
    144, -0.379597336, 0.0235962868
    145, -0.359980553, 0.00323991245
    146,  -0.35962075, 0.0232266784
    147, -0.339983612, 0.0028899305
    148, -0.339643806,  0.022877045
    149, -0.319986343, 0.00255994545
    150, -0.319666535, 0.0225473903
    151, -0.299988747, 0.00224995776
    152, -0.299688905, 0.0222377125
    153, -0.279990852, 0.00195996789
    154, -0.279711008, 0.0219480116
    155, -0.259992689, 0.0016899762
    156, -0.259732813, 0.0216782913
    157, -0.239994243, 0.00143998268
    158, -0.239754364, 0.0214285459
    159, -0.219995558, 0.00120998779
    160, -0.219775677, 0.0211987812
    161, -0.199996665, 0.000999991666
    162, -0.199796766, 0.0209889952
    163, -0.179997563, 0.000809994526
    164, -0.179817662, 0.0207991879
    165, -0.159998298, 0.000639996608
    166, -0.159838378, 0.0206293594
    167, -0.139998853, 0.000489998027
    168, -0.139858931, 0.0204795115
    169, -0.119999282, 0.000359998929
    170, -0.119879343, 0.0203496423
    171, -0.0999995843, 0.000249999488
    172, -0.0998996347, 0.0202397536
    173, -0.0799997896, 0.000159999792
    174,  -0.07991983, 0.0201498438
    175, -0.0599999093, 8.99999359e-05
    176, -0.0599399395, 0.0200799126
    177, -0.039999973, 3.99999881e-05
    178, -0.0399599932, 0.0200299639
    179, -0.0199999958, 9.99999884e-06
    180, -0.0199800059,  0.019999994
    181,           0.,           0.
    182,           0., 0.0199900027
    183, 0.0199999958, 9.99999884e-06
    184, 0.0199800059,  0.019999994
    185,  0.039999973, 3.99999881e-05
    186, 0.0399599932, 0.0200299639
    187, 0.0599999093, 8.99999359e-05
    188, 0.0599399395, 0.0200799126
    189, 0.0799997896, 0.000159999792
    190,   0.07991983, 0.0201498438
    191, 0.0999995843, 0.000249999488
    192, 0.0998996347, 0.0202397536
    193,  0.119999282, 0.000359998929
    194,  0.119879343, 0.0203496423
    195,  0.139998853, 0.000489998027
    196,  0.139858931, 0.0204795115
    197,  0.159998298, 0.000639996608
    198,  0.159838378, 0.0206293594
    199,  0.179997563, 0.000809994526
    200,  0.179817662, 0.0207991879
    201,  0.199996665, 0.000999991666
    202,  0.199796766, 0.0209889952
    203,  0.219995558, 0.00120998779
    204,  0.219775677, 0.0211987812
    205,  0.239994243, 0.00143998268
    206,  0.239754364, 0.0214285459
    207,  0.259992689, 0.0016899762
    208,  0.259732813, 0.0216782913
    209,  0.279990852, 0.00195996789
    210,  0.279711008, 0.0219480116
    211,  0.299988747, 0.00224995776
    212,  0.299688905, 0.0222377125
    213,  0.319986343, 0.00255994545
    214,  0.319666535, 0.0225473903
    215,  0.339983612, 0.0028899305
    216,  0.339643806,  0.022877045
    217,  0.359980553, 0.00323991245
    218,   0.35962075, 0.0232266784
    219,  0.379977137, 0.00360989152
    220,  0.379597336, 0.0235962868
    221,  0.399973333, 0.00399986655
    222,  0.399573565,  0.023985872
    223,  0.419969141,  0.004409838
    224,  0.419549376, 0.0243954342
    225,  0.439964503, 0.00483980495
    226,   0.43952477, 0.0248249713
    227,  0.459959447, 0.00528976694
    228,  0.459499717, 0.0252744835
    229,  0.479953915, 0.00575972348
    230,  0.479474217, 0.0257439706
    231,  0.499947906, 0.0062496746
    232,   0.49944821,  0.026233431
    233,   0.51994139, 0.00675961934
    234,  0.519421756, 0.0267428663
    235,  0.539934397, 0.00728955725
    236,  0.539394736, 0.0272722747
    237,  0.559926808, 0.00783948787
    238,   0.55936718, 0.0278216563
    239,  0.579918683, 0.00840941072
    240,  0.579339087, 0.0283910092
    241,  0.599910021, 0.00899932534
    242,  0.599310398, 0.0289803334
    243,  0.619900703, 0.00960923079
    244,  0.619281113, 0.0295896288
    245,   0.63989079, 0.0102391262
    246,  0.639251232, 0.0302188955
    247,  0.659880221, 0.0108890114
    248,  0.659220695, 0.0308681317
    249,  0.679868996, 0.0115588866
    250,  0.679189444, 0.0315373354
    251,  0.699857116, 0.0122487498
    252,  0.699157596, 0.0322265103
    253,   0.71984446, 0.0129586002
    254,  0.719125032, 0.0329356529
    255,   0.73983115, 0.0136884386
    256,  0.739091694, 0.0336647592
    257,  0.759817123, 0.0144382622
    258,  0.759057641, 0.0344138332
    259,  0.779802263,  0.015208072
    260,  0.779022872, 0.0351828746
    261,  0.799786687, 0.0159978662
    262,  0.798987269,   0.03597188
    263,  0.819770277, 0.0168076456
    264,  0.818950951, 0.0367808491
    265,  0.839753091, 0.0176374074
    266,  0.838913739, 0.0376097821
    267,  0.859735012, 0.0184871517
    268,  0.858875692, 0.0384586751
    269,  0.879716098, 0.0193568766
    270,  0.878836811, 0.0393275321
    271,   0.89969629,  0.020246584
    272,  0.898797035, 0.0402163491
    273,  0.919675589, 0.0211562682
    274,  0.918756366, 0.0411251262
    275,  0.939653933,  0.022085933
    276,  0.938714802, 0.0420538634
    277,  0.959631383, 0.0230355766
    278,  0.958672225,  0.043002557
    279,   0.97960788,  0.024005197
    280,  0.978628755,  0.043971207
    281,  0.999583364, 0.0249947924
    282,   0.99858433, 0.0449598134
    283,   1.01955783, 0.0260043629
    284,   1.01853883, 0.0459683761
    285,   1.03953135, 0.0270339083
    286,   1.03849232, 0.0469968915
    287,   1.05950379,  0.028083425
    288,   1.05844486, 0.0480453596
    289,   1.07947516, 0.0291529149
    290,   1.07839632, 0.0491137803
    291,   1.09944546,  0.030242376
    292,   1.09834659, 0.0502021499
    293,   1.11941469, 0.0313518047
    294,   1.11829591, 0.0513104722
    295,   1.13938284, 0.0324812047
    296,   1.13824403, 0.0524387434
    297,   1.15934968, 0.0336305723
    298,   1.15819097, 0.0535869598
    299,   1.17931557, 0.0347999036
    300,   1.17813683, 0.0547551252
    301,   1.19928014, 0.0359892026
    302,   1.19808149,  0.055943232
    303,   1.21924353, 0.0371984616
    304,   1.21802485, 0.0571512878
    305,   1.23920572, 0.0384276882
    306,   1.23796713, 0.0583792813
    307,   1.25916672, 0.0396768749
    308,   1.25790811,   0.05962722
    309,   1.27912641, 0.0409460217
    310,   1.27784789, 0.0608951002
    311,   1.29908478, 0.0422351249
    312,   1.29778636, 0.0621829145
    313,   1.31904185, 0.0435441919
    314,   1.31772351, 0.0634906739
    315,   1.33899772, 0.0448732115
    316,   1.33765936, 0.0648183599
    317,   1.35895216, 0.0462221839
    318,   1.35759389, 0.0661659911
    319,   1.37890518, 0.0475911126
    320,     1.377527, 0.0675335526
    321,     1.398857, 0.0489799939
    322,   1.39745879, 0.0689210445
    323,   1.41880727, 0.0503888279
    324,   1.41738915, 0.0703284666
    325,   1.43875611, 0.0518176071
    326,   1.43731809,  0.071755819
    327,   1.45870364,  0.053266339
    328,   1.45724559, 0.0732031018
    329,   1.47864962, 0.0547350161
    330,   1.47717166, 0.0746703148
    331,   1.49859416, 0.0562236384
    332,    1.4970963, 0.0761574432
    333,   1.51853716, 0.0577322021
    334,   1.51701939,  0.077664502
    335,   1.53847873, 0.0592607111
    336,   1.53694093, 0.0791914836
    337,   1.55841863, 0.0608091615
    338,   1.55686104,  0.080738388
    339,    1.5783571, 0.0623775497
    340,   1.57677948, 0.0823052078
    341,    1.5982939, 0.0639658719
    342,   1.59669638, 0.0838919431
    343,   1.61822915, 0.0655741319
    344,   1.61661172, 0.0854986012
    345,   1.63816273, 0.0672023296
    346,   1.63652539, 0.0871251673
    347,   1.65809464, 0.0688504577
    348,    1.6564374, 0.0887716487
    349,   1.67802501, 0.0705185235
    350,   1.67634785, 0.0904380381
    351,    1.6979537, 0.0722065121
    352,   1.69625652, 0.0921243429
    353,   1.71788061, 0.0739144236
    354,   1.71616352, 0.0938305557
    355,   1.73780584, 0.0756422728
    356,   1.73606884, 0.0955566689
    357,   1.75772929, 0.0773900375
    358,    1.7559725, 0.0973026901
    359,   1.77765107,  0.079157725
    360,   1.77587426, 0.0990686119
    361,   1.79757094, 0.0809453428
    362,   1.79577434,  0.100854442
    363,  -1.77409923,  0.118959598
    364,  -1.79397941,   0.12074364
    365,  -1.75421739,  0.117195442
    366,  -1.73433363,  0.115451165
    367,  -1.71444821,  0.113726772
    368,  -1.69456112,  0.112022266
    369,  -1.67467237,  0.110337652
    370,  -1.65478182,  0.108672924
    371,  -1.63488972,  0.107028089
    372,  -1.61499584,  0.105403148
    373,  -1.59510052,  0.103798099
    374,  -1.57520354,  0.102212943
    375,  -1.55530488,  0.100647688
    376,   -1.5354048, 0.0991023332
    377,  -1.51550317,  0.097576879
    378,  -1.49559999, 0.0960713327
    379,  -1.47569525, 0.0945856795
    380,  -1.45578909, 0.0931199417
    381,   -1.4358815, 0.0916741043
    382,  -1.41597247,  0.090248175
    383,  -1.39606202,  0.088842161
    384,  -1.37615013,  0.087456055
    385,  -1.35623693, 0.0860898569
    386,  -1.33632231, 0.0847435817
    387,  -1.31640649, 0.0834172145
    388,  -1.29648924,   0.08211077
    389,  -1.27657068,  0.080824241
    390,  -1.25665081, 0.0795576274
    391,  -1.23672974, 0.0783109367
    392,  -1.21680748, 0.0770841688
    393,  -1.19688392, 0.0758773237
    394,  -1.17695928, 0.0746904016
    395,  -1.15703332, 0.0735234022
    396,   -1.1371063, 0.0723763332
    397,  -1.11717808, 0.0712491944
    398,  -1.09724879, 0.0701419786
    399,  -1.07731843,  0.069054693
    400,  -1.05738688, 0.0679873377
    401,  -1.03745437, 0.0669399202
    402,  -1.01752079,  0.065912433
    403, -0.997586191, 0.0649048761
    404, -0.977650642, 0.0639172643
    405, -0.957714081, 0.0629495755
    406, -0.937776506, 0.0620018318
    407, -0.917838097, 0.0610740259
    408, -0.897898674, 0.0601661578
    409, -0.877958417, 0.0592782274
    410, -0.858017266, 0.0584102422
    411, -0.838075221, 0.0575621948
    412, -0.818132401, 0.0567340888
    413, -0.798188686, 0.0559259281
    414, -0.778244257, 0.0551377125
    415, -0.758298993, 0.0543694422
    416, -0.738353014,  0.053621117
    417,  -0.71840626, 0.0528927371
    418, -0.698458791, 0.0521843024
    419, -0.678510606, 0.0514958166
    420, -0.658561766, 0.0508272834
    421,  -0.63861227, 0.0501786955
    422, -0.618662119, 0.0495500565
    423, -0.598711371, 0.0489413701
    424, -0.578760028, 0.0483526364
    425, -0.558808088, 0.0477838516
    426, -0.538855612, 0.0472350195
    427,   -0.5189026,   0.04670614
    428, -0.498949021, 0.0461972132
    429, -0.478994966, 0.0457082428
    430, -0.459040433,  0.045239225
    431, -0.439085454, 0.0447901599
    432, -0.419130027, 0.0443610549
    433, -0.399174184, 0.0439519025
    434, -0.379217952, 0.0435627066
    435, -0.359261304,  0.043193467
    436, -0.339304328, 0.0428441837
    437, -0.319347024, 0.0425148569
    438, -0.299389362, 0.0422054902
    439, -0.279431432, 0.0419160798
    440, -0.259473205, 0.0416466258
    441, -0.239514738,  0.041397132
    442, -0.219556019, 0.0411675982
    443, -0.199597076, 0.0409580208
    444, -0.179637939, 0.0407684036
    445, -0.159678623, 0.0405987427
    446, -0.139719144, 0.0404490456
    447, -0.119759522, 0.0403193049
    448, -0.099799782, 0.0402095281
    449, -0.0798399448, 0.0401197076
    450, -0.0598800294, 0.0400498472
    451, -0.0399200544,  0.039999947
    452, -0.0199600365, 0.0399700068
    453,           0., 0.0399600267
    454, 0.0199600365, 0.0399700068
    455, 0.0399200544,  0.039999947
    456, 0.0598800294, 0.0400498472
    457, 0.0798399448, 0.0401197076
    458,  0.099799782, 0.0402095281
    459,  0.119759522, 0.0403193049
    460,  0.139719144, 0.0404490456
    461,  0.159678623, 0.0405987427
    462,  0.179637939, 0.0407684036
    463,  0.199597076, 0.0409580208
    464,  0.219556019, 0.0411675982
    465,  0.239514738,  0.041397132
    466,  0.259473205, 0.0416466258
    467,  0.279431432, 0.0419160798
    468,  0.299389362, 0.0422054902
    469,  0.319347024, 0.0425148569
    470,  0.339304328, 0.0428441837
    471,  0.359261304,  0.043193467
    472,  0.379217952, 0.0435627066
    473,  0.399174184, 0.0439519025
    474,  0.419130027, 0.0443610549
    475,  0.439085454, 0.0447901599
    476,  0.459040433,  0.045239225
    477,  0.478994966, 0.0457082428
    478,  0.498949021, 0.0461972132
    479,    0.5189026,   0.04670614
    480,  0.538855612, 0.0472350195
    481,  0.558808088, 0.0477838516
    482,  0.578760028, 0.0483526364
    483,  0.598711371, 0.0489413701
    484,  0.618662119, 0.0495500565
    485,   0.63861227, 0.0501786955
    486,  0.658561766, 0.0508272834
    487,  0.678510606, 0.0514958166
    488,  0.698458791, 0.0521843024
    489,   0.71840626, 0.0528927371
    490,  0.738353014,  0.053621117
    491,  0.758298993, 0.0543694422
    492,  0.778244257, 0.0551377125
    493,  0.798188686, 0.0559259281
    494,  0.818132401, 0.0567340888
    495,  0.838075221, 0.0575621948
    496,  0.858017266, 0.0584102422
    497,  0.877958417, 0.0592782274
    498,  0.897898674, 0.0601661578
    499,  0.917838097, 0.0610740259
    500,  0.937776506, 0.0620018318
    501,  0.957714081, 0.0629495755
    502,  0.977650642, 0.0639172643
    503,  0.997586191, 0.0649048761
    504,   1.01752079,  0.065912433
    505,   1.03745437, 0.0669399202
    506,   1.05738688, 0.0679873377
    507,   1.07731843,  0.069054693
    508,   1.09724879, 0.0701419786
    509,   1.11717808, 0.0712491944
    510,    1.1371063, 0.0723763332
    511,   1.15703332, 0.0735234022
    512,   1.17695928, 0.0746904016
    513,   1.19688392, 0.0758773237
    514,   1.21680748, 0.0770841688
    515,   1.23672974, 0.0783109367
    516,   1.25665081, 0.0795576274
    517,   1.27657068,  0.080824241
    518,   1.29648924,   0.08211077
    519,   1.31640649, 0.0834172145
    520,   1.33632231, 0.0847435817
    521,   1.35623693, 0.0860898569
    522,   1.37615013,  0.087456055
    523,   1.39606202,  0.088842161
    524,   1.41597247,  0.090248175
    525,    1.4358815, 0.0916741043
    526,   1.45578909, 0.0931199417
    527,   1.47569525, 0.0945856795
    528,   1.49559999, 0.0960713327
    529,   1.51550317,  0.097576879
    530,    1.5354048, 0.0991023332
    531,   1.55530488,  0.100647688
    532,   1.57520354,  0.102212943
    533,   1.59510052,  0.103798099
    534,   1.61499584,  0.105403148
    535,   1.63488972,  0.107028089
    536,   1.65478182,  0.108672924
    537,   1.67467237,  0.110337652
    538,   1.69456112,  0.112022266
    539,   1.71444821,  0.113726772
    540,   1.73433363,  0.115451165
    541,   1.75421739,  0.117195442
    542,   1.77409923,  0.118959598
    543,   1.79397941,   0.12074364
    544,  -1.77232611,  0.138830706
    545,  -1.79218638,   0.14061296
    546,  -1.75246406,  0.137068301
    547,  -1.73260021,  0.135325775
    548,   -1.7127347,  0.133603111
    549,   -1.6928674,  0.131900311
    550,  -1.67299843,  0.130217373
    551,  -1.65312791,  0.128554314
    552,   -1.6332556,  0.126911119
    553,  -1.61338174,  0.125287801
    554,  -1.59350622,  0.123684354
    555,  -1.57362902,  0.122100785
    556,   -1.5537504,  0.120537095
    557,   -1.5338701,  0.118993282
    558,  -1.51398838,  0.117469355
    559,   -1.4941051,  0.115965307
    560,  -1.47422028,  0.114481144
    561,  -1.45433402,  0.113016866
    562,  -1.43444633,  0.111572482
    563,  -1.41455722,  0.110147975
    564,  -1.39466667,  0.108743362
    565,  -1.37477469,  0.107358642
    566,  -1.35488141,  0.105993815
    567,  -1.33498669,  0.104648881
    568,  -1.31509066,   0.10332384
    569,  -1.29519331,  0.102018699
    570,  -1.27529478,  0.100733459
    571,  -1.25539482,  0.099468112
    572,  -1.23549366, 0.0982226655
    573,  -1.21559131, 0.0969971269
    574,  -1.19568765, 0.0957914889
    575,  -1.17578292, 0.0946057513
    576,  -1.15587687, 0.0934399217
    577,  -1.13596976, 0.0922940001
    578,  -1.11606145, 0.0911679789
    579,  -1.09615207, 0.0900618732
    580,  -1.07624161, 0.0889756754
    581,  -1.05633008,  0.087909393
    582,  -1.03641748, 0.0868630186
    583,  -1.01650381, 0.0858365595
    584, -0.996589124, 0.0848300084
    585, -0.976673484, 0.0838433802
    586,  -0.95675683, 0.0828766599
    587, -0.936839223, 0.0819298625
    588, -0.916920662, 0.0810029879
    589, -0.897001207, 0.0800960213
    590, -0.877080858,  0.079208985
    591, -0.857159674,  0.078341864
    592, -0.837237597,  0.077494666
    593, -0.817314684, 0.0766673908
    594, -0.797390938, 0.0758600384
    595, -0.777466357, 0.0750726089
    596,  -0.75754106, 0.0743051022
    597, -0.737614989, 0.0735575259
    598, -0.717688203, 0.0728298724
    599, -0.697760642, 0.0721221492
    600, -0.677832425, 0.0714343488
    601, -0.657903552, 0.0707664862
    602, -0.637973964, 0.0701185465
    603,  -0.61804378,  0.069490537
    604,    -0.598113, 0.0688824579
    605, -0.578181565, 0.0682943091
    606, -0.558249593,  0.067726098
    607, -0.538317025, 0.0671778098
    608,  -0.51838392, 0.0666494593
    609, -0.498450309, 0.0661410466
    610, -0.478516221, 0.0656525567
    611, -0.458581626, 0.0651840121
    612, -0.438646585, 0.0647353977
    613, -0.418711126, 0.0643067211
    614,  -0.39877522, 0.0638979748
    615, -0.378838927, 0.0635091662
    616, -0.358902246, 0.0631402954
    617, -0.338965207, 0.0627913624
    618, -0.319027841, 0.0624623671
    619, -0.299090147, 0.0621533096
    620, -0.279152125, 0.0618641861
    621, -0.259213865, 0.0615950041
    622, -0.239275336, 0.0613457598
    623, -0.219336569, 0.0611164533
    624, -0.199397579, 0.0609070845
    625,  -0.17945838, 0.0607176572
    626, -0.159519017, 0.0605481677
    627,  -0.13957949, 0.0603986196
    628, -0.119639821, 0.0602690093
    629, -0.0997000337, 0.0601593405
    630, -0.0797601491, 0.0600696094
    631, -0.0598201789, 0.0599998198
    632, -0.0398801528, 0.0599499717
    633, -0.0199400857, 0.0599200614
    634,           0., 0.0599100888
    635, 0.0199400857, 0.0599200614
    636, 0.0398801528, 0.0599499717
    637, 0.0598201789, 0.0599998198
    638, 0.0797601491, 0.0600696094
    639, 0.0997000337, 0.0601593405
    640,  0.119639821, 0.0602690093
    641,   0.13957949, 0.0603986196
    642,  0.159519017, 0.0605481677
    643,   0.17945838, 0.0607176572
    644,  0.199397579, 0.0609070845
    645,  0.219336569, 0.0611164533
    646,  0.239275336, 0.0613457598
    647,  0.259213865, 0.0615950041
    648,  0.279152125, 0.0618641861
    649,  0.299090147, 0.0621533096
    650,  0.319027841, 0.0624623671
    651,  0.338965207, 0.0627913624
    652,  0.358902246, 0.0631402954
    653,  0.378838927, 0.0635091662
    654,   0.39877522, 0.0638979748
    655,  0.418711126, 0.0643067211
    656,  0.438646585, 0.0647353977
    657,  0.458581626, 0.0651840121
    658,  0.478516221, 0.0656525567
    659,  0.498450309, 0.0661410466
    660,   0.51838392, 0.0666494593
    661,  0.538317025, 0.0671778098
    662,  0.558249593,  0.067726098
    663,  0.578181565, 0.0682943091
    664,     0.598113, 0.0688824579
    665,   0.61804378,  0.069490537
    666,  0.637973964, 0.0701185465
    667,  0.657903552, 0.0707664862
    668,  0.677832425, 0.0714343488
    669,  0.697760642, 0.0721221492
    670,  0.717688203, 0.0728298724
    671,  0.737614989, 0.0735575259
    672,   0.75754106, 0.0743051022
    673,  0.777466357, 0.0750726089
    674,  0.797390938, 0.0758600384
    675,  0.817314684, 0.0766673908
    676,  0.837237597,  0.077494666
    677,  0.857159674,  0.078341864
    678,  0.877080858,  0.079208985
    679,  0.897001207, 0.0800960213
    680,  0.916920662, 0.0810029879
    681,  0.936839223, 0.0819298625
    682,   0.95675683, 0.0828766599
    683,  0.976673484, 0.0838433802
    684,  0.996589124, 0.0848300084
    685,   1.01650381, 0.0858365595
    686,   1.03641748, 0.0868630186
    687,   1.05633008,  0.087909393
    688,   1.07624161, 0.0889756754
    689,   1.09615207, 0.0900618732
    690,   1.11606145, 0.0911679789
    691,   1.13596976, 0.0922940001
    692,   1.15587687, 0.0934399217
    693,   1.17578292, 0.0946057513
    694,   1.19568765, 0.0957914889
    695,   1.21559131, 0.0969971269
    696,   1.23549366, 0.0982226655
    697,   1.25539482,  0.099468112
    698,   1.27529478,  0.100733459
    699,   1.29519331,  0.102018699
    700,   1.31509066,   0.10332384
    701,   1.33498669,  0.104648881
    702,   1.35488141,  0.105993815
    703,   1.37477469,  0.107358642
    704,   1.39466667,  0.108743362
    705,   1.41455722,  0.110147975
    706,   1.43444633,  0.111572482
    707,   1.45433402,  0.113016866
    708,   1.47422028,  0.114481144
    709,    1.4941051,  0.115965307
    710,   1.51398838,  0.117469355
    711,    1.5338701,  0.118993282
    712,    1.5537504,  0.120537095
    713,   1.57362902,  0.122100785
    714,   1.59350622,  0.123684354
    715,   1.61338174,  0.125287801
    716,    1.6332556,  0.126911119
    717,   1.65312791,  0.128554314
    718,   1.67299843,  0.130217373
    719,    1.6928674,  0.131900311
    720,    1.7127347,  0.133603111
    721,   1.73260021,  0.135325775
    722,   1.75246406,  0.137068301
    723,   1.77232611,  0.138830706
    724,   1.79218638,   0.14061296
    725,  -1.77055466,  0.158681944
    726,  -1.79039502,  0.160462424
    727,  -1.75071239,  0.156921312
    728,  -1.73086846,  0.155180514
    729,  -1.71102285,  0.153459579
    730,  -1.69117546,  0.151758477
    731,  -1.67132628,  0.150077224
    732,  -1.65147555,  0.148415819
    733,  -1.63162315,  0.146774277
    734,  -1.61176908,  0.145152569
    735,  -1.59191346,  0.143550739
    736,  -1.57205617,  0.141968757
    737,  -1.55219746,  0.140406623
    738,  -1.53233707,  0.138864353
    739,  -1.51247513,  0.137341946
    740,  -1.49261177,  0.135839403
    741,  -1.47274685,  0.134356722
    742,   -1.4528805,  0.132893905
    743,   -1.4330126,  0.131450966
    744,   -1.4131434,   0.13002789
    745,  -1.39327264,  0.128624678
    746,  -1.37340057,  0.127241343
    747,  -1.35352719,  0.125877872
    748,  -1.33365238,  0.124534287
    749,  -1.31377625,  0.123210572
    750,  -1.29389882,  0.121906735
    751,  -1.27402008,  0.120622776
    752,  -1.25414002,  0.119358696
    753,  -1.23425877,  0.118114494
    754,  -1.21437633,  0.116890177
    755,  -1.19449258,  0.115685746
    756,  -1.17460763,  0.114501193
    757,  -1.15472162,  0.113336533
    758,  -1.13483441,  0.112191752
    759,  -1.11494601,  0.111066863
    760,  -1.09505653,   0.10996186
    761,  -1.07516587,   0.10887675
    762,  -1.05527425,  0.107811525
    763,  -1.03538156,  0.106766202
    764,  -1.01548779,  0.105740763
    765, -0.995593011,  0.104735225
    766, -0.975697279,  0.103749581
    767, -0.955800533,  0.102783829
    768, -0.935902834,  0.101837978
    769, -0.916004241,  0.100912027
    770, -0.896104693,  0.100005969
    771, -0.876204252, 0.0991198197
    772, -0.856302917,  0.098253563
    773, -0.836400747, 0.0974072143
    774, -0.816497743, 0.0965807587
    775, -0.796593904, 0.0957742184
    776, -0.776689291, 0.0949875712
    777, -0.756783903, 0.0942208394
    778, -0.736877739, 0.0934740081
    779, -0.716970861, 0.0927470848
    780, -0.697063267,  0.092040062
    781, -0.677154958, 0.0913529545
    782, -0.657245994,  0.090685755
    783, -0.637336314, 0.0900384635
    784, -0.617426038, 0.0894110799
    785, -0.597515166, 0.0888036117
    786, -0.577603638, 0.0882160515
    787, -0.557691574, 0.0876484066
    788, -0.537778974, 0.0871006697
    789, -0.517865777, 0.0865728483
    790, -0.497952133, 0.0860649422
    791, -0.478037953, 0.0855769441
    792, -0.458123267, 0.0851088613
    793, -0.438208163,  0.084660694
    794, -0.418292612, 0.0842324495
    795, -0.398376644,  0.083824113
    796, -0.378460258, 0.0834356919
    797, -0.358543515, 0.0830671936
    798, -0.338626415, 0.0827186033
    799, -0.318708956, 0.0823899359
    800,   -0.2987912, 0.0820811912
    801, -0.278873116, 0.0817923546
    802, -0.258954793, 0.0815234408
    803, -0.239036188, 0.0812744498
    804, -0.219117343, 0.0810453743
    805, -0.199198276, 0.0808362141
    806, -0.179279014, 0.0806469768
    807, -0.159359574, 0.0804776549
    808, -0.139439985, 0.0803282559
    809,  -0.11952024, 0.0801987723
    810, -0.0996003821, 0.0800892115
    811, -0.0796804279, 0.0799995735
    812, -0.059760388,  0.079929851
    813, -0.0398402922, 0.0798800513
    814, -0.0199201573, 0.0798501745
    815,           0., 0.0798402131
    816, 0.0199201573, 0.0798501745
    817, 0.0398402922, 0.0798800513
    818,  0.059760388,  0.079929851
    819, 0.0796804279, 0.0799995735
    820, 0.0996003821, 0.0800892115
    821,   0.11952024, 0.0801987723
    822,  0.139439985, 0.0803282559
    823,  0.159359574, 0.0804776549
    824,  0.179279014, 0.0806469768
    825,  0.199198276, 0.0808362141
    826,  0.219117343, 0.0810453743
    827,  0.239036188, 0.0812744498
    828,  0.258954793, 0.0815234408
    829,  0.278873116, 0.0817923546
    830,    0.2987912, 0.0820811912
    831,  0.318708956, 0.0823899359
    832,  0.338626415, 0.0827186033
    833,  0.358543515, 0.0830671936
    834,  0.378460258, 0.0834356919
    835,  0.398376644,  0.083824113
    836,  0.418292612, 0.0842324495
    837,  0.438208163,  0.084660694
    838,  0.458123267, 0.0851088613
    839,  0.478037953, 0.0855769441
    840,  0.497952133, 0.0860649422
    841,  0.517865777, 0.0865728483
    842,  0.537778974, 0.0871006697
    843,  0.557691574, 0.0876484066
    844,  0.577603638, 0.0882160515
    845,  0.597515166, 0.0888036117
    846,  0.617426038, 0.0894110799
    847,  0.637336314, 0.0900384635
    848,  0.657245994,  0.090685755
    849,  0.677154958, 0.0913529545
    850,  0.697063267,  0.092040062
    851,  0.716970861, 0.0927470848
    852,  0.736877739, 0.0934740081
    853,  0.756783903, 0.0942208394
    854,  0.776689291, 0.0949875712
    855,  0.796593904, 0.0957742184
    856,  0.816497743, 0.0965807587
    857,  0.836400747, 0.0974072143
    858,  0.856302917,  0.098253563
    859,  0.876204252, 0.0991198197
    860,  0.896104693,  0.100005969
    861,  0.916004241,  0.100912027
    862,  0.935902834,  0.101837978
    863,  0.955800533,  0.102783829
    864,  0.975697279,  0.103749581
    865,  0.995593011,  0.104735225
    866,   1.01548779,  0.105740763
    867,   1.03538156,  0.106766202
    868,   1.05527425,  0.107811525
    869,   1.07516587,   0.10887675
    870,   1.09505653,   0.10996186
    871,   1.11494601,  0.111066863
    872,   1.13483441,  0.112191752
    873,   1.15472162,  0.113336533
    874,   1.17460763,  0.114501193
    875,   1.19449258,  0.115685746
    876,   1.21437633,  0.116890177
    877,   1.23425877,  0.118114494
    878,   1.25414002,  0.119358696
    879,   1.27402008,  0.120622776
    880,   1.29389882,  0.121906735
    881,   1.31377625,  0.123210572
    882,   1.33365238,  0.124534287
    883,   1.35352719,  0.125877872
    884,   1.37340057,  0.127241343
    885,   1.39327264,  0.128624678
    886,    1.4131434,   0.13002789
    887,    1.4330126,  0.131450966
    888,    1.4528805,  0.132893905
    889,   1.47274685,  0.134356722
    890,   1.49261177,  0.135839403
    891,   1.51247513,  0.137341946
    892,   1.53233707,  0.138864353
    893,   1.55219746,  0.140406623
    894,   1.57205617,  0.141968757
    895,   1.59191346,  0.143550739
    896,   1.61176908,  0.145152569
    897,   1.63162315,  0.146774277
    898,   1.65147555,  0.148415819
    899,   1.67132628,  0.150077224
    900,   1.69117546,  0.151758477
    901,   1.71102285,  0.153459579
    902,   1.73086846,  0.155180514
    903,   1.75071239,  0.156921312
    904,   1.77055466,  0.158681944
    905,   1.79039502,  0.160462424
    906,    -1.768785,  0.178513348
    907,  -1.78860557,   0.18029204
    908,  -1.74896264,  0.176754475
    909,  -1.72913849,   0.17501542
    910,  -1.70931268,  0.173296198
    911,  -1.68948507,  0.171596795
    912,   -1.6696558,  0.169917226
    913,  -1.64982498,   0.16825749
    914,  -1.62999237,  0.166617572
    915,  -1.61015821,  0.164997503
    916,  -1.59032238,  0.163397253
    917,    -1.570485,   0.16181685
    918,  -1.55064595,  0.160256296
    919,  -1.53080547,  0.158715561
    920,  -1.51096344,  0.157194674
    921,  -1.49111986,  0.155693635
    922,  -1.47127485,  0.154212445
    923,  -1.45142829,  0.152751088
    924,  -1.43158031,   0.15130958
    925,  -1.41173089,  0.149887934
    926,  -1.39188015,  0.148486122
    927,  -1.37202787,  0.147104174
    928,  -1.35217428,  0.145742074
    929,  -1.33231938,  0.144399822
    930,  -1.31246316,  0.143077433
    931,  -1.29260552,  0.141774893
    932,  -1.27274668,  0.140492216
    933,  -1.25288653,  0.139229402
    934,  -1.23302519,  0.137986451
    935,  -1.21316254,  0.136763349
    936,   -1.1932987,  0.135560125
    937,  -1.17343366,  0.134376749
    938,  -1.15356743,  0.133213252
    939,  -1.13370013,  0.132069618
    940,  -1.11383164,  0.130945846
    941,  -1.09396195,  0.129841954
    942,  -1.07409132,  0.128757924
    943,  -1.05421948,  0.127693772
    944,   -1.0343467,  0.126649499
    945,  -1.01447284,  0.125625089
    946, -0.994597971,  0.124620549
    947, -0.974722087,  0.123635888
    948,  -0.95484525,  0.122671105
    949, -0.934967399,  0.121726193
    950, -0.915088654,  0.120801166
    951, -0.895209014,  0.119896017
    952, -0.875328481,  0.119010746
    953, -0.855447054,  0.118145362
    954, -0.835564792,  0.117299855
    955, -0.815681636,  0.116474234
    956, -0.795797706,  0.115668491
    957,    -0.775913,  0.114882641
    958,  -0.75602752,  0.114116669
    959, -0.736141264,  0.113370582
    960, -0.716254234,  0.112644382
    961, -0.696366549,  0.111938074
    962, -0.676478148,  0.111251652
    963, -0.656589031,  0.110585116
    964, -0.636699319,  0.109938473
    965, -0.616808951,  0.109311722
    966, -0.596917927,  0.108704858
    967, -0.577026367,  0.108117886
    968, -0.557134211,  0.107550807
    969, -0.537241459,  0.107003614
    970,  -0.51734817,  0.106476322
    971, -0.497454405,  0.105968922
    972, -0.477560133,  0.105481416
    973, -0.457665384,  0.105013803
    974, -0.437770188,  0.104566082
    975, -0.417874515,  0.104138263
    976, -0.397978455,  0.103730336
    977, -0.378082007,  0.103342302
    978, -0.358185142,  0.102974169
    979,  -0.33828795,  0.102625936
    980, -0.318390399,  0.102297597
    981, -0.298492551,   0.10198915
    982, -0.278594404,  0.101700611
    983,  -0.25869596,  0.101431966
    984, -0.238797262,  0.101183213
    985, -0.218898326,  0.100954369
    986, -0.198999181,  0.100745417
    987, -0.179099828,  0.100556374
    988, -0.159200296,  0.100387223
    989, -0.139300615,  0.100237973
    990, -0.119400784,  0.100108616
    991, -0.0995008349,  0.099999167
    992, -0.0796007887, 0.0999096185
    993, -0.0597006604, 0.0998399705
    994, -0.0398004726, 0.0997902155
    995, -0.0199002456, 0.0997603685
    996,           0., 0.0997504145
    997, 0.0199002456, 0.0997603685
    998, 0.0398004726, 0.0997902155
    999, 0.0597006604, 0.0998399705
   1000, 0.0796007887, 0.0999096185
   1001, 0.0995008349,  0.099999167
   1002,  0.119400784,  0.100108616
   1003,  0.139300615,  0.100237973
   1004,  0.159200296,  0.100387223
   1005,  0.179099828,  0.100556374
   1006,  0.198999181,  0.100745417
   1007,  0.218898326,  0.100954369
   1008,  0.238797262,  0.101183213
   1009,   0.25869596,  0.101431966
   1010,  0.278594404,  0.101700611
   1011,  0.298492551,   0.10198915
   1012,  0.318390399,  0.102297597
   1013,   0.33828795,  0.102625936
   1014,  0.358185142,  0.102974169
   1015,  0.378082007,  0.103342302
   1016,  0.397978455,  0.103730336
   1017,  0.417874515,  0.104138263
   1018,  0.437770188,  0.104566082
   1019,  0.457665384,  0.105013803
   1020,  0.477560133,  0.105481416
   1021,  0.497454405,  0.105968922
   1022,   0.51734817,  0.106476322
   1023,  0.537241459,  0.107003614
   1024,  0.557134211,  0.107550807
   1025,  0.577026367,  0.108117886
   1026,  0.596917927,  0.108704858
   1027,  0.616808951,  0.109311722
   1028,  0.636699319,  0.109938473
   1029,  0.656589031,  0.110585116
   1030,  0.676478148,  0.111251652
   1031,  0.696366549,  0.111938074
   1032,  0.716254234,  0.112644382
   1033,  0.736141264,  0.113370582
   1034,   0.75602752,  0.114116669
   1035,     0.775913,  0.114882641
   1036,  0.795797706,  0.115668491
   1037,  0.815681636,  0.116474234
   1038,  0.835564792,  0.117299855
   1039,  0.855447054,  0.118145362
   1040,  0.875328481,  0.119010746
   1041,  0.895209014,  0.119896017
   1042,  0.915088654,  0.120801166
   1043,  0.934967399,  0.121726193
   1044,   0.95484525,  0.122671105
   1045,  0.974722087,  0.123635888
   1046,  0.994597971,  0.124620549
   1047,   1.01447284,  0.125625089
   1048,    1.0343467,  0.126649499
   1049,   1.05421948,  0.127693772
   1050,   1.07409132,  0.128757924
   1051,   1.09396195,  0.129841954
   1052,   1.11383164,  0.130945846
   1053,   1.13370013,  0.132069618
   1054,   1.15356743,  0.133213252
   1055,   1.17343366,  0.134376749
   1056,    1.1932987,  0.135560125
   1057,   1.21316254,  0.136763349
   1058,   1.23302519,  0.137986451
   1059,   1.25288653,  0.139229402
   1060,   1.27274668,  0.140492216
   1061,   1.29260552,  0.141774893
   1062,   1.31246316,  0.143077433
   1063,   1.33231938,  0.144399822
   1064,   1.35217428,  0.145742074
   1065,   1.37202787,  0.147104174
   1066,   1.39188015,  0.148486122
   1067,   1.41173089,  0.149887934
   1068,   1.43158031,   0.15130958
   1069,   1.45142829,  0.152751088
   1070,   1.47127485,  0.154212445
   1071,   1.49111986,  0.155693635
   1072,   1.51096344,  0.157194674
   1073,   1.53080547,  0.158715561
   1074,   1.55064595,  0.160256296
   1075,     1.570485,   0.16181685
   1076,   1.59032238,  0.163397253
   1077,   1.61015821,  0.164997503
   1078,   1.62999237,  0.166617572
   1079,   1.64982498,   0.16825749
   1080,    1.6696558,  0.169917226
   1081,   1.68948507,  0.171596795
   1082,   1.70931268,  0.173296198
   1083,   1.72913849,   0.17501542
   1084,   1.74896264,  0.176754475
   1085,     1.768785,  0.178513348
   1086,   1.78860557,   0.18029204
   1087,  -1.76701701,  0.198324919
   1088,  -1.78681791,  0.200101838
   1089,  -1.74721456,  0.196567804
   1090,   -1.7274102,  0.194830492
   1091,  -1.70760417,  0.193112984
   1092,  -1.68779647,   0.19141528
   1093,  -1.66798699,  0.189737394
   1094,  -1.64817595,  0.188079312
   1095,  -1.62836313,  0.186441049
   1096,  -1.60854876,  0.184822589
   1097,  -1.58873284,  0.183223948
   1098,  -1.56891525,  0.181645125
   1099,  -1.54909611,  0.180086121
   1100,  -1.52927542,  0.178546935
   1101,  -1.50945318,  0.177027568
   1102,  -1.48962951,   0.17552802
   1103,  -1.46980429,  0.174048305
   1104,  -1.44997764,  0.172588423
   1105,  -1.43014944,   0.17114836
   1106,  -1.41031992,  0.169728115
   1107,  -1.39048898,  0.168327719
   1108,  -1.37065661,  0.166947141
   1109,  -1.35082281,  0.165586397
   1110,  -1.33098769,  0.164245501
   1111,  -1.31115139,  0.162924424
   1112,  -1.29131365,  0.161623195
   1113,   -1.2714746,  0.160341799
   1114,  -1.25163424,  0.159080252
   1115,  -1.23179281,  0.157838538
   1116,  -1.21194994,  0.156616658
   1117,  -1.19210601,  0.155414626
   1118,  -1.17226076,  0.154232442
   1119,  -1.15241444,  0.153070107
   1120,  -1.13256693,   0.15192762
   1121,  -1.11271834,  0.150804982
   1122,  -1.09286857,  0.149702176
   1123,  -1.07301772,  0.148619235
   1124,  -1.05316579,  0.147556141
   1125,   -1.0333128,  0.146512911
   1126,  -1.01345885,  0.145489529
   1127, -0.993603826,  0.144485995
   1128, -0.973747849,   0.14350231
   1129,  -0.95389086,  0.142538503
   1130, -0.934032917,  0.141594529
   1131,  -0.91417402,  0.140670434
   1132, -0.894314289,  0.139766186
   1133, -0.874453604,  0.138881803
   1134, -0.854592025,  0.138017282
   1135, -0.834729612,  0.137172624
   1136, -0.814866364,  0.136347815
   1137, -0.795002341,  0.135542884
   1138, -0.775137484,  0.134757817
   1139, -0.755271852,  0.133992612
   1140, -0.735405445,  0.133247271
   1141, -0.715538383,  0.132521793
   1142, -0.695670545,  0.131816193
   1143, -0.675801992,  0.131130457
   1144, -0.655932784,  0.130464599
   1145,  -0.63606292,  0.129818588
   1146,  -0.61619246,  0.129192472
   1147, -0.596321344,  0.128586203
   1148, -0.576449633,  0.127999827
   1149, -0.556577325,  0.127433315
   1150, -0.536704481,  0.126886666
   1151,   -0.5168311,  0.126359895
   1152, -0.496957213,  0.125853002
   1153, -0.477082819,  0.125365987
   1154, -0.457207948,  0.124898843
   1155,  -0.43733263,   0.12445157
   1156, -0.417456865,  0.124024175
   1157, -0.397580683,  0.123616658
   1158, -0.377704114,  0.123229019
   1159, -0.357827157,  0.122861251
   1160, -0.337949842,  0.122513361
   1161,  -0.31807217,  0.122185349
   1162,   -0.2981942,  0.121877216
   1163, -0.278315932,   0.12158896
   1164, -0.258437395,  0.121320583
   1165,  -0.23855859,  0.121072091
   1166, -0.218679547,   0.12084347
   1167, -0.198800281,  0.120634727
   1168,  -0.17892082,   0.12044587
   1169, -0.159041181,  0.120276891
   1170, -0.139161378,  0.120127782
   1171, -0.119281441,  0.119998567
   1172, -0.0994013846,  0.119889222
   1173, -0.0795212239,  0.119799763
   1174, -0.0596409887,  0.119730182
   1175, -0.0397606939,  0.119680479
   1176, -0.0198803563,  0.119650662
   1177,           0.,  0.119640715
   1178, 0.0198803563,  0.119650662
   1179, 0.0397606939,  0.119680479
   1180, 0.0596409887,  0.119730182
   1181, 0.0795212239,  0.119799763
   1182, 0.0994013846,  0.119889222
   1183,  0.119281441,  0.119998567
   1184,  0.139161378,  0.120127782
   1185,  0.159041181,  0.120276891
   1186,   0.17892082,   0.12044587
   1187,  0.198800281,  0.120634727
   1188,  0.218679547,   0.12084347
   1189,   0.23855859,  0.121072091
   1190,  0.258437395,  0.121320583
   1191,  0.278315932,   0.12158896
   1192,    0.2981942,  0.121877216
   1193,   0.31807217,  0.122185349
   1194,  0.337949842,  0.122513361
   1195,  0.357827157,  0.122861251
   1196,  0.377704114,  0.123229019
   1197,  0.397580683,  0.123616658
   1198,  0.417456865,  0.124024175
   1199,   0.43733263,   0.12445157
   1200,  0.457207948,  0.124898843
   1201,  0.477082819,  0.125365987
   1202,  0.496957213,  0.125853002
   1203,    0.5168311,  0.126359895
   1204,  0.536704481,  0.126886666
   1205,  0.556577325,  0.127433315
   1206,  0.576449633,  0.127999827
   1207,  0.596321344,  0.128586203
   1208,   0.61619246,  0.129192472
   1209,   0.63606292,  0.129818588
   1210,  0.655932784,  0.130464599
   1211,  0.675801992,  0.131130457
   1212,  0.695670545,  0.131816193
   1213,  0.715538383,  0.132521793
   1214,  0.735405445,  0.133247271
   1215,  0.755271852,  0.133992612
   1216,  0.775137484,  0.134757817
   1217,  0.795002341,  0.135542884
   1218,  0.814866364,  0.136347815
   1219,  0.834729612,  0.137172624
   1220,  0.854592025,  0.138017282
   1221,  0.874453604,  0.138881803
   1222,  0.894314289,  0.139766186
   1223,   0.91417402,  0.140670434
   1224,  0.934032917,  0.141594529
   1225,   0.95389086,  0.142538503
   1226,  0.973747849,   0.14350231
   1227,  0.993603826,  0.144485995
   1228,   1.01345885,  0.145489529
   1229,    1.0333128,  0.146512911
   1230,   1.05316579,  0.147556141
   1231,   1.07301772,  0.148619235
   1232,   1.09286857,  0.149702176
   1233,   1.11271834,  0.150804982
   1234,   1.13256693,   0.15192762
   1235,   1.15241444,  0.153070107
   1236,   1.17226076,  0.154232442
   1237,   1.19210601,  0.155414626
   1238,   1.21194994,  0.156616658
   1239,   1.23179281,  0.157838538
   1240,   1.25163424,  0.159080252
   1241,    1.2714746,  0.160341799
   1242,   1.29131365,  0.161623195
   1243,   1.31115139,  0.162924424
   1244,   1.33098769,  0.164245501
   1245,   1.35082281,  0.165586397
   1246,   1.37065661,  0.166947141
   1247,   1.39048898,  0.168327719
   1248,   1.41031992,  0.169728115
   1249,   1.43014944,   0.17114836
   1250,   1.44997764,  0.172588423
   1251,   1.46980429,  0.174048305
   1252,   1.48962951,   0.17552802
   1253,   1.50945318,  0.177027568
   1254,   1.52927542,  0.178546935
   1255,   1.54909611,  0.180086121
   1256,   1.56891525,  0.181645125
   1257,   1.58873284,  0.183223948
   1258,   1.60854876,  0.184822589
   1259,   1.62836313,  0.186441049
   1260,   1.64817595,  0.188079312
   1261,   1.66798699,  0.189737394
   1262,   1.68779647,   0.19141528
   1263,   1.70760417,  0.193112984
   1264,    1.7274102,  0.194830492
   1265,   1.74721456,  0.196567804
   1266,   1.76701701,  0.198324919
   1267,   1.78681791,  0.200101838
   1268,  -1.76525092,  0.218116701
   1269,  -1.78503191,  0.219891846
   1270,  -1.74546814,  0.216361344
   1271,  -1.72568369,  0.214625761
   1272,  -1.70589745,  0.212909982
   1273,  -1.68610954,  0.211213976
   1274,  -1.66631985,  0.209537759
   1275,   -1.6465286,  0.207881331
   1276,  -1.62673557,  0.206244692
   1277,   -1.6069411,  0.204627857
   1278,  -1.58714485,  0.203030825
   1279,  -1.56734717,  0.201453567
   1280,  -1.54754782,  0.199896127
   1281,  -1.52774692,  0.198358476
   1282,  -1.50794458,  0.196840629
   1283,  -1.48814058,  0.195342585
   1284,  -1.46833527,  0.193864346
   1285,  -1.44852841,  0.192405924
   1286,     -1.42872,  0.190967292
   1287,  -1.40891027,  0.189548478
   1288,  -1.38909912,  0.188149467
   1289,  -1.36928666,  0.186770275
   1290,  -1.34947264,  0.185410902
   1291,  -1.32965744,  0.184071332
   1292,   -1.3098408,  0.182751581
   1293,  -1.29002297,  0.181451648
   1294,  -1.27020371,  0.180171534
   1295,  -1.25038326,  0.178911254
   1296,  -1.23056161,  0.177670777
   1297,  -1.21073866,  0.176450118
   1298,  -1.19091451,  0.175249293
   1299,  -1.17108917,  0.174068302
   1300,  -1.15126264,  0.172907114
   1301,  -1.13143492,  0.171765774
   1302,  -1.11160612,  0.170644253
   1303,  -1.09177625,  0.169542566
   1304,  -1.07194531,  0.168460697
   1305,  -1.05211318,  0.167398676
   1306,  -1.03228009,  0.166356474
   1307,  -1.01244593,  0.165334105
   1308, -0.992610753,  0.164331585
   1309, -0.972774565,  0.163348883
   1310, -0.952937424,   0.16238603
   1311, -0.933099329,   0.16144301
   1312, -0.913260341,  0.160519838
   1313, -0.893420398,    0.1596165
   1314, -0.873579562,  0.158732995
   1315, -0.853737891,  0.157869339
   1316, -0.833895326,  0.157025516
   1317, -0.814051926,  0.156201541
   1318, -0.794207752,  0.155397415
   1319, -0.774362743,  0.154613122
   1320, -0.754516959,  0.153848693
   1321,  -0.73467046,  0.153104097
   1322, -0.714823186,  0.152379349
   1323, -0.694975197,  0.151674449
   1324, -0.675126553,  0.150989398
   1325, -0.655277193,  0.150324196
   1326, -0.635427177,  0.149678841
   1327, -0.615576565,  0.149053335
   1328, -0.595725298,  0.148447692
   1329, -0.575873435,  0.147861898
   1330, -0.556021035,  0.147295937
   1331, -0.536168039,  0.146749854
   1332, -0.516314507,  0.146223605
   1333, -0.496460497,  0.145717219
   1334, -0.476605982,  0.145230681
   1335, -0.456750959,  0.144764006
   1336, -0.436895519,   0.14431718
   1337, -0.417039603,  0.143890217
   1338, -0.397183299,  0.143483102
   1339, -0.377326578,  0.143095851
   1340, -0.357469499,  0.142728448
   1341, -0.337612063,  0.142380908
   1342, -0.317754269,  0.142053232
   1343, -0.297896147,  0.141745403
   1344, -0.278037757,  0.141457438
   1345, -0.258179069,  0.141189322
   1346, -0.238320142,  0.140941083
   1347, -0.218460977,  0.140712693
   1348, -0.198601574,  0.140504152
   1349, -0.178741992,  0.140315488
   1350, -0.158882216,  0.140146673
   1351, -0.139022291,  0.139997721
   1352, -0.119162217,  0.139868632
   1353, -0.0993020311,  0.139759392
   1354, -0.0794417411,  0.139670029
   1355, -0.0595813766,  0.139600515
   1356, -0.0397209525,  0.139550865
   1357, -0.0198604856,  0.139521077
   1358,           0.,  0.139511138
   1359, 0.0198604856,  0.139521077
   1360, 0.0397209525,  0.139550865
   1361, 0.0595813766,  0.139600515
   1362, 0.0794417411,  0.139670029
   1363, 0.0993020311,  0.139759392
   1364,  0.119162217,  0.139868632
   1365,  0.139022291,  0.139997721
   1366,  0.158882216,  0.140146673
   1367,  0.178741992,  0.140315488
   1368,  0.198601574,  0.140504152
   1369,  0.218460977,  0.140712693
   1370,  0.238320142,  0.140941083
   1371,  0.258179069,  0.141189322
   1372,  0.278037757,  0.141457438
   1373,  0.297896147,  0.141745403
   1374,  0.317754269,  0.142053232
   1375,  0.337612063,  0.142380908
   1376,  0.357469499,  0.142728448
   1377,  0.377326578,  0.143095851
   1378,  0.397183299,  0.143483102
   1379,  0.417039603,  0.143890217
   1380,  0.436895519,   0.14431718
   1381,  0.456750959,  0.144764006
   1382,  0.476605982,  0.145230681
   1383,  0.496460497,  0.145717219
   1384,  0.516314507,  0.146223605
   1385,  0.536168039,  0.146749854
   1386,  0.556021035,  0.147295937
   1387,  0.575873435,  0.147861898
   1388,  0.595725298,  0.148447692
   1389,  0.615576565,  0.149053335
   1390,  0.635427177,  0.149678841
   1391,  0.655277193,  0.150324196
   1392,  0.675126553,  0.150989398
   1393,  0.694975197,  0.151674449
   1394,  0.714823186,  0.152379349
   1395,   0.73467046,  0.153104097
   1396,  0.754516959,  0.153848693
   1397,  0.774362743,  0.154613122
   1398,  0.794207752,  0.155397415
   1399,  0.814051926,  0.156201541
   1400,  0.833895326,  0.157025516
   1401,  0.853737891,  0.157869339
   1402,  0.873579562,  0.158732995
   1403,  0.893420398,    0.1596165
   1404,  0.913260341,  0.160519838
   1405,  0.933099329,   0.16144301
   1406,  0.952937424,   0.16238603
   1407,  0.972774565,  0.163348883
   1408,  0.992610753,  0.164331585
   1409,   1.01244593,  0.165334105
   1410,   1.03228009,  0.166356474
   1411,   1.05211318,  0.167398676
   1412,   1.07194531,  0.168460697
   1413,   1.09177625,  0.169542566
   1414,   1.11160612,  0.170644253
   1415,   1.13143492,  0.171765774
   1416,   1.15126264,  0.172907114
   1417,   1.17108917,  0.174068302
   1418,   1.19091451,  0.175249293
   1419,   1.21073866,  0.176450118
   1420,   1.23056161,  0.177670777
   1421,   1.25038326,  0.178911254
   1422,   1.27020371,  0.180171534
   1423,   1.29002297,  0.181451648
   1424,    1.3098408,  0.182751581
   1425,   1.32965744,  0.184071332
   1426,   1.34947264,  0.185410902
   1427,   1.36928666,  0.186770275
   1428,   1.38909912,  0.188149467
   1429,   1.40891027,  0.189548478
   1430,      1.42872,  0.190967292
   1431,   1.44852841,  0.192405924
   1432,   1.46833527,  0.193864346
   1433,   1.48814058,  0.195342585
   1434,   1.50794458,  0.196840629
   1435,   1.52774692,  0.198358476
   1436,   1.54754782,  0.199896127
   1437,   1.56734717,  0.201453567
   1438,   1.58714485,  0.203030825
   1439,    1.6069411,  0.204627857
   1440,   1.62673557,  0.206244692
   1441,    1.6465286,  0.207881331
   1442,   1.66631985,  0.209537759
   1443,   1.68610954,  0.211213976
   1444,   1.70589745,  0.212909982
   1445,   1.72568369,  0.214625761
   1446,   1.74546814,  0.216361344
   1447,   1.76525092,  0.218116701
   1448,   1.78503191,  0.219891846
   1449,   -1.7634865,  0.237888694
   1450,  -1.78324783,  0.239662066
   1451,  -1.74372351,  0.236135095
   1452,  -1.72395885,  0.234401256
   1453,   -1.7041924,  0.232687175
   1454,  -1.68442416,  0.230992869
   1455,  -1.66465437,  0.229318321
   1456,  -1.64488292,  0.227663562
   1457,  -1.62510967,  0.226028562
   1458,  -1.60533488,  0.224413335
   1459,  -1.58555853,  0.222817898
   1460,  -1.56578052,  0.221242219
   1461,  -1.54600108,  0.219686329
   1462,  -1.52621996,  0.218150213
   1463,   -1.5064373,  0.216633886
   1464,  -1.48665321,  0.215137348
   1465,  -1.46686757,  0.213660583
   1466,  -1.44708049,  0.212203607
   1467,  -1.42729199,   0.21076642
   1468,  -1.40750206,  0.209349021
   1469,  -1.38771069,  0.207951427
   1470,  -1.36791801,  0.206573606
   1471,  -1.34812391,  0.205215588
   1472,  -1.32832849,   0.20387736
   1473,  -1.30853164,  0.202558935
   1474,   -1.2887336,  0.201260298
   1475,  -1.26893413,  0.199981466
   1476,  -1.24913359,  0.198722422
   1477,  -1.22933161,  0.197483197
   1478,  -1.20952845,   0.19626376
   1479,  -1.18972421,  0.195064142
   1480,  -1.16991866,  0.193884313
   1481,  -1.15011191,  0.192724302
   1482,   -1.1303041,  0.191584095
   1483,  -1.11049509,  0.190463692
   1484,  -1.09068501,  0.189363107
   1485,  -1.07087386,  0.188282326
   1486,  -1.05106163,  0.187221363
   1487,  -1.03124833,  0.186180204
   1488,  -1.01143396,  0.185158864
   1489, -0.991618633,  0.184157342
   1490, -0.971802294,  0.183175623
   1491, -0.951985002,  0.182213724
   1492, -0.932166696,  0.181271657
   1493, -0.912347555,  0.180349395
   1494, -0.892527401,  0.179446965
   1495, -0.872706413,   0.17856434
   1496, -0.852884531,  0.177701548
   1497, -0.833061814,  0.176858574
   1498, -0.813238263,  0.176035419
   1499, -0.793413937,  0.175232098
   1500, -0.773588777,  0.174448594
   1501, -0.753762841,  0.173684925
   1502, -0.733936131,  0.172941074
   1503, -0.714108706,  0.172217041
   1504, -0.694280565,  0.171512857
   1505, -0.674451768,  0.170828491
   1506, -0.654622257,  0.170163944
   1507, -0.634792089,  0.169519246
   1508, -0.614961267,  0.168894365
   1509, -0.595129848,  0.168289319
   1510, -0.575297892,  0.167704105
   1511, -0.555465281,  0.167138726
   1512, -0.535632133,  0.166593179
   1513,  -0.51579845,  0.166067466
   1514, -0.495964289,  0.165561587
   1515, -0.476129621,  0.165075526
   1516, -0.456294447,  0.164609328
   1517, -0.436458826,  0.164162949
   1518, -0.416622788,  0.163736403
   1519, -0.396786302,  0.163329706
   1520, -0.376949459,  0.162942827
   1521, -0.357112199,  0.162575796
   1522, -0.337274611,  0.162228599
   1523, -0.317436665,   0.16190125
   1524, -0.297598422,  0.161593735
   1525,  -0.27775985,  0.161306053
   1526,  -0.25792104,   0.16103822
   1527, -0.238081947,  0.160790205
   1528, -0.218242615,  0.160562053
   1529, -0.198403075,   0.16035372
   1530, -0.178563327,   0.16016525
   1531, -0.158723414,  0.159996599
   1532, -0.138883337,  0.159847796
   1533, -0.119043112,  0.159718826
   1534, -0.0992027745,  0.159609705
   1535, -0.0793623403,  0.159520432
   1536, -0.0595218241,  0.159450993
   1537, -0.0396812484,  0.159401387
   1538, -0.0198406354,  0.159371629
   1539,           0.,  0.159361705
   1540, 0.0198406354,  0.159371629
   1541, 0.0396812484,  0.159401387
   1542, 0.0595218241,  0.159450993
   1543, 0.0793623403,  0.159520432
   1544, 0.0992027745,  0.159609705
   1545,  0.119043112,  0.159718826
   1546,  0.138883337,  0.159847796
   1547,  0.158723414,  0.159996599
   1548,  0.178563327,   0.16016525
   1549,  0.198403075,   0.16035372
   1550,  0.218242615,  0.160562053
   1551,  0.238081947,  0.160790205
   1552,   0.25792104,   0.16103822
   1553,   0.27775985,  0.161306053
   1554,  0.297598422,  0.161593735
   1555,  0.317436665,   0.16190125
   1556,  0.337274611,  0.162228599
   1557,  0.357112199,  0.162575796
   1558,  0.376949459,  0.162942827
   1559,  0.396786302,  0.163329706
   1560,  0.416622788,  0.163736403
   1561,  0.436458826,  0.164162949
   1562,  0.456294447,  0.164609328
   1563,  0.476129621,  0.165075526
   1564,  0.495964289,  0.165561587
   1565,   0.51579845,  0.166067466
   1566,  0.535632133,  0.166593179
   1567,  0.555465281,  0.167138726
   1568,  0.575297892,  0.167704105
   1569,  0.595129848,  0.168289319
   1570,  0.614961267,  0.168894365
   1571,  0.634792089,  0.169519246
   1572,  0.654622257,  0.170163944
   1573,  0.674451768,  0.170828491
   1574,  0.694280565,  0.171512857
   1575,  0.714108706,  0.172217041
   1576,  0.733936131,  0.172941074
   1577,  0.753762841,  0.173684925
   1578,  0.773588777,  0.174448594
   1579,  0.793413937,  0.175232098
   1580,  0.813238263,  0.176035419
   1581,  0.833061814,  0.176858574
   1582,  0.852884531,  0.177701548
   1583,  0.872706413,   0.17856434
   1584,  0.892527401,  0.179446965
   1585,  0.912347555,  0.180349395
   1586,  0.932166696,  0.181271657
   1587,  0.951985002,  0.182213724
   1588,  0.971802294,  0.183175623
   1589,  0.991618633,  0.184157342
   1590,   1.01143396,  0.185158864
   1591,   1.03124833,  0.186180204
   1592,   1.05106163,  0.187221363
   1593,   1.07087386,  0.188282326
   1594,   1.09068501,  0.189363107
   1595,   1.11049509,  0.190463692
   1596,    1.1303041,  0.191584095
   1597,   1.15011191,  0.192724302
   1598,   1.16991866,  0.193884313
   1599,   1.18972421,  0.195064142
   1600,   1.20952845,   0.19626376
   1601,   1.22933161,  0.197483197
   1602,   1.24913359,  0.198722422
   1603,   1.26893413,  0.199981466
   1604,    1.2887336,  0.201260298
   1605,   1.30853164,  0.202558935
   1606,   1.32832849,   0.20387736
   1607,   1.34812391,  0.205215588
   1608,   1.36791801,  0.206573606
   1609,   1.38771069,  0.207951427
   1610,   1.40750206,  0.209349021
   1611,   1.42729199,   0.21076642
   1612,   1.44708049,  0.212203607
   1613,   1.46686757,  0.213660583
   1614,   1.48665321,  0.215137348
   1615,    1.5064373,  0.216633886
   1616,   1.52621996,  0.218150213
   1617,   1.54600108,  0.219686329
   1618,   1.56578052,  0.221242219
   1619,   1.58555853,  0.222817898
   1620,   1.60533488,  0.224413335
   1621,   1.62510967,  0.226028562
   1622,   1.64488292,  0.227663562
   1623,   1.66465437,  0.229318321
   1624,   1.68442416,  0.230992869
   1625,    1.7041924,  0.232687175
   1626,   1.72395885,  0.234401256
   1627,   1.74372351,  0.236135095
   1628,    1.7634865,  0.237888694
   1629,   1.78324783,  0.239662066
   1630,    -1.761724,  0.257640928
   1631,  -1.78146541,  0.259412527
   1632,  -1.74198067,  0.255889088
   1633,  -1.72223568,  0.254156977
   1634,  -1.70248902,  0.252444595
   1635,  -1.68274069,  0.250752002
   1636,  -1.66299057,  0.249079123
   1637,  -1.64323878,  0.247426018
   1638,  -1.62348545,  0.245792642
   1639,  -1.60373044,   0.24417904
   1640,  -1.58397377,  0.242585182
   1641,  -1.56421554,  0.241011098
   1642,  -1.54445577,  0.239456758
   1643,  -1.52469444,  0.237922177
   1644,  -1.50493169,  0.236407369
   1645,  -1.48516726,  0.234912321
   1646,  -1.46540153,  0.233437032
   1647,  -1.44563425,  0.231981516
   1648,  -1.42586541,  0.230545774
   1649,  -1.40609527,  0.229129791
   1650,  -1.38632369,  0.227733582
   1651,   -1.3665508,  0.226357147
   1652,  -1.34677649,  0.225000471
   1653,  -1.32700074,  0.223663583
   1654,   -1.3072238,   0.22234647
   1655,  -1.28744543,  0.221049145
   1656,  -1.26766586,  0.219771579
   1657,  -1.24788499,  0.218513802
   1658,  -1.22810292,  0.217275813
   1659,  -1.20831954,  0.216057599
   1660,  -1.18853498,  0.214859173
   1661,  -1.16874933,  0.213680536
   1662,  -1.14896238,  0.212521672
   1663,  -1.12917435,  0.211382613
   1664,  -1.10938513,  0.210263327
   1665,  -1.08959484,  0.209163845
   1666,  -1.06980348,  0.208084136
   1667,  -1.05001104,  0.207024232
   1668,  -1.03021753,  0.205984116
   1669,  -1.01042306,  0.204963803
   1670, -0.990627468,   0.20396328
   1671, -0.970830977,  0.202982545
   1672, -0.951033473,  0.202021614
   1673, -0.931235015,  0.201080471
   1674, -0.911435664,  0.200159147
   1675, -0.891635358,  0.199257612
   1676, -0.871834159,  0.198375866
   1677, -0.852032125,  0.197513938
   1678, -0.832229197,  0.196671814
   1679, -0.812425435,  0.195849478
   1680, -0.792620897,  0.195046961
   1681, -0.772815526,  0.194264233
   1682, -0.753009439,  0.193501323
   1683, -0.733202577,  0.192758217
   1684,  -0.71339494,  0.192034915
   1685, -0.693586648,  0.191331431
   1686,  -0.67377764,  0.190647751
   1687, -0.653967917,  0.189983875
   1688, -0.634157598,  0.189339817
   1689, -0.614346623,  0.188715562
   1690, -0.594535053,  0.188111126
   1691, -0.574722826,  0.187526494
   1692, -0.554910123,  0.186961681
   1693, -0.535096765,  0.186416671
   1694, -0.515282929,  0.185891479
   1695, -0.495468587,  0.185386106
   1696, -0.475653708,  0.184900537
   1697, -0.455838382,  0.184434801
   1698,  -0.43602258,  0.183988869
   1699,  -0.41620636,  0.183562756
   1700, -0.396389723,  0.183156461
   1701, -0.376572698,  0.182769969
   1702, -0.356755257,  0.182403311
   1703, -0.336937487,  0.182056457
   1704,  -0.31711939,  0.181729436
   1705, -0.297300965,  0.181422219
   1706, -0.277482241,  0.181134835
   1707,  -0.25766325,  0.180867255
   1708, -0.237843975,  0.180619508
   1709, -0.218024492,  0.180391565
   1710, -0.198204771,  0.180183455
   1711, -0.178384855,  0.179995164
   1712, -0.158564776,  0.179826692
   1713, -0.138744518,  0.179678038
   1714, -0.118924133,  0.179549202
   1715, -0.0991036221,  0.179440185
   1716, -0.0792830214,  0.179350987
   1717, -0.059462335,  0.179281622
   1718, -0.0396415889,  0.179232061
   1719, -0.0198208038,  0.179202333
   1720,           0.,  0.179192424
   1721, 0.0198208038,  0.179202333
   1722, 0.0396415889,  0.179232061
   1723,  0.059462335,  0.179281622
   1724, 0.0792830214,  0.179350987
   1725, 0.0991036221,  0.179440185
   1726,  0.118924133,  0.179549202
   1727,  0.138744518,  0.179678038
   1728,  0.158564776,  0.179826692
   1729,  0.178384855,  0.179995164
   1730,  0.198204771,  0.180183455
   1731,  0.218024492,  0.180391565
   1732,  0.237843975,  0.180619508
   1733,   0.25766325,  0.180867255
   1734,  0.277482241,  0.181134835
   1735,  0.297300965,  0.181422219
   1736,   0.31711939,  0.181729436
   1737,  0.336937487,  0.182056457
   1738,  0.356755257,  0.182403311
   1739,  0.376572698,  0.182769969
   1740,  0.396389723,  0.183156461
   1741,   0.41620636,  0.183562756
   1742,   0.43602258,  0.183988869
   1743,  0.455838382,  0.184434801
   1744,  0.475653708,  0.184900537
   1745,  0.495468587,  0.185386106
   1746,  0.515282929,  0.185891479
   1747,  0.535096765,  0.186416671
   1748,  0.554910123,  0.186961681
   1749,  0.574722826,  0.187526494
   1750,  0.594535053,  0.188111126
   1751,  0.614346623,  0.188715562
   1752,  0.634157598,  0.189339817
   1753,  0.653967917,  0.189983875
   1754,   0.67377764,  0.190647751
   1755,  0.693586648,  0.191331431
   1756,   0.71339494,  0.192034915
   1757,  0.733202577,  0.192758217
   1758,  0.753009439,  0.193501323
   1759,  0.772815526,  0.194264233
   1760,  0.792620897,  0.195046961
   1761,  0.812425435,  0.195849478
   1762,  0.832229197,  0.196671814
   1763,  0.852032125,  0.197513938
   1764,  0.871834159,  0.198375866
   1765,  0.891635358,  0.199257612
   1766,  0.911435664,  0.200159147
   1767,  0.931235015,  0.201080471
   1768,  0.951033473,  0.202021614
   1769,  0.970830977,  0.202982545
   1770,  0.990627468,   0.20396328
   1771,   1.01042306,  0.204963803
   1772,   1.03021753,  0.205984116
   1773,   1.05001104,  0.207024232
   1774,   1.06980348,  0.208084136
   1775,   1.08959484,  0.209163845
   1776,   1.10938513,  0.210263327
   1777,   1.12917435,  0.211382613
   1778,   1.14896238,  0.212521672
   1779,   1.16874933,  0.213680536
   1780,   1.18853498,  0.214859173
   1781,   1.20831954,  0.216057599
   1782,   1.22810292,  0.217275813
   1783,   1.24788499,  0.218513802
   1784,   1.26766586,  0.219771579
   1785,   1.28744543,  0.221049145
   1786,    1.3072238,   0.22234647
   1787,   1.32700074,  0.223663583
   1788,   1.34677649,  0.225000471
   1789,    1.3665508,  0.226357147
   1790,   1.38632369,  0.227733582
   1791,   1.40609527,  0.229129791
   1792,   1.42586541,  0.230545774
   1793,   1.44563425,  0.231981516
   1794,   1.46540153,  0.233437032
   1795,   1.48516726,  0.234912321
   1796,   1.50493169,  0.236407369
   1797,   1.52469444,  0.237922177
   1798,   1.54445577,  0.239456758
   1799,   1.56421554,  0.241011098
   1800,   1.58397377,  0.242585182
   1801,   1.60373044,   0.24417904
   1802,   1.62348545,  0.245792642
   1803,   1.64323878,  0.247426018
   1804,   1.66299057,  0.249079123
   1805,   1.68274069,  0.250752002
   1806,   1.70248902,  0.252444595
   1807,   1.72223568,  0.254156977
   1808,   1.74198067,  0.255889088
   1809,     1.761724,  0.257640928
   1810,   1.78146541,  0.259412527
   1811,  -1.75996315,  0.277373433
   1812,   -1.7796849,  0.279143244
   1813,  -1.74023962,  0.275623322
   1814,  -1.72051442,  0.273892939
   1815,  -1.70078743,  0.272182286
   1816,  -1.68105876,  0.270491362
   1817,  -1.66132843,  0.268820167
   1818,  -1.64159644,  0.267168701
   1819,  -1.62186277,  0.265536994
   1820,  -1.60212743,  0.263924986
   1821,  -1.58239055,  0.262332737
   1822,  -1.56265211,  0.260760218
   1823,  -1.54291213,  0.259207428
   1824,  -1.52317059,  0.257674396
   1825,  -1.50342751,  0.256161094
   1826,  -1.48368287,  0.254667521
   1827,  -1.46393681,  0.253193706
   1828,  -1.44418931,  0.251739651
   1829,  -1.42444026,  0.250305355
   1830,  -1.40468991,  0.248890772
   1831,  -1.38493812,  0.247495964
   1832,   -1.3651849,    0.2461209
   1833,  -1.34543037,  0.244765595
   1834,  -1.32567441,  0.243430033
   1835,  -1.30591714,  0.242114246
   1836,  -1.28615868,  0.240818202
   1837,  -1.26639879,  0.239541933
   1838,   -1.2466377,  0.238285407
   1839,  -1.22687542,  0.237048656
   1840,  -1.20711184,  0.235831663
   1841,  -1.18734705,  0.234634429
   1842,  -1.16758108,  0.233456969
   1843,  -1.14781404,  0.232299268
   1844,   -1.1280458,  0.231161341
   1845,  -1.10827637,  0.230043173
   1846,  -1.08850586,  0.228944778
   1847,  -1.06873429,  0.227866158
   1848,  -1.04896152,  0.226807311
   1849,  -1.02918792,  0.225768238
   1850,  -1.00941312,  0.224748939
   1851, -0.989637375,  0.223749414
   1852, -0.969860613,  0.222769663
   1853, -0.950082898,    0.2218097
   1854, -0.930304229,  0.220869496
   1855, -0.910524666,  0.219949082
   1856,  -0.89074415,  0.219048455
   1857, -0.870962739,  0.218167603
   1858, -0.851180494,  0.217306525
   1859, -0.831397355,  0.216465235
   1860, -0.811613441,  0.215643734
   1861, -0.791828692,  0.214842007
   1862, -0.772043109,  0.214060068
   1863, -0.752256811,  0.213297918
   1864, -0.732469738,  0.212555557
   1865,  -0.71268189,  0.211832985
   1866, -0.692893386,  0.211130202
   1867, -0.673104167,  0.210447192
   1868, -0.653314292,  0.209783986
   1869, -0.633523762,  0.209140569
   1870, -0.613732576,   0.20851694
   1871, -0.593940794,  0.207913101
   1872, -0.574148417,  0.207329065
   1873, -0.554355443,  0.206764802
   1874, -0.534561932,  0.206220344
   1875, -0.514767885,  0.205695689
   1876, -0.494973361,  0.205190808
   1877, -0.475178301,  0.204705745
   1878, -0.455382764,  0.204240456
   1879,  -0.43558678,  0.203794971
   1880, -0.415790379,   0.20336929
   1881, -0.395993531,  0.202963397
   1882, -0.376196295,  0.202577293
   1883, -0.356398702,  0.202210993
   1884, -0.336600721,  0.201864496
   1885, -0.316802442,  0.201537803
   1886, -0.297003806,  0.201230898
   1887, -0.277204901,  0.200943798
   1888, -0.257405698,  0.200676486
   1889, -0.237606257,  0.200428978
   1890, -0.217806578,  0.200201273
   1891,  -0.19800666,  0.199993372
   1892, -0.178206563,   0.19980526
   1893, -0.158406287,  0.199636951
   1894, -0.138605848,  0.199488446
   1895, -0.118805267,  0.199359745
   1896, -0.0990045741,  0.199250832
   1897, -0.079203777,  0.199161738
   1898, -0.0594029017,  0.199092433
   1899, -0.0396019667,  0.199042931
   1900, -0.0198009927,  0.199013218
   1901,           0.,  0.199003324
   1902, 0.0198009927,  0.199013218
   1903, 0.0396019667,  0.199042931
   1904, 0.0594029017,  0.199092433
   1905,  0.079203777,  0.199161738
   1906, 0.0990045741,  0.199250832
   1907,  0.118805267,  0.199359745
   1908,  0.138605848,  0.199488446
   1909,  0.158406287,  0.199636951
   1910,  0.178206563,   0.19980526
   1911,   0.19800666,  0.199993372
   1912,  0.217806578,  0.200201273
   1913,  0.237606257,  0.200428978
   1914,  0.257405698,  0.200676486
   1915,  0.277204901,  0.200943798
   1916,  0.297003806,  0.201230898
   1917,  0.316802442,  0.201537803
   1918,  0.336600721,  0.201864496
   1919,  0.356398702,  0.202210993
   1920,  0.376196295,  0.202577293
   1921,  0.395993531,  0.202963397
   1922,  0.415790379,   0.20336929
   1923,   0.43558678,  0.203794971
   1924,  0.455382764,  0.204240456
   1925,  0.475178301,  0.204705745
   1926,  0.494973361,  0.205190808
   1927,  0.514767885,  0.205695689
   1928,  0.534561932,  0.206220344
   1929,  0.554355443,  0.206764802
   1930,  0.574148417,  0.207329065
   1931,  0.593940794,  0.207913101
   1932,  0.613732576,   0.20851694
   1933,  0.633523762,  0.209140569
   1934,  0.653314292,  0.209783986
   1935,  0.673104167,  0.210447192
   1936,  0.692893386,  0.211130202
   1937,   0.71268189,  0.211832985
   1938,  0.732469738,  0.212555557
   1939,  0.752256811,  0.213297918
   1940,  0.772043109,  0.214060068
   1941,  0.791828692,  0.214842007
   1942,  0.811613441,  0.215643734
   1943,  0.831397355,  0.216465235
   1944,  0.851180494,  0.217306525
   1945,  0.870962739,  0.218167603
   1946,   0.89074415,  0.219048455
   1947,  0.910524666,  0.219949082
   1948,  0.930304229,  0.220869496
   1949,  0.950082898,    0.2218097
   1950,  0.969860613,  0.222769663
   1951,  0.989637375,  0.223749414
   1952,   1.00941312,  0.224748939
   1953,   1.02918792,  0.225768238
   1954,   1.04896152,  0.226807311
   1955,   1.06873429,  0.227866158
   1956,   1.08850586,  0.228944778
   1957,   1.10827637,  0.230043173
   1958,    1.1280458,  0.231161341
   1959,   1.14781404,  0.232299268
   1960,   1.16758108,  0.233456969
   1961,   1.18734705,  0.234634429
   1962,   1.20711184,  0.235831663
   1963,   1.22687542,  0.237048656
   1964,    1.2466377,  0.238285407
   1965,   1.26639879,  0.239541933
   1966,   1.28615868,  0.240818202
   1967,   1.30591714,  0.242114246
   1968,   1.32567441,  0.243430033
   1969,   1.34543037,  0.244765595
   1970,    1.3651849,    0.2461209
   1971,   1.38493812,  0.247495964
   1972,   1.40468991,  0.248890772
   1973,   1.42444026,  0.250305355
   1974,   1.44418931,  0.251739651
   1975,   1.46393681,  0.253193706
   1976,   1.48368287,  0.254667521
   1977,   1.50342751,  0.256161094
   1978,   1.52317059,  0.257674396
   1979,   1.54291213,  0.259207428
   1980,   1.56265211,  0.260760218
   1981,   1.58239055,  0.262332737
   1982,   1.60212743,  0.263924986
   1983,   1.62186277,  0.265536994
   1984,   1.64159644,  0.267168701
   1985,   1.66132843,  0.268820167
   1986,   1.68105876,  0.270491362
   1987,   1.70078743,  0.272182286
   1988,   1.72051442,  0.273892939
   1989,   1.74023962,  0.275623322
   1990,   1.75996315,  0.277373433
   1991,    1.7796849,  0.279143244
   1992,  -1.75820398,  0.297086179
   1993,  -1.77790606,  0.298854232
   1994,  -1.73850024,  0.295337826
   1995,   -1.7187947,  0.293609202
   1996,   -1.6990875,  0.291900247
   1997,  -1.67937851,  0.290211022
   1998,  -1.65966785,  0.288541496
   1999,  -1.63995564,  0.286891669
   2000,  -1.62024164,  0.285261571
   2001,  -1.60052609,  0.283651203
   2002,    -1.580809,  0.282060534
   2003,  -1.56109023,  0.280489594
   2004,  -1.54137003,  0.278938353
   2005,  -1.52164817,  0.277406842
   2006,  -1.50192475,  0.275895059
   2007,  -1.48219991,  0.274403006
   2008,  -1.46247363,  0.272930652
   2009,   -1.4427458,  0.271478057
   2010,  -1.42301655,  0.270045161
   2011,  -1.40328586,  0.268632025
   2012,  -1.38355386,  0.267238587
   2013,  -1.36382043,  0.265864909
   2014,  -1.34408557,  0.264510959
   2015,   -1.3243494,  0.263176739
   2016,  -1.30461192,  0.261862248
   2017,  -1.28487313,  0.260567516
   2018,  -1.26513302,  0.259292513
   2019,  -1.24539173,  0.258037239
   2020,  -1.22564912,  0.256801724
   2021,  -1.20590532,  0.255585939
   2022,  -1.18616033,  0.254389912
   2023,  -1.16641414,  0.253213614
   2024,  -1.14666677,  0.252057076
   2025,  -1.12691832,  0.250920296
   2026,  -1.10716867,  0.249803245
   2027,  -1.08741784,  0.248705953
   2028,  -1.06766605,  0.247628421
   2029,  -1.04791319,  0.246570632
   2030,  -1.02815914,  0.245532587
   2031,  -1.00840425,  0.244514301
   2032, -0.988648236,  0.243515775
   2033, -0.968891263,  0.242537007
   2034, -0.949133277,  0.241577998
   2035, -0.929374397,  0.240638748
   2036, -0.909614563,  0.239719257
   2037, -0.889853835,   0.23881951
   2038, -0.870092213,  0.237939537
   2039, -0.850329757,  0.237079337
   2040, -0.830566406,  0.236238882
   2041, -0.810802221,    0.2354182
   2042, -0.791037261,  0.234617278
   2043, -0.771271467,  0.233836129
   2044, -0.751504898,   0.23307474
   2045, -0.731737614,  0.232333109
   2046, -0.711969614,  0.231611267
   2047,  -0.69220084,  0.230909169
   2048, -0.672431409,  0.230226859
   2049, -0.652661324,  0.229564309
   2050, -0.632890522,  0.228921533
   2051, -0.613119185,   0.22829853
   2052, -0.593347132,  0.227695301
   2053, -0.573574543,  0.227111831
   2054, -0.553801358,   0.22654815
   2055, -0.534027636,  0.226004243
   2056, -0.514253378,  0.225480095
   2057, -0.494478613,  0.224975735
   2058, -0.474703372,  0.224491134
   2059, -0.454927623,  0.224026322
   2060, -0.435151428,  0.223581284
   2061, -0.415374786,   0.22315602
   2062, -0.395597726,   0.22275053
   2063, -0.375820279,  0.222364828
   2064, -0.356042475,    0.2219989
   2065, -0.336264312,  0.221652746
   2066, -0.316485792,  0.221326366
   2067, -0.296706945,  0.221019775
   2068, -0.276927829,  0.220732957
   2069, -0.257148415,  0.220465913
   2070, -0.237368777,  0.220218658
   2071, -0.217588872,  0.219991177
   2072, -0.197808757,   0.21978347
   2073, -0.178028449,  0.219595551
   2074, -0.158247963,  0.219427422
   2075, -0.138467312,  0.219279066
   2076,  -0.11868652,  0.219150484
   2077, -0.0989056155,   0.21904169
   2078, -0.0791246146,  0.218952671
   2079, -0.059343528,   0.21888344
   2080, -0.0395623855,  0.218833983
   2081, -0.0197812021,  0.218804315
   2082,           0.,   0.21879442
   2083, 0.0197812021,  0.218804315
   2084, 0.0395623855,  0.218833983
   2085,  0.059343528,   0.21888344
   2086, 0.0791246146,  0.218952671
   2087, 0.0989056155,   0.21904169
   2088,   0.11868652,  0.219150484
   2089,  0.138467312,  0.219279066
   2090,  0.158247963,  0.219427422
   2091,  0.178028449,  0.219595551
   2092,  0.197808757,   0.21978347
   2093,  0.217588872,  0.219991177
   2094,  0.237368777,  0.220218658
   2095,  0.257148415,  0.220465913
   2096,  0.276927829,  0.220732957
   2097,  0.296706945,  0.221019775
   2098,  0.316485792,  0.221326366
   2099,  0.336264312,  0.221652746
   2100,  0.356042475,    0.2219989
   2101,  0.375820279,  0.222364828
   2102,  0.395597726,   0.22275053
   2103,  0.415374786,   0.22315602
   2104,  0.435151428,  0.223581284
   2105,  0.454927623,  0.224026322
   2106,  0.474703372,  0.224491134
   2107,  0.494478613,  0.224975735
   2108,  0.514253378,  0.225480095
   2109,  0.534027636,  0.226004243
   2110,  0.553801358,   0.22654815
   2111,  0.573574543,  0.227111831
   2112,  0.593347132,  0.227695301
   2113,  0.613119185,   0.22829853
   2114,  0.632890522,  0.228921533
   2115,  0.652661324,  0.229564309
   2116,  0.672431409,  0.230226859
   2117,   0.69220084,  0.230909169
   2118,  0.711969614,  0.231611267
   2119,  0.731737614,  0.232333109
   2120,  0.751504898,   0.23307474
   2121,  0.771271467,  0.233836129
   2122,  0.791037261,  0.234617278
   2123,  0.810802221,    0.2354182
   2124,  0.830566406,  0.236238882
   2125,  0.850329757,  0.237079337
   2126,  0.870092213,  0.237939537
   2127,  0.889853835,   0.23881951
   2128,  0.909614563,  0.239719257
   2129,  0.929374397,  0.240638748
   2130,  0.949133277,  0.241577998
   2131,  0.968891263,  0.242537007
   2132,  0.988648236,  0.243515775
   2133,   1.00840425,  0.244514301
   2134,   1.02815914,  0.245532587
   2135,   1.04791319,  0.246570632
   2136,   1.06766605,  0.247628421
   2137,   1.08741784,  0.248705953
   2138,   1.10716867,  0.249803245
   2139,   1.12691832,  0.250920296
   2140,   1.14666677,  0.252057076
   2141,   1.16641414,  0.253213614
   2142,   1.18616033,  0.254389912
   2143,   1.20590532,  0.255585939
   2144,   1.22564912,  0.256801724
   2145,   1.24539173,  0.258037239
   2146,   1.26513302,  0.259292513
   2147,   1.28487313,  0.260567516
   2148,   1.30461192,  0.261862248
   2149,    1.3243494,  0.263176739
   2150,   1.34408557,  0.264510959
   2151,   1.36382043,  0.265864909
   2152,   1.38355386,  0.267238587
   2153,   1.40328586,  0.268632025
   2154,   1.42301655,  0.270045161
   2155,    1.4427458,  0.271478057
   2156,   1.46247363,  0.272930652
   2157,   1.48219991,  0.274403006
   2158,   1.50192475,  0.275895059
   2159,   1.52164817,  0.277406842
   2160,   1.54137003,  0.278938353
   2161,   1.56109023,  0.280489594
   2162,     1.580809,  0.282060534
   2163,   1.60052609,  0.283651203
   2164,   1.62024164,  0.285261571
   2165,   1.63995564,  0.286891669
   2166,   1.65966785,  0.288541496
   2167,   1.67937851,  0.290211022
   2168,    1.6990875,  0.291900247
   2169,    1.7187947,  0.293609202
   2170,   1.73850024,  0.295337826
   2171,   1.75820398,  0.297086179
   2172,   1.77790606,  0.298854232
   2173,  -1.75644672,  0.316779256
   2174,  -1.77612901,   0.31854555
   2175,  -1.73676264,  0.315032661
   2176,  -1.71707678,  0.313305736
   2177,  -1.69738925,   0.31159851
   2178,  -1.67769992,  0.309910953
   2179,  -1.65800905,  0.308243096
   2180,  -1.63831651,  0.306594938
   2181,   -1.6186223,   0.30496648
   2182,  -1.59892642,  0.303357691
   2183,    -1.579229,  0.301768601
   2184,   -1.5595299,   0.30019924
   2185,  -1.53982937,  0.298649549
   2186,   -1.5201273,  0.297119588
   2187,  -1.50042367,  0.295609295
   2188,  -1.48071849,  0.294118732
   2189,  -1.46101189,  0.292647868
   2190,  -1.44130373,  0.291196704
   2191,  -1.42159426,  0.289765269
   2192,  -1.40188336,  0.288353503
   2193,  -1.38217103,  0.286961496
   2194,  -1.36245728,  0.285589188
   2195,   -1.3427422,   0.28423658
   2196,   -1.3230257,  0.282903701
   2197,  -1.30330801,  0.281590521
   2198,  -1.28358889,  0.280297071
   2199,  -1.26386857,  0.279023349
   2200,  -1.24414694,  0.277769327
   2201,  -1.22442412,  0.276535064
   2202,  -1.20469999,    0.2753205
   2203,  -1.18497479,  0.274125665
   2204,  -1.16524827,   0.27295053
   2205,  -1.14552069,  0.271795154
   2206,  -1.12579191,  0.270659506
   2207,  -1.10606205,  0.269543588
   2208,  -1.08633101,  0.268447369
   2209,  -1.06659889,  0.267370909
   2210,   -1.0468657,  0.266314179
   2211,  -1.02713156,  0.265277177
   2212,  -1.00739634,  0.264259905
   2213,  -0.98766005,  0.263262391
   2214, -0.967922866,  0.262284607
   2215, -0.948184669,  0.261326551
   2216, -0.928445518,  0.260388225
   2217, -0.908705413,  0.259469658
   2218, -0.888964474,   0.25857082
   2219, -0.869222581,  0.257691711
   2220, -0.849479854,  0.256832361
   2221, -0.829736233,   0.25599277
   2222, -0.809991837,  0.255172908
   2223, -0.790246606,  0.254372776
   2224,   -0.7705006,  0.253592402
   2225,  -0.75075376,  0.252831787
   2226, -0.731006265,  0.252090901
   2227, -0.711257994,  0.251369774
   2228, -0.691509008,  0.250668377
   2229, -0.671759307,  0.249986753
   2230, -0.652008951,  0.249324873
   2231, -0.632257998,  0.248682737
   2232,  -0.61250633,  0.248060346
   2233, -0.592754126,  0.247457728
   2234, -0.573001266,  0.246874839
   2235, -0.553247869,  0.246311724
   2236, -0.533493876,  0.245768353
   2237, -0.513739407,  0.245244727
   2238, -0.493984401,  0.244740874
   2239, -0.474228889,  0.244256765
   2240, -0.454472929,  0.243792415
   2241, -0.434716493,  0.243347824
   2242,  -0.41495961,  0.242922977
   2243, -0.395202339,  0.242517903
   2244, -0.375444651,  0.242132574
   2245, -0.355686605,  0.241767004
   2246, -0.335928202,  0.241421208
   2247, -0.316169471,  0.241095155
   2248, -0.296410412,  0.240788862
   2249, -0.276651055,  0.240502328
   2250,   -0.2568914,  0.240235567
   2251, -0.237131521,  0.239988551
   2252, -0.217371389,  0.239761293
   2253, -0.197611049,  0.239553809
   2254, -0.177850515,  0.239366069
   2255, -0.158089787,  0.239198104
   2256,  -0.13832891,  0.239049897
   2257, -0.118567891,  0.238921449
   2258, -0.0988067612,   0.23881276
   2259, -0.0790455267,  0.238723829
   2260, -0.0592842139,  0.238654673
   2261, -0.0395228416,  0.238605261
   2262, -0.0197614301,  0.238575622
   2263,           0.,  0.238565743
   2264, 0.0197614301,  0.238575622
   2265, 0.0395228416,  0.238605261
   2266, 0.0592842139,  0.238654673
   2267, 0.0790455267,  0.238723829
   2268, 0.0988067612,   0.23881276
   2269,  0.118567891,  0.238921449
   2270,   0.13832891,  0.239049897
   2271,  0.158089787,  0.239198104
   2272,  0.177850515,  0.239366069
   2273,  0.197611049,  0.239553809
   2274,  0.217371389,  0.239761293
   2275,  0.237131521,  0.239988551
   2276,    0.2568914,  0.240235567
   2277,  0.276651055,  0.240502328
   2278,  0.296410412,  0.240788862
   2279,  0.316169471,  0.241095155
   2280,  0.335928202,  0.241421208
   2281,  0.355686605,  0.241767004
   2282,  0.375444651,  0.242132574
   2283,  0.395202339,  0.242517903
   2284,   0.41495961,  0.242922977
   2285,  0.434716493,  0.243347824
   2286,  0.454472929,  0.243792415
   2287,  0.474228889,  0.244256765
   2288,  0.493984401,  0.244740874
   2289,  0.513739407,  0.245244727
   2290,  0.533493876,  0.245768353
   2291,  0.553247869,  0.246311724
   2292,  0.573001266,  0.246874839
   2293,  0.592754126,  0.247457728
   2294,   0.61250633,  0.248060346
   2295,  0.632257998,  0.248682737
   2296,  0.652008951,  0.249324873
   2297,  0.671759307,  0.249986753
   2298,  0.691509008,  0.250668377
   2299,  0.711257994,  0.251369774
   2300,  0.731006265,  0.252090901
   2301,   0.75075376,  0.252831787
   2302,    0.7705006,  0.253592402
   2303,  0.790246606,  0.254372776
   2304,  0.809991837,  0.255172908
   2305,  0.829736233,   0.25599277
   2306,  0.849479854,  0.256832361
   2307,  0.869222581,  0.257691711
   2308,  0.888964474,   0.25857082
   2309,  0.908705413,  0.259469658
   2310,  0.928445518,  0.260388225
   2311,  0.948184669,  0.261326551
   2312,  0.967922866,  0.262284607
   2313,   0.98766005,  0.263262391
   2314,   1.00739634,  0.264259905
   2315,   1.02713156,  0.265277177
   2316,    1.0468657,  0.266314179
   2317,   1.06659889,  0.267370909
   2318,   1.08633101,  0.268447369
   2319,   1.10606205,  0.269543588
   2320,   1.12579191,  0.270659506
   2321,   1.14552069,  0.271795154
   2322,   1.16524827,   0.27295053
   2323,   1.18497479,  0.274125665
   2324,   1.20469999,    0.2753205
   2325,   1.22442412,  0.276535064
   2326,   1.24414694,  0.277769327
   2327,   1.26386857,  0.279023349
   2328,   1.28358889,  0.280297071
   2329,   1.30330801,  0.281590521
   2330,    1.3230257,  0.282903701
   2331,    1.3427422,   0.28423658
   2332,   1.36245728,  0.285589188
   2333,   1.38217103,  0.286961496
   2334,   1.40188336,  0.288353503
   2335,   1.42159426,  0.289765269
   2336,   1.44130373,  0.291196704
   2337,   1.46101189,  0.292647868
   2338,   1.48071849,  0.294118732
   2339,   1.50042367,  0.295609295
   2340,    1.5201273,  0.297119588
   2341,   1.53982937,  0.298649549
   2342,    1.5595299,   0.30019924
   2343,     1.579229,  0.301768601
   2344,   1.59892642,  0.303357691
   2345,    1.6186223,   0.30496648
   2346,   1.63831651,  0.306594938
   2347,   1.65800905,  0.308243096
   2348,   1.67769992,  0.309910953
   2349,   1.69738925,   0.31159851
   2350,   1.71707678,  0.313305736
   2351,   1.73676264,  0.315032661
   2352,   1.75644672,  0.316779256
   2353,   1.77612901,   0.31854555
   2354,  -1.75469112,  0.336452633
   2355,  -1.77435374,  0.338217169
   2356,  -1.73502672,  0.334707767
   2357,  -1.71536052,   0.33298257
   2358,  -1.69569266,  0.331277072
   2359,  -1.67602313,  0.329591215
   2360,  -1.65635192,  0.327925026
   2361,  -1.63667893,  0.326278508
   2362,  -1.61700439,  0.324651659
   2363,  -1.59732831,  0.323044479
   2364,  -1.57765055,  0.321456999
   2365,  -1.55797124,  0.319889188
   2366,  -1.53829026,  0.318341047
   2367,  -1.51860785,  0.316812605
   2368,   -1.4989239,  0.315303832
   2369,  -1.47923851,  0.313814759
   2370,  -1.45955157,  0.312345356
   2371,   -1.4398632,  0.310895652
   2372,  -1.42017341,  0.309465647
   2373,  -1.40048218,  0.308055311
   2374,  -1.38078952,  0.306664675
   2375,  -1.36109543,  0.305293739
   2376,  -1.34140015,  0.303942472
   2377,  -1.32170331,  0.302610934
   2378,  -1.30200529,  0.301299065
   2379,  -1.28230596,  0.300006926
   2380,  -1.26260531,  0.298734456
   2381,  -1.24290347,  0.297481716
   2382,  -1.22320032,  0.296248674
   2383,  -1.20349598,  0.295035303
   2384,  -1.18379045,   0.29384166
   2385,   -1.1640836,  0.292667747
   2386,  -1.14437568,  0.291513503
   2387,  -1.12466669,  0.290378988
   2388,  -1.10495651,  0.289264172
   2389,  -1.08524525,  0.288169056
   2390,   -1.0655328,  0.287093669
   2391,   -1.0458194,  0.286038011
   2392,  -1.02610493,  0.285002053
   2393,  -1.00638938,  0.283985794
   2394, -0.986672878,  0.282989264
   2395, -0.966955423,  0.282012463
   2396, -0.947236955,  0.281055361
   2397, -0.927517533,  0.280117989
   2398, -0.907797158,  0.279200315
   2399, -0.888075948,  0.278302372
   2400, -0.868353784,  0.277424157
   2401, -0.848630786,  0.276565671
   2402, -0.828906953,  0.275726914
   2403, -0.809182227,  0.274907857
   2404, -0.789456725,  0.274108529
   2405, -0.769730449,   0.27332896
   2406, -0.750003397,   0.27256909
   2407, -0.730275631,  0.271828949
   2408,  -0.71054709,  0.271108538
   2409, -0.690817833,  0.270407856
   2410, -0.671087921,  0.269726902
   2411, -0.651357293,  0.269065678
   2412,  -0.63162601,  0.268424183
   2413, -0.611894131,  0.267802417
   2414, -0.592161655,  0.267200381
   2415, -0.572428584,  0.266618103
   2416, -0.552694917,  0.266055524
   2417, -0.532960653,  0.265512705
   2418, -0.513225913,  0.264989614
   2419, -0.493490666,  0.264486253
   2420, -0.473754913,  0.264002621
   2421, -0.454018682,  0.263538748
   2422, -0.434281975,  0.263094604
   2423,  -0.41454488,  0.262670189
   2424, -0.394807339,  0.262265503
   2425,  -0.37506941,  0.261880577
   2426, -0.355331093,  0.261515379
   2427, -0.335592449,   0.26116991
   2428, -0.315853447,  0.260844171
   2429, -0.296114147,  0.260538191
   2430, -0.276374519,  0.260251939
   2431, -0.256634653,  0.259985447
   2432, -0.236894503,  0.259738684
   2433,  -0.21715413,   0.25951165
   2434, -0.197413534,  0.259304374
   2435, -0.177672744,  0.259116828
   2436, -0.157931775,  0.258949041
   2437, -0.138190657,  0.258800983
   2438, -0.118449382,  0.258672655
   2439, -0.0987080038,  0.258564085
   2440, -0.0789665207,  0.258475244
   2441, -0.0592249595,  0.258406132
   2442, -0.0394833386,   0.25835678
   2443, -0.0197416786,  0.258327156
   2444,           0.,  0.258317292
   2445, 0.0197416786,  0.258327156
   2446, 0.0394833386,   0.25835678
   2447, 0.0592249595,  0.258406132
   2448, 0.0789665207,  0.258475244
   2449, 0.0987080038,  0.258564085
   2450,  0.118449382,  0.258672655
   2451,  0.138190657,  0.258800983
   2452,  0.157931775,  0.258949041
   2453,  0.177672744,  0.259116828
   2454,  0.197413534,  0.259304374
   2455,   0.21715413,   0.25951165
   2456,  0.236894503,  0.259738684
   2457,  0.256634653,  0.259985447
   2458,  0.276374519,  0.260251939
   2459,  0.296114147,  0.260538191
   2460,  0.315853447,  0.260844171
   2461,  0.335592449,   0.26116991
   2462,  0.355331093,  0.261515379
   2463,   0.37506941,  0.261880577
   2464,  0.394807339,  0.262265503
   2465,   0.41454488,  0.262670189
   2466,  0.434281975,  0.263094604
   2467,  0.454018682,  0.263538748
   2468,  0.473754913,  0.264002621
   2469,  0.493490666,  0.264486253
   2470,  0.513225913,  0.264989614
   2471,  0.532960653,  0.265512705
   2472,  0.552694917,  0.266055524
   2473,  0.572428584,  0.266618103
   2474,  0.592161655,  0.267200381
   2475,  0.611894131,  0.267802417
   2476,   0.63162601,  0.268424183
   2477,  0.651357293,  0.269065678
   2478,  0.671087921,  0.269726902
   2479,  0.690817833,  0.270407856
   2480,   0.71054709,  0.271108538
   2481,  0.730275631,  0.271828949
   2482,  0.750003397,   0.27256909
   2483,  0.769730449,   0.27332896
   2484,  0.789456725,  0.274108529
   2485,  0.809182227,  0.274907857
   2486,  0.828906953,  0.275726914
   2487,  0.848630786,  0.276565671
   2488,  0.868353784,  0.277424157
   2489,  0.888075948,  0.278302372
   2490,  0.907797158,  0.279200315
   2491,  0.927517533,  0.280117989
   2492,  0.947236955,  0.281055361
   2493,  0.966955423,  0.282012463
   2494,  0.986672878,  0.282989264
   2495,   1.00638938,  0.283985794
   2496,   1.02610493,  0.285002053
   2497,    1.0458194,  0.286038011
   2498,    1.0655328,  0.287093669
   2499,   1.08524525,  0.288169056
   2500,   1.10495651,  0.289264172
   2501,   1.12466669,  0.290378988
   2502,   1.14437568,  0.291513503
   2503,    1.1640836,  0.292667747
   2504,   1.18379045,   0.29384166
   2505,   1.20349598,  0.295035303
   2506,   1.22320032,  0.296248674
   2507,   1.24290347,  0.297481716
   2508,   1.26260531,  0.298734456
   2509,   1.28230596,  0.300006926
   2510,   1.30200529,  0.301299065
   2511,   1.32170331,  0.302610934
   2512,   1.34140015,  0.303942472
   2513,   1.36109543,  0.305293739
   2514,   1.38078952,  0.306664675
   2515,   1.40048218,  0.308055311
   2516,   1.42017341,  0.309465647
   2517,    1.4398632,  0.310895652
   2518,   1.45955157,  0.312345356
   2519,   1.47923851,  0.313814759
   2520,    1.4989239,  0.315303832
   2521,   1.51860785,  0.316812605
   2522,   1.53829026,  0.318341047
   2523,   1.55797124,  0.319889188
   2524,   1.57765055,  0.321456999
   2525,   1.59732831,  0.323044479
   2526,   1.61700439,  0.324651659
   2527,   1.63667893,  0.326278508
   2528,   1.65635192,  0.327925026
   2529,   1.67602313,  0.329591215
   2530,   1.69569266,  0.331277072
   2531,   1.71536052,   0.33298257
   2532,   1.73502672,  0.334707767
   2533,   1.75469112,  0.336452633
   2534,   1.77435374,  0.338217169
   2535,  -1.75293732,  0.356106371
   2536,  -1.77258039,  0.357869118
   2537,  -1.73329258,  0.354363233
   2538,  -1.71364605,  0.352639765
   2539,  -1.69399786,  0.350935936
   2540,  -1.67434788,  0.349251777
   2541,  -1.65469635,  0.347587258
   2542,  -1.63504314,  0.345942378
   2543,  -1.61538827,  0.344317168
   2544,  -1.59573174,  0.342711598
   2545,  -1.57607365,  0.341125697
   2546,  -1.55641401,  0.339559466
   2547,  -1.53675282,  0.338012874
   2548,  -1.51709008,  0.336485952
   2549,  -1.49742579,    0.3349787
   2550,  -1.47775996,  0.333491117
   2551,  -1.45809281,  0.332023174
   2552,  -1.43842411,   0.33057493
   2553,  -1.41875386,  0.329146326
   2554,   -1.3990823,  0.327737421
   2555,  -1.37940943,  0.326348156
   2556,  -1.35973501,   0.32497859
   2557,   -1.3400594,  0.323628694
   2558,  -1.32038236,  0.322298467
   2559,    -1.300704,   0.32098794
   2560,  -1.28102434,  0.319697082
   2561,  -1.26134336,  0.318425894
   2562,  -1.24166119,  0.317174375
   2563,  -1.22197771,  0.315942556
   2564,  -1.20229304,  0.314730436
   2565,  -1.18260717,  0.313537985
   2566,  -1.16292012,  0.312365204
   2567,  -1.14323187,  0.311212152
   2568,  -1.12354255,   0.31007874
   2569,  -1.10385203,  0.308965057
   2570,  -1.08416057,  0.307871044
   2571,  -1.06446779,   0.30679673
   2572,  -1.04477406,  0.305742115
   2573,  -1.02507937,  0.304707199
   2574,  -1.00538349,  0.303691953
   2575, -0.985686719,  0.302696407
   2576, -0.965988934,  0.301720589
   2577, -0.946290195,  0.300764441
   2578, -0.926590443,  0.299827993
   2579, -0.906889856,  0.298911273
   2580, -0.887188315,  0.298014224
   2581, -0.867485881,  0.297136873
   2582, -0.847782552,  0.296279252
   2583, -0.828078449,  0.295441329
   2584, -0.808373451,  0.294623107
   2585, -0.788667679,  0.293824583
   2586, -0.768961132,  0.293045759
   2587, -0.749253809,  0.292286664
   2588, -0.729545712,  0.291547239
   2589,   -0.7098369,  0.290827572
   2590, -0.690127373,  0.290127575
   2591,  -0.67041713,  0.289447308
   2592, -0.650706232,  0.288786739
   2593, -0.630994737,    0.2881459
   2594, -0.611282587,   0.28752476
   2595, -0.591569781,  0.286923319
   2596, -0.571856439,  0.286341608
   2597, -0.552142501,  0.285779625
   2598, -0.532427967,  0.285237342
   2599, -0.512712955,  0.284714758
   2600, -0.492997408,  0.284211904
   2601, -0.473281384,  0.283728778
   2602, -0.453564882,  0.283265352
   2603, -0.433847934,  0.282821625
   2604, -0.414130539,  0.282397658
   2605, -0.394412726,  0.281993359
   2606, -0.374694526,   0.28160882
   2607, -0.354975939,   0.28124398
   2608, -0.335257024,  0.280898869
   2609, -0.315537751,  0.280573457
   2610,  -0.29581818,  0.280267805
   2611, -0.276098281,  0.279981822
   2612, -0.256378144,  0.279715598
   2613, -0.236657724,  0.279469073
   2614,  -0.21693708,  0.279242277
   2615, -0.197216228,  0.279035211
   2616, -0.177495167,  0.278847843
   2617, -0.157773927,  0.278680205
   2618, -0.138052523,  0.278532296
   2619, -0.118330993,  0.278404117
   2620, -0.0986093432,  0.278295636
   2621, -0.0788875967,  0.278206885
   2622, -0.0591657646,  0.278137863
   2623, -0.0394438766,   0.27808857
   2624, -0.0197219476,  0.278058976
   2625,           0.,  0.278049111
   2626, 0.0197219476,  0.278058976
   2627, 0.0394438766,   0.27808857
   2628, 0.0591657646,  0.278137863
   2629, 0.0788875967,  0.278206885
   2630, 0.0986093432,  0.278295636
   2631,  0.118330993,  0.278404117
   2632,  0.138052523,  0.278532296
   2633,  0.157773927,  0.278680205
   2634,  0.177495167,  0.278847843
   2635,  0.197216228,  0.279035211
   2636,   0.21693708,  0.279242277
   2637,  0.236657724,  0.279469073
   2638,  0.256378144,  0.279715598
   2639,  0.276098281,  0.279981822
   2640,   0.29581818,  0.280267805
   2641,  0.315537751,  0.280573457
   2642,  0.335257024,  0.280898869
   2643,  0.354975939,   0.28124398
   2644,  0.374694526,   0.28160882
   2645,  0.394412726,  0.281993359
   2646,  0.414130539,  0.282397658
   2647,  0.433847934,  0.282821625
   2648,  0.453564882,  0.283265352
   2649,  0.473281384,  0.283728778
   2650,  0.492997408,  0.284211904
   2651,  0.512712955,  0.284714758
   2652,  0.532427967,  0.285237342
   2653,  0.552142501,  0.285779625
   2654,  0.571856439,  0.286341608
   2655,  0.591569781,  0.286923319
   2656,  0.611282587,   0.28752476
   2657,  0.630994737,    0.2881459
   2658,  0.650706232,  0.288786739
   2659,   0.67041713,  0.289447308
   2660,  0.690127373,  0.290127575
   2661,    0.7098369,  0.290827572
   2662,  0.729545712,  0.291547239
   2663,  0.749253809,  0.292286664
   2664,  0.768961132,  0.293045759
   2665,  0.788667679,  0.293824583
   2666,  0.808373451,  0.294623107
   2667,  0.828078449,  0.295441329
   2668,  0.847782552,  0.296279252
   2669,  0.867485881,  0.297136873
   2670,  0.887188315,  0.298014224
   2671,  0.906889856,  0.298911273
   2672,  0.926590443,  0.299827993
   2673,  0.946290195,  0.300764441
   2674,  0.965988934,  0.301720589
   2675,  0.985686719,  0.302696407
   2676,   1.00538349,  0.303691953
   2677,   1.02507937,  0.304707199
   2678,   1.04477406,  0.305742115
   2679,   1.06446779,   0.30679673
   2680,   1.08416057,  0.307871044
   2681,   1.10385203,  0.308965057
   2682,   1.12354255,   0.31007874
   2683,   1.14323187,  0.311212152
   2684,   1.16292012,  0.312365204
   2685,   1.18260717,  0.313537985
   2686,   1.20229304,  0.314730436
   2687,   1.22197771,  0.315942556
   2688,   1.24166119,  0.317174375
   2689,   1.26134336,  0.318425894
   2690,   1.28102434,  0.319697082
   2691,     1.300704,   0.32098794
   2692,   1.32038236,  0.322298467
   2693,    1.3400594,  0.323628694
   2694,   1.35973501,   0.32497859
   2695,   1.37940943,  0.326348156
   2696,    1.3990823,  0.327737421
   2697,   1.41875386,  0.329146326
   2698,   1.43842411,   0.33057493
   2699,   1.45809281,  0.332023174
   2700,   1.47775996,  0.333491117
   2701,   1.49742579,    0.3349787
   2702,   1.51709008,  0.336485952
   2703,   1.53675282,  0.338012874
   2704,   1.55641401,  0.339559466
   2705,   1.57607365,  0.341125697
   2706,   1.59573174,  0.342711598
   2707,   1.61538827,  0.344317168
   2708,   1.63504314,  0.345942378
   2709,   1.65469635,  0.347587258
   2710,   1.67434788,  0.349251777
   2711,   1.69399786,  0.350935936
   2712,   1.71364605,  0.352639765
   2713,   1.73329258,  0.354363233
   2714,   1.75293732,  0.356106371
   2715,   1.77258039,  0.357869118
   2716,   -1.7511853,  0.375740439
   2717,   -1.7708087,  0.377501428
   2718,  -1.73156011,  0.373999059
   2719,  -1.71193326,  0.372277319
   2720,  -1.69230473,   0.37057519
   2721,  -1.67267442,  0.368892699
   2722,  -1.65304244,  0.367229849
   2723,   -1.6334089,  0.365586609
   2724,   -1.6137737,  0.363963038
   2725,  -1.59413683,  0.362359077
   2726,  -1.57449841,  0.360774755
   2727,  -1.55485833,  0.359210074
   2728,  -1.53521681,  0.357665032
   2729,  -1.51557374,   0.35613963
   2730,  -1.49592912,  0.354633898
   2731,  -1.47628295,  0.353147775
   2732,  -1.45663536,  0.351681322
   2733,  -1.43698633,  0.350234509
   2734,  -1.41733587,  0.348807365
   2735,  -1.39768398,  0.347399831
   2736,  -1.37803066,  0.346011996
   2737,  -1.35837603,  0.344643772
   2738,  -1.33871996,  0.343295246
   2739,  -1.31906259,  0.341966331
   2740,  -1.29940391,  0.340657115
   2741,  -1.27974391,  0.339367539
   2742,   -1.2600826,  0.338097632
   2743,   -1.2404201,  0.336847365
   2744,  -1.22075641,  0.335616767
   2745,  -1.20109141,  0.334405869
   2746,  -1.18142521,  0.333214611
   2747,  -1.16175783,  0.332043022
   2748,  -1.14208925,  0.330891073
   2749,   -1.1224196,  0.329758823
   2750,  -1.10274875,  0.328646243
   2751,  -1.08307683,  0.327553332
   2752,  -1.06340396,  0.326480091
   2753,   -1.0437299,  0.325426519
   2754,  -1.02405477,  0.324392647
   2755,  -1.00437868,  0.323378414
   2756, -0.984701514,  0.322383881
   2757, -0.965023398,  0.321409017
   2758, -0.945344329,  0.320453823
   2759, -0.925664365,  0.319518328
   2760, -0.905983388,  0.318602502
   2761, -0.886301577,  0.317706347
   2762, -0.866618812,   0.31682989
   2763, -0.846935213,  0.315973133
   2764, -0.827250779,  0.315136015
   2765,  -0.80756551,  0.314318627
   2766, -0.787879407,  0.313520908
   2767,  -0.76819253,  0.312742859
   2768, -0.748504877,  0.311984509
   2769, -0.728816509,  0.311245859
   2770, -0.709127426,  0.310526878
   2771, -0.689437568,  0.309827596
   2772, -0.669747055,  0.309148014
   2773, -0.650055885,  0.308488101
   2774,  -0.63036406,  0.307847887
   2775,  -0.61067158,  0.307227373
   2776, -0.590978503,  0.306626558
   2777, -0.571284831,  0.306045413
   2778, -0.551590621,  0.305483967
   2779, -0.531895816,   0.30494225
   2780, -0.512200475,  0.304420203
   2781, -0.492504656,  0.303917825
   2782, -0.472808331,  0.303435177
   2783, -0.453111529,  0.302972227
   2784,  -0.43341428,  0.302528948
   2785, -0.413716614,  0.302105397
   2786, -0.394018501,  0.301701516
   2787,     -0.37432,  0.301317364
   2788, -0.354621142,  0.300952882
   2789, -0.334921926,  0.300608099
   2790, -0.315222383,  0.300283045
   2791, -0.295522511,   0.29997766
   2792, -0.275822341,  0.299692005
   2793, -0.256121904,  0.299426019
   2794, -0.236421198,  0.299179763
   2795, -0.216720253,  0.298953176
   2796,   -0.1970191,  0.298746318
   2797, -0.177317753,  0.298559129
   2798, -0.157616228,   0.29839167
   2799, -0.137914538,   0.29824391
   2800, -0.118212722,  0.298115849
   2801, -0.0985107869,  0.298007488
   2802, -0.0788087472,  0.297918826
   2803, -0.0591066293,  0.297849864
   2804, -0.0394044518,  0.297800601
   2805, -0.0197022352,  0.297771066
   2806,           0.,  0.297761202
   2807, 0.0197022352,  0.297771066
   2808, 0.0394044518,  0.297800601
   2809, 0.0591066293,  0.297849864
   2810, 0.0788087472,  0.297918826
   2811, 0.0985107869,  0.298007488
   2812,  0.118212722,  0.298115849
   2813,  0.137914538,   0.29824391
   2814,  0.157616228,   0.29839167
   2815,  0.177317753,  0.298559129
   2816,    0.1970191,  0.298746318
   2817,  0.216720253,  0.298953176
   2818,  0.236421198,  0.299179763
   2819,  0.256121904,  0.299426019
   2820,  0.275822341,  0.299692005
   2821,  0.295522511,   0.29997766
   2822,  0.315222383,  0.300283045
   2823,  0.334921926,  0.300608099
   2824,  0.354621142,  0.300952882
   2825,      0.37432,  0.301317364
   2826,  0.394018501,  0.301701516
   2827,  0.413716614,  0.302105397
   2828,   0.43341428,  0.302528948
   2829,  0.453111529,  0.302972227
   2830,  0.472808331,  0.303435177
   2831,  0.492504656,  0.303917825
   2832,  0.512200475,  0.304420203
   2833,  0.531895816,   0.30494225
   2834,  0.551590621,  0.305483967
   2835,  0.571284831,  0.306045413
   2836,  0.590978503,  0.306626558
   2837,   0.61067158,  0.307227373
   2838,   0.63036406,  0.307847887
   2839,  0.650055885,  0.308488101
   2840,  0.669747055,  0.309148014
   2841,  0.689437568,  0.309827596
   2842,  0.709127426,  0.310526878
   2843,  0.728816509,  0.311245859
   2844,  0.748504877,  0.311984509
   2845,   0.76819253,  0.312742859
   2846,  0.787879407,  0.313520908
   2847,   0.80756551,  0.314318627
   2848,  0.827250779,  0.315136015
   2849,  0.846935213,  0.315973133
   2850,  0.866618812,   0.31682989
   2851,  0.886301577,  0.317706347
   2852,  0.905983388,  0.318602502
   2853,  0.925664365,  0.319518328
   2854,  0.945344329,  0.320453823
   2855,  0.965023398,  0.321409017
   2856,  0.984701514,  0.322383881
   2857,   1.00437868,  0.323378414
   2858,   1.02405477,  0.324392647
   2859,    1.0437299,  0.325426519
   2860,   1.06340396,  0.326480091
   2861,   1.08307683,  0.327553332
   2862,   1.10274875,  0.328646243
   2863,    1.1224196,  0.329758823
   2864,   1.14208925,  0.330891073
   2865,   1.16175783,  0.332043022
   2866,   1.18142521,  0.333214611
   2867,   1.20109141,  0.334405869
   2868,   1.22075641,  0.335616767
   2869,    1.2404201,  0.336847365
   2870,    1.2600826,  0.338097632
   2871,   1.27974391,  0.339367539
   2872,   1.29940391,  0.340657115
   2873,   1.31906259,  0.341966331
   2874,   1.33871996,  0.343295246
   2875,   1.35837603,  0.344643772
   2876,   1.37803066,  0.346011996
   2877,   1.39768398,  0.347399831
   2878,   1.41733587,  0.348807365
   2879,   1.43698633,  0.350234509
   2880,   1.45663536,  0.351681322
   2881,   1.47628295,  0.353147775
   2882,   1.49592912,  0.354633898
   2883,   1.51557374,   0.35613963
   2884,   1.53521681,  0.357665032
   2885,   1.55485833,  0.359210074
   2886,   1.57449841,  0.360774755
   2887,   1.59413683,  0.362359077
   2888,    1.6137737,  0.363963038
   2889,    1.6334089,  0.365586609
   2890,   1.65304244,  0.367229849
   2891,   1.67267442,  0.368892699
   2892,   1.69230473,   0.37057519
   2893,   1.71193326,  0.372277319
   2894,   1.73156011,  0.373999059
   2895,    1.7511853,  0.375740439
   2896,    1.7708087,  0.377501428
   2897,  -1.85731995, 0.0864276811
   2898,  -1.83740544, 0.0845803171
   2899,  -1.83556902,   0.10448578
   2900,  -1.85546362,  0.106331296
   2901,  -1.81748915, 0.0827528685
   2902,  -1.81567252,  0.102660164
   2903,   1.81748915, 0.0827528685
   2904,   1.81567252,  0.102660164
   2905,   1.83740544, 0.0845803171
   2906,   1.83556902,   0.10448578
   2907,   1.85731995, 0.0864276811
   2908,   1.85546362,  0.106331296
   2909,  -1.83373427,   0.12437135
   2910,  -1.85360909,  0.126215026
   2911,  -1.81385779,  0.122547559
   2912,   1.81385779,  0.122547559
   2913,   1.83373427,   0.12437135
   2914,   1.85360909,  0.126215026
   2915,  -1.83190155,  0.144237041
   2916,  -1.85175633,   0.14607887
   2917,  -1.81204486,  0.142415076
   2918,   1.81204486,  0.142415076
   2919,   1.83190155,  0.144237041
   2920,   1.85175633,   0.14607887
   2921,   -1.8300705,  0.164082885
   2922,  -1.84990549,   0.16592288
   2923,  -1.81023371,  0.162262738
   2924,   1.81023371,  0.162262738
   2925,    1.8300705,  0.164082885
   2926,   1.84990549,   0.16592288
   2927,  -1.82824135,  0.183908895
   2928,  -1.84805655,  0.185747042
   2929,  -1.80842435,  0.182090551
   2930,   1.80842435,  0.182090551
   2931,   1.82824135,  0.183908895
   2932,   1.84805655,  0.185747042
   2933,  -1.82641399,  0.203715071
   2934,  -1.84620941,  0.205551386
   2935,   -1.8066169,   0.20189856
   2936,    1.8066169,   0.20189856
   2937,   1.82641399,  0.203715071
   2938,   1.84620941,  0.205551386
   2939,  -1.82458854,  0.223501459
   2940,  -1.84436417,  0.225335941
   2941,  -1.80481112,  0.221686766
   2942,   1.80481112,  0.221686766
   2943,   1.82458854,  0.223501459
   2944,   1.84436417,  0.225335941
   2945,  -1.82276487,  0.243268073
   2946,  -1.84252071,  0.245100722
   2947,  -1.80300725,  0.241455197
   2948,   1.80300725,  0.241455197
   2949,   1.82276487,  0.243268073
   2950,   1.84252071,  0.245100722
   2951,    -1.820943,  0.263014942
   2952,  -1.84067905,  0.264845759
   2953,  -1.80120516,  0.261203855
   2954,   1.80120516,  0.261203855
   2955,     1.820943,  0.263014942
   2956,   1.84067905,  0.264845759
   2957,  -1.81912303,  0.282742053
   2958,  -1.83883929,  0.284571022
   2959,  -1.79940486,  0.280932784
   2960,   1.79940486,  0.280932784
   2961,   1.81912303,  0.282742053
   2962,   1.83883929,  0.284571022
   2963,  -1.81730473,  0.302449465
   2964,  -1.83700144,  0.304276615
   2965,  -1.79760635,  0.300642014
   2966,   1.79760635,  0.300642014
   2967,   1.81730473,  0.302449465
   2968,   1.83700144,  0.304276615
   2969,  -1.81548834,  0.322137147
   2970,  -1.83516538,   0.32396248
   2971,  -1.79580963,  0.320331514
   2972,   1.79580963,  0.320331514
   2973,   1.81548834,  0.322137147
   2974,   1.83516538,   0.32396248
   2975,  -1.81367373,   0.34180519
   2976,  -1.83333111,  0.343628705
   2977,  -1.79401469,  0.340001345
   2978,   1.79401469,  0.340001345
   2979,   1.81367373,   0.34180519
   2980,   1.83333111,  0.343628705
   2981,  -1.81186104,  0.361453563
   2982,  -1.83149862,   0.36327523
   2983,  -1.79222155,  0.359651506
   2984,   1.79222155,  0.359651506
   2985,   1.81186104,  0.361453563
   2986,   1.83149862,   0.36327523
   2987,  -1.81005001,  0.381082296
   2988,  -1.82966805,  0.382902145
   2989,  -1.79043031,  0.379282057
   2990,   1.79043031,  0.379282057
   2991,   1.81005001,  0.381082296
   2992,   1.82966805,  0.382902145
   2993,  -1.80824089,   0.40069139
   2994,  -1.82783937,  0.402509451
   2995,  -1.78864074,  0.398892969
   2996,  -1.76903868,  0.397114128
   2997,  -1.74943495,  0.395354897
   2998,  -1.72982943,  0.393615246
   2999,  -1.71022224,  0.391895235
   3000,  -1.69061327,  0.390194803
   3001,  -1.67100263,  0.388514012
   3002,  -1.65139031,  0.386852801
   3003,  -1.63177633,  0.385211229
   3004,  -1.61216068,  0.383589238
   3005,  -1.59254348,  0.381986886
   3006,  -1.57292461,  0.380404174
   3007,  -1.55330431,  0.378841043
   3008,  -1.53368235,   0.37729755
   3009,  -1.51405895,  0.375773698
   3010,  -1.49443388,  0.374269426
   3011,  -1.47480738,  0.372784823
   3012,  -1.45517945,   0.37131983
   3013,  -1.43555009,  0.369874448
   3014,   -1.4159193,  0.368448734
   3015,  -1.39628696,  0.367042631
   3016,  -1.37665331,  0.365656137
   3017,  -1.35701835,  0.364289314
   3018,  -1.33738196,    0.3629421
   3019,  -1.31774426,  0.361614555
   3020,  -1.29810512,  0.360306621
   3021,  -1.27846479,  0.359018356
   3022,  -1.25882316,  0.357749701
   3023,  -1.23918033,  0.356500685
   3024,  -1.21953619,  0.355271339
   3025,  -1.19989085,  0.354061633
   3026,  -1.18024433,  0.352871567
   3027,  -1.16059661,   0.35170114
   3028,   -1.1409477,  0.350550354
   3029,  -1.12129772,  0.349419236
   3030,  -1.10164654,  0.348307759
   3031,   -1.0819943,   0.34721595
   3032,  -1.06234097,  0.346143782
   3033,   -1.0426867,  0.345091254
   3034,  -1.02303123,  0.344058394
   3035,  -1.00337481,  0.343045205
   3036, -0.983717322,  0.342051655
   3037, -0.964058876,  0.341077775
   3038, -0.944399476,  0.340123534
   3039, -0.924739122,  0.339188963
   3040, -0.905077875,  0.338274062
   3041, -0.885415673,    0.3373788
   3042, -0.865752637,  0.336503237
   3043, -0.846088707,  0.335647315
   3044, -0.826423943,  0.334811062
   3045, -0.806758344,  0.333994448
   3046, -0.787091911,  0.333197534
   3047, -0.767424762,   0.33242029
   3048, -0.747756779,  0.331662685
   3049, -0.728088081,  0.330924779
   3050, -0.708418608,  0.330206513
   3051, -0.688748479,  0.329507917
   3052, -0.669077635,   0.32882902
   3053, -0.649406135,  0.328169763
   3054,  -0.62973398,  0.327530205
   3055, -0.610061228,  0.326910317
   3056, -0.590387821,  0.326310068
   3057, -0.570713818,  0.325729519
   3058, -0.551039279,  0.325168639
   3059, -0.531364202,  0.324627459
   3060,  -0.51168853,  0.324105918
   3061, -0.492012411,  0.323604077
   3062, -0.472335756,  0.323121905
   3063, -0.452658653,  0.322659403
   3064, -0.432981104,   0.32221657
   3065, -0.413303107,  0.321793437
   3066, -0.393624693,  0.321389973
   3067, -0.373945892,  0.321006179
   3068, -0.354266703,  0.320642084
   3069, -0.334587187,  0.320297658
   3070, -0.314907312,  0.319972903
   3071,  -0.29522711,  0.319667846
   3072,  -0.27554664,  0.319382459
   3073, -0.255865902,  0.319116741
   3074, -0.236184895,  0.318870723
   3075,  -0.21650365,  0.318644375
   3076, -0.196822181,  0.318437725
   3077, -0.177140519,  0.318250746
   3078, -0.157458693,  0.318083435
   3079, -0.137776703,  0.317935824
   3080, -0.118094571,  0.317807883
   3081,  -0.09841232,  0.317699641
   3082, -0.0787299722,  0.317611068
   3083,  -0.05904755,  0.317542166
   3084, -0.0393650681,  0.317492962
   3085, -0.0196825434,  0.317463428
   3086,           0.,  0.317453593
   3087, 0.0196825434,  0.317463428
   3088, 0.0393650681,  0.317492962
   3089,   0.05904755,  0.317542166
   3090, 0.0787299722,  0.317611068
   3091,   0.09841232,  0.317699641
   3092,  0.118094571,  0.317807883
   3093,  0.137776703,  0.317935824
   3094,  0.157458693,  0.318083435
   3095,  0.177140519,  0.318250746
   3096,  0.196822181,  0.318437725
   3097,   0.21650365,  0.318644375
   3098,  0.236184895,  0.318870723
   3099,  0.255865902,  0.319116741
   3100,   0.27554664,  0.319382459
   3101,   0.29522711,  0.319667846
   3102,  0.314907312,  0.319972903
   3103,  0.334587187,  0.320297658
   3104,  0.354266703,  0.320642084
   3105,  0.373945892,  0.321006179
   3106,  0.393624693,  0.321389973
   3107,  0.413303107,  0.321793437
   3108,  0.432981104,   0.32221657
   3109,  0.452658653,  0.322659403
   3110,  0.472335756,  0.323121905
   3111,  0.492012411,  0.323604077
   3112,   0.51168853,  0.324105918
   3113,  0.531364202,  0.324627459
   3114,  0.551039279,  0.325168639
   3115,  0.570713818,  0.325729519
   3116,  0.590387821,  0.326310068
   3117,  0.610061228,  0.326910317
   3118,   0.62973398,  0.327530205
   3119,  0.649406135,  0.328169763
   3120,  0.669077635,   0.32882902
   3121,  0.688748479,  0.329507917
   3122,  0.708418608,  0.330206513
   3123,  0.728088081,  0.330924779
   3124,  0.747756779,  0.331662685
   3125,  0.767424762,   0.33242029
   3126,  0.787091911,  0.333197534
   3127,  0.806758344,  0.333994448
   3128,  0.826423943,  0.334811062
   3129,  0.846088707,  0.335647315
   3130,  0.865752637,  0.336503237
   3131,  0.885415673,    0.3373788
   3132,  0.905077875,  0.338274062
   3133,  0.924739122,  0.339188963
   3134,  0.944399476,  0.340123534
   3135,  0.964058876,  0.341077775
   3136,  0.983717322,  0.342051655
   3137,   1.00337481,  0.343045205
   3138,   1.02303123,  0.344058394
   3139,    1.0426867,  0.345091254
   3140,   1.06234097,  0.346143782
   3141,    1.0819943,   0.34721595
   3142,   1.10164654,  0.348307759
   3143,   1.12129772,  0.349419236
   3144,    1.1409477,  0.350550354
   3145,   1.16059661,   0.35170114
   3146,   1.18024433,  0.352871567
   3147,   1.19989085,  0.354061633
   3148,   1.21953619,  0.355271339
   3149,   1.23918033,  0.356500685
   3150,   1.25882316,  0.357749701
   3151,   1.27846479,  0.359018356
   3152,   1.29810512,  0.360306621
   3153,   1.31774426,  0.361614555
   3154,   1.33738196,    0.3629421
   3155,   1.35701835,  0.364289314
   3156,   1.37665331,  0.365656137
   3157,   1.39628696,  0.367042631
   3158,    1.4159193,  0.368448734
   3159,   1.43555009,  0.369874448
   3160,   1.45517945,   0.37131983
   3161,   1.47480738,  0.372784823
   3162,   1.49443388,  0.374269426
   3163,   1.51405895,  0.375773698
   3164,   1.53368235,   0.37729755
   3165,   1.55330431,  0.378841043
   3166,   1.57292461,  0.380404174
   3167,   1.59254348,  0.381986886
   3168,   1.61216068,  0.383589238
   3169,   1.63177633,  0.385211229
   3170,   1.65139031,  0.386852801
   3171,   1.67100263,  0.388514012
   3172,   1.69061327,  0.390194803
   3173,   1.71022224,  0.391895235
   3174,   1.72982943,  0.393615246
   3175,   1.74943495,  0.395354897
   3176,   1.76903868,  0.397114128
   3177,   1.78864074,  0.398892969
   3178,   1.80824089,   0.40069139
   3179,   1.82783937,  0.402509451
   3180,  -1.80643356,  0.420280904
   3181,  -1.82601237,  0.422097147
   3182,  -1.78685296,  0.418484271
   3183,  -1.76727057,  0.416707218
   3184,  -1.74768639,  0.414949715
   3185,  -1.72810042,  0.413211823
   3186,  -1.70851278,   0.41149354
   3187,  -1.68892348,  0.409794807
   3188,  -1.66933239,  0.408115685
   3189,  -1.64973974,  0.406456143
   3190,  -1.63014531,   0.40481621
   3191,  -1.61054933,  0.403195858
   3192,  -1.59095168,  0.401595116
   3193,  -1.57135248,  0.400013953
   3194,  -1.55175173,  0.398452401
   3195,  -1.53214943,  0.396910459
   3196,  -1.51254559,  0.395388097
   3197,  -1.49294019,  0.393885344
   3198,  -1.47333336,  0.392402232
   3199,  -1.45372498,  0.390938699
   3200,  -1.43411529,  0.389494777
   3201,  -1.41450405,  0.388070464
   3202,  -1.39489138,  0.386665761
   3203,   -1.3752774,  0.385280669
   3204,  -1.35566199,  0.383915216
   3205,  -1.33604527,  0.382569343
   3206,  -1.31642711,   0.38124311
   3207,  -1.29680765,  0.379936516
   3208,  -1.27718699,  0.378649503
   3209,  -1.25756502,  0.377382129
   3210,  -1.23794174,  0.376134366
   3211,  -1.21831727,  0.374906242
   3212,  -1.19869161,  0.373697728
   3213,  -1.17906463,  0.372508854
   3214,  -1.15943658,  0.371339619
   3215,  -1.13980734,  0.370189995
   3216,  -1.12017703,   0.36906001
   3217,  -1.10054553,  0.367949635
   3218,  -1.08091295,    0.3668589
   3219,  -1.06127918,  0.365787804
   3220,  -1.04164445,  0.364736348
   3221,  -1.02200866,  0.363704532
   3222,  -1.00237191,  0.362692326
   3223, -0.982734084,   0.36169979
   3224, -0.963095307,  0.360726863
   3225, -0.943455577,  0.359773576
   3226, -0.923814833,  0.358839959
   3227, -0.904173255,  0.357925951
   3228, -0.884530723,  0.357031614
   3229, -0.864887297,  0.356156886
   3230, -0.845243037,  0.355301827
   3231, -0.825597942,  0.354466408
   3232, -0.805951953,   0.35365063
   3233, -0.786305249,   0.35285452
   3234,  -0.76665771,  0.352078021
   3235, -0.747009397,  0.351321191
   3236, -0.727360368,     0.350584
   3237, -0.707710564,   0.34986648
   3238, -0.688060105,  0.349168599
   3239,  -0.66840893,  0.348490357
   3240, -0.648757041,  0.347831756
   3241, -0.629104555,  0.347192854
   3242, -0.609451473,  0.346573561
   3243, -0.589797735,  0.345973939
   3244, -0.570143402,  0.345393956
   3245, -0.550488532,  0.344833642
   3246, -0.530833066,  0.344292998
   3247, -0.511177123,  0.343771994
   3248, -0.491520643,   0.34327063
   3249, -0.471863657,  0.342788935
   3250, -0.452206224,  0.342326909
   3251, -0.432548314,  0.341884524
   3252, -0.412889987,  0.341461807
   3253, -0.393231243,  0.341058761
   3254, -0.373572111,  0.340675354
   3255, -0.353912622,  0.340311617
   3256, -0.334252745,  0.339967519
   3257,  -0.31459257,  0.339643091
   3258, -0.294932038,  0.339338332
   3259, -0.275271237,  0.339053243
   3260, -0.255610168,  0.338787794
   3261, -0.235948816,  0.338542014
   3262, -0.216287255,  0.338315904
   3263, -0.196625456,  0.338109434
   3264, -0.176963478,  0.337922662
   3265, -0.157301307,  0.337755501
   3266, -0.137638986,  0.337608039
   3267, -0.117976531,  0.337480247
   3268, -0.0983139575,  0.337372094
   3269, -0.0786512867,  0.337283611
   3270, -0.0589885339,  0.337214798
   3271, -0.0393257216,  0.337165624
   3272, -0.0196628701,  0.337136149
   3273,           0.,  0.337126315
   3274, 0.0196628701,  0.337136149
   3275, 0.0393257216,  0.337165624
   3276, 0.0589885339,  0.337214798
   3277, 0.0786512867,  0.337283611
   3278, 0.0983139575,  0.337372094
   3279,  0.117976531,  0.337480247
   3280,  0.137638986,  0.337608039
   3281,  0.157301307,  0.337755501
   3282,  0.176963478,  0.337922662
   3283,  0.196625456,  0.338109434
   3284,  0.216287255,  0.338315904
   3285,  0.235948816,  0.338542014
   3286,  0.255610168,  0.338787794
   3287,  0.275271237,  0.339053243
   3288,  0.294932038,  0.339338332
   3289,   0.31459257,  0.339643091
   3290,  0.334252745,  0.339967519
   3291,  0.353912622,  0.340311617
   3292,  0.373572111,  0.340675354
   3293,  0.393231243,  0.341058761
   3294,  0.412889987,  0.341461807
   3295,  0.432548314,  0.341884524
   3296,  0.452206224,  0.342326909
   3297,  0.471863657,  0.342788935
   3298,  0.491520643,   0.34327063
   3299,  0.511177123,  0.343771994
   3300,  0.530833066,  0.344292998
   3301,  0.550488532,  0.344833642
   3302,  0.570143402,  0.345393956
   3303,  0.589797735,  0.345973939
   3304,  0.609451473,  0.346573561
   3305,  0.629104555,  0.347192854
   3306,  0.648757041,  0.347831756
   3307,   0.66840893,  0.348490357
   3308,  0.688060105,  0.349168599
   3309,  0.707710564,   0.34986648
   3310,  0.727360368,     0.350584
   3311,  0.747009397,  0.351321191
   3312,   0.76665771,  0.352078021
   3313,  0.786305249,   0.35285452
   3314,  0.805951953,   0.35365063
   3315,  0.825597942,  0.354466408
   3316,  0.845243037,  0.355301827
   3317,  0.864887297,  0.356156886
   3318,  0.884530723,  0.357031614
   3319,  0.904173255,  0.357925951
   3320,  0.923814833,  0.358839959
   3321,  0.943455577,  0.359773576
   3322,  0.963095307,  0.360726863
   3323,  0.982734084,   0.36169979
   3324,   1.00237191,  0.362692326
   3325,   1.02200866,  0.363704532
   3326,   1.04164445,  0.364736348
   3327,   1.06127918,  0.365787804
   3328,   1.08091295,    0.3668589
   3329,   1.10054553,  0.367949635
   3330,   1.12017703,   0.36906001
   3331,   1.13980734,  0.370189995
   3332,   1.15943658,  0.371339619
   3333,   1.17906463,  0.372508854
   3334,   1.19869161,  0.373697728
   3335,   1.21831727,  0.374906242
   3336,   1.23794174,  0.376134366
   3337,   1.25756502,  0.377382129
   3338,   1.27718699,  0.378649503
   3339,   1.29680765,  0.379936516
   3340,   1.31642711,   0.38124311
   3341,   1.33604527,  0.382569343
   3342,   1.35566199,  0.383915216
   3343,    1.3752774,  0.385280669
   3344,   1.39489138,  0.386665761
   3345,   1.41450405,  0.388070464
   3346,   1.43411529,  0.389494777
   3347,   1.45372498,  0.390938699
   3348,   1.47333336,  0.392402232
   3349,   1.49294019,  0.393885344
   3350,   1.51254559,  0.395388097
   3351,   1.53214943,  0.396910459
   3352,   1.55175173,  0.398452401
   3353,   1.57135248,  0.400013953
   3354,   1.59095168,  0.401595116
   3355,   1.61054933,  0.403195858
   3356,   1.63014531,   0.40481621
   3357,   1.64973974,  0.406456143
   3358,   1.66933239,  0.408115685
   3359,   1.68892348,  0.409794807
   3360,   1.70851278,   0.41149354
   3361,   1.72810042,  0.413211823
   3362,   1.74768639,  0.414949715
   3363,   1.76727057,  0.416707218
   3364,   1.78685296,  0.418484271
   3365,   1.80643356,  0.420280904
   3366,   1.82601237,  0.422097147
   3367,  -1.80462801,  0.439850837
   3368,  -1.82418728,  0.441665262
   3369,  -1.78506696,  0.438055992
   3370,  -1.76550412,  0.436280698
   3371,  -1.74593961,  0.434524983
   3372,   -1.7263732,  0.432788819
   3373,  -1.70680511,  0.431072235
   3374,  -1.68723536,  0.429375231
   3375,  -1.66766393,  0.427697778
   3376,  -1.64809084,  0.426039904
   3377,  -1.62851596,  0.424401581
   3378,  -1.60893965,  0.422782868
   3379,  -1.58936155,  0.421183705
   3380,  -1.56978202,  0.419604152
   3381,  -1.55020082,   0.41804415
   3382,  -1.53061807,  0.416503727
   3383,  -1.51103377,  0.414982915
   3384,  -1.49144804,  0.413481683
   3385,  -1.47186077,   0.41200003
   3386,  -1.45227206,  0.410537958
   3387,   -1.4326818,  0.409095466
   3388,  -1.41309023,  0.407672584
   3389,  -1.39349723,  0.406269282
   3390,   -1.3739028,   0.40488559
   3391,  -1.35430694,  0.403521478
   3392,  -1.33470988,  0.402176976
   3393,   -1.3151114,  0.400852084
   3394,  -1.29551148,  0.399546772
   3395,   -1.2759105,   0.39826104
   3396,  -1.25630808,  0.396994948
   3397,  -1.23670447,  0.395748436
   3398,  -1.21709955,  0.394521534
   3399,  -1.19749343,  0.393314242
   3400,  -1.17788625,   0.39212653
   3401,  -1.15827775,  0.390958458
   3402,  -1.13866818,  0.389809996
   3403,  -1.11905742,  0.388681114
   3404,  -1.09944546,  0.387571871
   3405,  -1.07983255,  0.386482239
   3406,  -1.06021845,  0.385412216
   3407,   -1.0406034,  0.384361804
   3408,  -1.02098715,  0.383331001
   3409,  -1.00137007,  0.382319838
   3410, -0.981751859,  0.381328255
   3411, -0.962132692,  0.380356312
   3412, -0.942512572,  0.379404008
   3413, -0.922891498,  0.378471285
   3414, -0.903269529,  0.377558202
   3415, -0.883646607,  0.376664758
   3416, -0.864022851,  0.375790924
   3417, -0.844398201,    0.3749367
   3418, -0.824772716,  0.374102116
   3419, -0.805146456,  0.373287171
   3420, -0.785519302,  0.372491837
   3421, -0.765891433,  0.371716142
   3422, -0.746262729,  0.370960057
   3423,  -0.72663337,  0.370223612
   3424, -0.707003236,  0.369506776
   3425, -0.687372386,  0.368809611
   3426, -0.667740822,  0.368132055
   3427, -0.648108661,  0.367474109
   3428, -0.628475785,  0.366835833
   3429, -0.608842313,  0.366217166
   3430, -0.589208245,   0.36561814
   3431, -0.569573581,  0.365038753
   3432, -0.549938321,  0.364479005
   3433, -0.530302525,  0.363938868
   3434, -0.510666192,    0.3634184
   3435, -0.491029352,  0.362917542
   3436, -0.471392035,  0.362436324
   3437, -0.451754242,  0.361974746
   3438, -0.432116002,  0.361532807
   3439, -0.412477314,  0.361110538
   3440,  -0.39283821,  0.360707879
   3441, -0.373198748,   0.36032486
   3442, -0.353558868,   0.35996148
   3443, -0.333918661,   0.35961774
   3444, -0.314278126,   0.35929364
   3445, -0.294637263,  0.358989179
   3446, -0.274996102,  0.358704358
   3447, -0.255354673,  0.358439177
   3448,  -0.23571299,  0.358193636
   3449, -0.216071069,  0.357967764
   3450,  -0.19642894,  0.357761502
   3451, -0.176786602,   0.35757491
   3452, -0.157144085,  0.357407928
   3453, -0.137501419,  0.357260615
   3454, -0.117858618,  0.357132941
   3455, -0.0982156917,  0.357024878
   3456, -0.0785726756,  0.356936485
   3457, -0.0589295737,   0.35686776
   3458, -0.039286416,  0.356818646
   3459, -0.0196432173,  0.356789172
   3460,           0.,  0.356779367
   3461, 0.0196432173,  0.356789172
   3462,  0.039286416,  0.356818646
   3463, 0.0589295737,   0.35686776
   3464, 0.0785726756,  0.356936485
   3465, 0.0982156917,  0.357024878
   3466,  0.117858618,  0.357132941
   3467,  0.137501419,  0.357260615
   3468,  0.157144085,  0.357407928
   3469,  0.176786602,   0.35757491
   3470,   0.19642894,  0.357761502
   3471,  0.216071069,  0.357967764
   3472,   0.23571299,  0.358193636
   3473,  0.255354673,  0.358439177
   3474,  0.274996102,  0.358704358
   3475,  0.294637263,  0.358989179
   3476,  0.314278126,   0.35929364
   3477,  0.333918661,   0.35961774
   3478,  0.353558868,   0.35996148
   3479,  0.373198748,   0.36032486
   3480,   0.39283821,  0.360707879
   3481,  0.412477314,  0.361110538
   3482,  0.432116002,  0.361532807
   3483,  0.451754242,  0.361974746
   3484,  0.471392035,  0.362436324
   3485,  0.491029352,  0.362917542
   3486,  0.510666192,    0.3634184
   3487,  0.530302525,  0.363938868
   3488,  0.549938321,  0.364479005
   3489,  0.569573581,  0.365038753
   3490,  0.589208245,   0.36561814
   3491,  0.608842313,  0.366217166
   3492,  0.628475785,  0.366835833
   3493,  0.648108661,  0.367474109
   3494,  0.667740822,  0.368132055
   3495,  0.687372386,  0.368809611
   3496,  0.707003236,  0.369506776
   3497,   0.72663337,  0.370223612
   3498,  0.746262729,  0.370960057
   3499,  0.765891433,  0.371716142
   3500,  0.785519302,  0.372491837
   3501,  0.805146456,  0.373287171
   3502,  0.824772716,  0.374102116
   3503,  0.844398201,    0.3749367
   3504,  0.864022851,  0.375790924
   3505,  0.883646607,  0.376664758
   3506,  0.903269529,  0.377558202
   3507,  0.922891498,  0.378471285
   3508,  0.942512572,  0.379404008
   3509,  0.962132692,  0.380356312
   3510,  0.981751859,  0.381328255
   3511,   1.00137007,  0.382319838
   3512,   1.02098715,  0.383331001
   3513,    1.0406034,  0.384361804
   3514,   1.06021845,  0.385412216
   3515,   1.07983255,  0.386482239
   3516,   1.09944546,  0.387571871
   3517,   1.11905742,  0.388681114
   3518,   1.13866818,  0.389809996
   3519,   1.15827775,  0.390958458
   3520,   1.17788625,   0.39212653
   3521,   1.19749343,  0.393314242
   3522,   1.21709955,  0.394521534
   3523,   1.23670447,  0.395748436
   3524,   1.25630808,  0.396994948
   3525,    1.2759105,   0.39826104
   3526,   1.29551148,  0.399546772
   3527,    1.3151114,  0.400852084
   3528,   1.33470988,  0.402176976
   3529,   1.35430694,  0.403521478
   3530,    1.3739028,   0.40488559
   3531,   1.39349723,  0.406269282
   3532,   1.41309023,  0.407672584
   3533,    1.4326818,  0.409095466
   3534,   1.45227206,  0.410537958
   3535,   1.47186077,   0.41200003
   3536,   1.49144804,  0.413481683
   3537,   1.51103377,  0.414982915
   3538,   1.53061807,  0.416503727
   3539,   1.55020082,   0.41804415
   3540,   1.56978202,  0.419604152
   3541,   1.58936155,  0.421183705
   3542,   1.60893965,  0.422782868
   3543,   1.62851596,  0.424401581
   3544,   1.64809084,  0.426039904
   3545,   1.66766393,  0.427697778
   3546,   1.68723536,  0.429375231
   3547,   1.70680511,  0.431072235
   3548,    1.7263732,  0.432788819
   3549,   1.74593961,  0.434524983
   3550,   1.76550412,  0.436280698
   3551,   1.78506696,  0.438055992
   3552,   1.80462801,  0.439850837
   3553,   1.82418728,  0.441665262
   3554,  -1.80282438,   0.45940122
   3555,  -1.81872296,  0.500252306
   3556,  -1.78328288,  0.457608163
   3557,  -1.76021564,  0.494883925
   3558,  -1.74419451,  0.454080671
   3559,  -1.72464776,  0.452346265
   3560,  -1.70169246,  0.489691049
   3561,  -1.68554902,  0.448936075
   3562,  -1.66599703,   0.44726029
   3563,  -1.64315391,  0.484673768
   3564,  -1.62688828,  0.443967402
   3565,  -1.60733151,  0.442350298
   3566,  -1.58460069,  0.479832143
   3567,  -1.56821299,  0.439174742
   3568,  -1.54865134,  0.437616318
   3569,  -1.52603304,  0.475166202
   3570,  -1.50952351,  0.434558153
   3571,  -1.48995733,  0.433058411
   3572,  -1.46745181,  0.470675975
   3573,  -1.45082045,  0.430117637
   3574,  -1.43124986,  0.428676575
   3575,  -1.40885735,  0.466361493
   3576,  -1.39210439,  0.425853223
   3577,  -1.37252963,  0.424470901
   3578,  -1.35025012,  0.462222844
   3579,  -1.33337581,     0.421765
   3580,  -1.31379688,  0.420441419
   3581,  -1.29163086,      0.45826
   3582,   -1.2746352,  0.417852998
   3583,  -1.25505245,  0.416588157
   3584,  -1.23299992,  0.454473048
   3585,  -1.21588314,  0.414117217
   3586,  -1.19629657,  0.412911117
   3587,  -1.17435789,   0.45086202
   3588,  -1.15712011,  0.410557687
   3589,  -1.13753009,  0.409410387
   3590,  -1.11570525,  0.447426915
   3591,  -1.09834659,  0.407174498
   3592,  -1.07875323,  0.406085938
   3593,   -1.0570426,  0.444167793
   3594,   -1.0395633,  0.403967619
   3595,  -1.01996672,  0.402937859
   3596, -0.998370409,  0.441084683
   3597, -0.980770588,   0.40093714
   3598, -0.961171031,  0.399966151
   3599, -0.939689279,  0.438177586
   3600, -0.921969056,  0.398083031
   3601, -0.902366698,  0.397170842
   3602, -0.880999684,   0.43544656
   3603, -0.863159239,  0.395405322
   3604, -0.843554258,  0.394551963
   3605, -0.822302103,  0.432891577
   3606, -0.804341674,  0.392904073
   3607,  -0.78473419,  0.392109543
   3608,  -0.76359719,  0.430512756
   3609, -0.745516837,  0.390579283
   3610, -0.725907087,  0.389843583
   3611, -0.704885364,  0.428310007
   3612, -0.686685324,  0.388430983
   3613, -0.667073429,  0.387754083
   3614, -0.646167219,  0.426283449
   3615, -0.627847612,  0.386459172
   3616,  -0.60823375,  0.385841131
   3617, -0.587443233,  0.424433023
   3618, -0.569004238,   0.38466391
   3619, -0.549388647,  0.384104699
   3620, -0.528714001,  0.422758788
   3621, -0.510155797,  0.383045167
   3622, -0.490538567,  0.382544816
   3623, -0.469979972,  0.421260744
   3624, -0.451302707,  0.381602973
   3625, -0.431684107,  0.381161481
   3626,  -0.41124174,  0.419938892
   3627, -0.392445594,  0.380337328
   3628, -0.372825712,  0.379954696
   3629, -0.352499783,  0.418793291
   3630, -0.333584905,  0.379248291
   3631, -0.313964009,  0.378924519
   3632, -0.293754667,  0.417823911
   3633, -0.274721235,  0.378335834
   3634, -0.255099446,  0.378070921
   3635, -0.235006914,  0.417030782
   3636, -0.215855107,  0.377599984
   3637, -0.196232602,  0.377393931
   3638, -0.176257029,  0.416413873
   3639, -0.156987026,  0.377040714
   3640, -0.137363985,   0.37689352
   3641, -0.117505573,  0.415973216
   3642, -0.0981175303,  0.376658052
   3643, -0.078494139,  0.376569748
   3644, -0.0587530509,   0.41570884
   3645, -0.0392471477,  0.376451999
   3646, -0.0196235832,  0.376422554
   3647,           0.,  0.415620714
   3648, 0.0196235832,  0.376422554
   3649, 0.0392471477,  0.376451999
   3650, 0.0587530509,   0.41570884
   3651,  0.078494139,  0.376569748
   3652, 0.0981175303,  0.376658052
   3653,  0.117505573,  0.415973216
   3654,  0.137363985,   0.37689352
   3655,  0.156987026,  0.377040714
   3656,  0.176257029,  0.416413873
   3657,  0.196232602,  0.377393931
   3658,  0.215855107,  0.377599984
   3659,  0.235006914,  0.417030782
   3660,  0.255099446,  0.378070921
   3661,  0.274721235,  0.378335834
   3662,  0.293754667,  0.417823911
   3663,  0.313964009,  0.378924519
   3664,  0.333584905,  0.379248291
   3665,  0.352499783,  0.418793291
   3666,  0.372825712,  0.379954696
   3667,  0.392445594,  0.380337328
   3668,   0.41124174,  0.419938892
   3669,  0.431684107,  0.381161481
   3670,  0.451302707,  0.381602973
   3671,  0.469979972,  0.421260744
   3672,  0.490538567,  0.382544816
   3673,  0.510155797,  0.383045167
   3674,  0.528714001,  0.422758788
   3675,  0.549388647,  0.384104699
   3676,  0.569004238,   0.38466391
   3677,  0.587443233,  0.424433023
   3678,   0.60823375,  0.385841131
   3679,  0.627847612,  0.386459172
   3680,  0.646167219,  0.426283449
   3681,  0.667073429,  0.387754083
   3682,  0.686685324,  0.388430983
   3683,  0.704885364,  0.428310007
   3684,  0.725907087,  0.389843583
   3685,  0.745516837,  0.390579283
   3686,   0.76359719,  0.430512756
   3687,   0.78473419,  0.392109543
   3688,  0.804341674,  0.392904073
   3689,  0.822302103,  0.432891577
   3690,  0.843554258,  0.394551963
   3691,  0.863159239,  0.395405322
   3692,  0.880999684,   0.43544656
   3693,  0.902366698,  0.397170842
   3694,  0.921969056,  0.398083031
   3695,  0.939689279,  0.438177586
   3696,  0.961171031,  0.399966151
   3697,  0.980770588,   0.40093714
   3698,  0.998370409,  0.441084683
   3699,   1.01996672,  0.402937859
   3700,    1.0395633,  0.403967619
   3701,    1.0570426,  0.444167793
   3702,   1.07875323,  0.406085938
   3703,   1.09834659,  0.407174498
   3704,   1.11570525,  0.447426915
   3705,   1.13753009,  0.409410387
   3706,   1.15712011,  0.410557687
   3707,   1.17435789,   0.45086202
   3708,   1.19629657,  0.412911117
   3709,   1.21588314,  0.414117217
   3710,   1.23299992,  0.454473048
   3711,   1.25505245,  0.416588157
   3712,    1.2746352,  0.417852998
   3713,   1.29163086,      0.45826
   3714,   1.31379688,  0.420441419
   3715,   1.33337581,     0.421765
   3716,   1.35025012,  0.462222844
   3717,   1.37252963,  0.424470901
   3718,   1.39210439,  0.425853223
   3719,   1.40885735,  0.466361493
   3720,   1.43124986,  0.428676575
   3721,   1.45082045,  0.430117637
   3722,   1.46745181,  0.470675975
   3723,   1.48995733,  0.433058411
   3724,   1.50952351,  0.434558153
   3725,   1.52603304,  0.475166202
   3726,   1.54865134,  0.437616318
   3727,   1.56821299,  0.439174742
   3728,   1.58460069,  0.479832143
   3729,   1.60733151,  0.442350298
   3730,   1.62688828,  0.443967402
   3731,   1.64315391,  0.484673768
   3732,   1.66599703,   0.44726029
   3733,   1.68554902,  0.448936075
   3734,   1.70169246,  0.489691049
   3735,   1.72464776,  0.452346265
   3736,   1.74419451,  0.454080671
   3737,   1.76021564,  0.494883925
   3738,   1.78328288,  0.457608163
   3739,   1.80282438,   0.45940122
   3740,   1.81872296,  0.500252306
   3741,  -1.87535632,  0.108196706
   3742,  -1.91705227, 0.0920892432
   3743,  -1.87348187,  0.128078565
   3744,  -1.91130972,  0.151723474
   3745,   1.87535632,  0.108196706
   3746,   1.91705227, 0.0920892432
   3747,   1.87348187,  0.128078565
   3748,   1.91130972,  0.151723474
   3749,   -1.8697387,  0.167782694
   3750,  -1.86786985,  0.187604994
   3751,  -1.90558434,  0.211179078
   3752,    1.8697387,  0.167782694
   3753,   1.86786985,  0.187604994
   3754,   1.90558434,  0.211179078
   3755,  -1.86413789,  0.227190197
   3756,  -1.86227465,  0.246953115
   3757,  -1.89987612,  0.270456582
   3758,   1.86413789,  0.227190197
   3759,   1.86227465,  0.246953115
   3760,   1.89987612,  0.270456582
   3761,  -1.85855389,  0.286419719
   3762,  -1.85669625,  0.306123465
   3763,  -1.89418507,  0.329556525
   3764,   1.85855389,  0.286419719
   3765,   1.85669625,  0.306123465
   3766,   1.89418507,  0.329556525
   3767,  -1.85298657,  0.345471859
   3768,  -1.85113442,  0.365116566
   3769,  -1.88851106,  0.388479412
   3770,   1.85298657,  0.345471859
   3771,   1.85113442,  0.365116566
   3772,   1.88851106,  0.388479412
   3773,  -1.84743595,  0.404347092
   3774,   -1.8455894,   0.42393294
   3775,  -1.88285398,  0.447225809
   3776,   1.84743595,  0.404347092
   3777,    1.8455894,   0.42393294
   3778,   1.88285398,  0.447225809
   3779,  -1.87721395,  0.505796254
   3780,   1.87721395,  0.505796254
   3781,  -2.15580344,  0.116526671
   3782,  -2.09614348,  0.110148743
   3783,  -2.08986425,   0.16972889
   3784,  -2.14934564,  0.176087707
   3785,  -2.03646445,   0.10394983
   3786,  -2.03036427,  0.163548529
   3787,   -1.9767673, 0.0979299769
   3788,  -1.97084582,  0.157546714
   3789,    1.9767673, 0.0979299769
   3790,   1.97084582,  0.157546714
   3791,   2.03646445,   0.10394983
   3792,   2.03036427,  0.163548529
   3793,   2.09614348,  0.110148743
   3794,   2.08986425,   0.16972889
   3795,   2.15580344,  0.116526671
   3796,   2.14934564,  0.176087707
   3797,   -2.0836041,  0.229130551
   3798,  -2.14290738,  0.235470325
   3799,  -2.02428222,  0.222968712
   3800,  -1.96494222,  0.216984868
   3801,   1.96494222,  0.216984868
   3802,   2.02428222,  0.222968712
   3803,    2.0836041,  0.229130551
   3804,   2.14290738,  0.235470325
   3805,  -2.07736278,  0.288354278
   3806,   -2.1364882,  0.294675052
   3807,  -2.01821852,  0.282210916
   3808,  -1.95905614,  0.276244998
   3809,   1.95905614,  0.276244998
   3810,   2.01821852,  0.282210916
   3811,   2.07736278,  0.288354278
   3812,    2.1364882,  0.294675052
   3813,  -2.07114005,  0.347400606
   3814,  -2.13008833,  0.353702456
   3815,  -2.01217294,  0.341275632
   3816,  -1.95318782,  0.335327595
   3817,   1.95318782,  0.335327595
   3818,   2.01217294,  0.341275632
   3819,   2.07114005,  0.347400606
   3820,   2.13008833,  0.353702456
   3821,  -2.06493592,  0.406270057
   3822,  -2.12370777,  0.412553012
   3823,  -2.00614548,  0.400163412
   3824,  -1.94733703,  0.394233197
   3825,   1.94733703,  0.394233197
   3826,   2.00614548,  0.400163412
   3827,   2.06493592,  0.406270057
   3828,   2.12370777,  0.412553012
   3829,  -2.05875039,  0.464963168
   3830,  -2.11734605,  0.471227318
   3831,  -2.00013614,  0.458874822
   3832,  -1.94150376,  0.452962369
   3833,   1.94150376,  0.452962369
   3834,   2.00013614,  0.458874822
   3835,   2.05875039,  0.464963168
   3836,   2.11734605,  0.471227318
   3837,  -2.05258346,  0.523480475
   3838,  -2.11100364,   0.52972585
   3839,  -1.99414468,  0.517410338
   3840,  -1.93568802,  0.511515617
   3841,   1.93568802,  0.511515617
   3842,   1.99414468,  0.517410338
   3843,   2.05258346,  0.523480475
   3844,   2.11100364,   0.52972585
   3845,  -2.04643488,  0.581822455
   3846,  -2.10468006,  0.588049114
   3847,  -1.98817122,  0.575770557
   3848,  -1.92988968,   0.56989342
   3849,  -1.87159073,  0.564191222
   3850,  -1.81327498,  0.558663905
   3851,  -1.75494289,  0.553311586
   3852,  -1.69659495,  0.548134267
   3853,  -1.63823187,  0.543132007
   3854,  -1.57985401,  0.538304925
   3855,  -1.52146184,  0.533652902
   3856,  -1.46305609,  0.529176116
   3857,   -1.4046371,  0.524874568
   3858,  -1.34620547,  0.520748317
   3859,  -1.28776169,  0.516797364
   3860,  -1.22930646,  0.513021767
   3861,  -1.17084002,  0.509421527
   3862,   -1.1123631,  0.505996764
   3863,  -1.05387616,  0.502747357
   3864, -0.995379806,  0.499673486
   3865, -0.936874449,   0.49677512
   3866, -0.878360629,  0.494052261
   3867, -0.819838941,  0.491504967
   3868, -0.761309803,  0.489133239
   3869, -0.702773869,  0.486937106
   3870, -0.644231617,  0.484916598
   3871, -0.585683584,  0.483071715
   3872, -0.527130246,  0.481402487
   3873,  -0.46857217,  0.479908943
   3874, -0.410009861,  0.478591055
   3875, -0.351443887,  0.477448881
   3876, -0.292874724,  0.476482421
   3877, -0.234302953,  0.475691646
   3878, -0.175729051,  0.475076586
   3879, -0.117153585,   0.47463727
   3880, -0.0585770532,  0.474373668
   3881,           0.,  0.474285811
   3882, 0.0585770532,  0.474373668
   3883,  0.117153585,   0.47463727
   3884,  0.175729051,  0.475076586
   3885,  0.234302953,  0.475691646
   3886,  0.292874724,  0.476482421
   3887,  0.351443887,  0.477448881
   3888,  0.410009861,  0.478591055
   3889,   0.46857217,  0.479908943
   3890,  0.527130246,  0.481402487
   3891,  0.585683584,  0.483071715
   3892,  0.644231617,  0.484916598
   3893,  0.702773869,  0.486937106
   3894,  0.761309803,  0.489133239
   3895,  0.819838941,  0.491504967
   3896,  0.878360629,  0.494052261
   3897,  0.936874449,   0.49677512
   3898,  0.995379806,  0.499673486
   3899,   1.05387616,  0.502747357
   3900,    1.1123631,  0.505996764
   3901,   1.17084002,  0.509421527
   3902,   1.22930646,  0.513021767
   3903,   1.28776169,  0.516797364
   3904,   1.34620547,  0.520748317
   3905,    1.4046371,  0.524874568
   3906,   1.46305609,  0.529176116
   3907,   1.52146184,  0.533652902
   3908,   1.57985401,  0.538304925
   3909,   1.63823187,  0.543132007
   3910,   1.69659495,  0.548134267
   3911,   1.75494289,  0.553311586
   3912,   1.81327498,  0.558663905
   3913,   1.87159073,  0.564191222
   3914,   1.92988968,   0.56989342
   3915,   1.98817122,  0.575770557
   3916,   2.04643488,  0.581822455
   3917,   2.10468006,  0.588049114
   3918,  -2.04030466,  0.639989674
   3919,  -2.09837556,  0.646197736
   3920,  -1.98221564,  0.633955896
   3921,  -1.92410862,  0.628096402
   3922,  -1.86598432,  0.622411251
   3923,  -1.80784333,  0.616900504
   3924,  -1.74968588,  0.611564219
   3925,  -1.69151282,  0.606402397
   3926,   -1.6333245,  0.601415157
   3927,  -1.57512152,  0.596602499
   3928,  -1.51690435,  0.591964424
   3929,  -1.45867348,  0.587501109
   3930,  -1.40042949,  0.583212435
   3931,  -1.34217286,  0.579098523
   3932,  -1.28390419,  0.575159371
   3933,  -1.22562408,  0.571395099
   3934,  -1.16733277,  0.567805648
   3935,  -1.10903108,  0.564391136
   3936,  -1.05071926,  0.561151505
   3937, -0.992398143,  0.558086812
   3938, -0.934068024,   0.55519712
   3939, -0.875729501,  0.552482426
   3940, -0.817383111,  0.549942732
   3941, -0.759029329,  0.547578096
   3942, -0.700668752,  0.545388579
   3943, -0.642301798,  0.543374121
   3944, -0.583929121,  0.541534781
   3945,   -0.5255512,   0.53987056
   3946,  -0.46716854,  0.538381457
   3947, -0.408781677,  0.537067533
   3948,  -0.35039112,  0.535928786
   3949, -0.291997433,  0.534965217
   3950, -0.233601093,  0.534176767
   3951, -0.175202653,  0.533563614
   3952, -0.116802648,  0.533125579
   3953, -0.0584015884,  0.532862782
   3954,           0.,  0.532775164
   3955, 0.0584015884,  0.532862782
   3956,  0.116802648,  0.533125579
   3957,  0.175202653,  0.533563614
   3958,  0.233601093,  0.534176767
   3959,  0.291997433,  0.534965217
   3960,   0.35039112,  0.535928786
   3961,  0.408781677,  0.537067533
   3962,   0.46716854,  0.538381457
   3963,    0.5255512,   0.53987056
   3964,  0.583929121,  0.541534781
   3965,  0.642301798,  0.543374121
   3966,  0.700668752,  0.545388579
   3967,  0.759029329,  0.547578096
   3968,  0.817383111,  0.549942732
   3969,  0.875729501,  0.552482426
   3970,  0.934068024,   0.55519712
   3971,  0.992398143,  0.558086812
   3972,   1.05071926,  0.561151505
   3973,   1.10903108,  0.564391136
   3974,   1.16733277,  0.567805648
   3975,   1.22562408,  0.571395099
   3976,   1.28390419,  0.575159371
   3977,   1.34217286,  0.579098523
   3978,   1.40042949,  0.583212435
   3979,   1.45867348,  0.587501109
   3980,   1.51690435,  0.591964424
   3981,   1.57512152,  0.596602499
   3982,    1.6333245,  0.601415157
   3983,   1.69151282,  0.606402397
   3984,   1.74968588,  0.611564219
   3985,   1.80784333,  0.616900504
   3986,   1.86598432,  0.622411251
   3987,   1.92410862,  0.628096402
   3988,   1.98221564,  0.633955896
   3989,   2.04030466,  0.639989674
   3990,   2.09837556,  0.646197736
   3991,  -2.03419304,  0.697982669
   3992,  -2.07957482,  0.819600463
   3993,  -1.97627783,  0.691966951
   3994,  -1.90686929,  0.801661313
   3995,  -1.86039484,  0.680456936
   3996,  -1.80242789,  0.674962699
   3997,  -1.73400939,  0.785277247
   3998,  -1.68644595,  0.664496005
   3999,  -1.62843192,  0.659523726
   4000,  -1.56100905,  0.770449579
   4001,  -1.51236045,  0.650101304
   4002,  -1.45430398,  0.645651281
   4003,  -1.38788211,  0.757179499
   4004,  -1.33815241,  0.637273908
   4005,  -1.28005826,  0.633346617
   4006,  -1.21464288,   0.74546802
   4007,    -1.163836,  0.626014888
   4008,  -1.10570896,  0.622610569
   4009,   -1.0413053,  0.735316217
   4010, -0.989425421,   0.61632514
   4011, -0.931270003,   0.61344409
   4012, -0.867883265,  0.726724803
   4013, -0.814934611,  0.608205497
   4014,  -0.75675565,  0.605847955
   4015, -0.694391012,  0.719694495
   4016,  -0.64037782,  0.601656497
   4017, -0.582179964,    0.5998227
   4018, -0.520842493,  0.714225948
   4019, -0.465769142,  0.596678853
   4020,  -0.40755716,  0.595368862
   4021, -0.347251743,  0.710319459
   4022, -0.291122735,  0.593272805
   4023, -0.232901335,  0.592486739
   4024, -0.173632905,  0.707975507
   4025, -0.116452768,  0.591438711
   4026, -0.058226645,  0.591176689
   4027,           0.,  0.707194149
   4028,  0.058226645,  0.591176689
   4029,  0.116452768,  0.591438711
   4030,  0.173632905,  0.707975507
   4031,  0.232901335,  0.592486739
   4032,  0.291122735,  0.593272805
   4033,  0.347251743,  0.710319459
   4034,   0.40755716,  0.595368862
   4035,  0.465769142,  0.596678853
   4036,  0.520842493,  0.714225948
   4037,  0.582179964,    0.5998227
   4038,   0.64037782,  0.601656497
   4039,  0.694391012,  0.719694495
   4040,   0.75675565,  0.605847955
   4041,  0.814934611,  0.608205497
   4042,  0.867883265,  0.726724803
   4043,  0.931270003,   0.61344409
   4044,  0.989425421,   0.61632514
   4045,    1.0413053,  0.735316217
   4046,   1.10570896,  0.622610569
   4047,     1.163836,  0.626014888
   4048,   1.21464288,   0.74546802
   4049,   1.28005826,  0.633346617
   4050,   1.33815241,  0.637273908
   4051,   1.38788211,  0.757179499
   4052,   1.45430398,  0.645651281
   4053,   1.51236045,  0.650101304
   4054,   1.56100905,  0.770449579
   4055,   1.62843192,  0.659523726
   4056,   1.68644595,  0.664496005
   4057,   1.73400939,  0.785277247
   4058,   1.80242789,  0.674962699
   4059,   1.86039484,  0.680456936
   4060,   1.90686929,  0.801661313
   4061,   1.97627783,  0.691966951
   4062,   2.03419304,  0.697982669
   4063,   2.07957482,  0.819600463
   4064,  -2.20880771,  0.182624936
   4065,  -2.33466506,  0.136733919
   4066,  -2.20219111,  0.241987973
   4067,  -2.31374717,  0.314701259
   4068,   2.20880771,  0.182624936
   4069,   2.33466506,  0.136733919
   4070,   2.20219111,  0.241987973
   4071,   2.31374717,  0.314701259
   4072,  -2.18901753,  0.360181123
   4073,  -2.18246031,  0.419012278
   4074,  -2.29301691,  0.491074085
   4075,   2.18901753,  0.360181123
   4076,   2.18246031,  0.419012278
   4077,   2.29301691,  0.491074085
   4078,  -2.16940475,  0.536146462
   4079,  -2.16290641,  0.594450533
   4080,  -2.27247238,  0.665866673
   4081,   2.16940475,  0.536146462
   4082,   2.16290641,  0.594450533
   4083,   2.27247238,  0.665866673
   4084,  -2.25211191,  0.839093149
   4085,   2.25211191,  0.839093149
   4086,  -2.69180632,  0.181973383
   4087,  -2.51333737,  0.158550069
   4088,  -2.49081874,   0.33632195
   4089,  -2.66768861,  0.359535396
   4090,   2.51333737,  0.158550069
   4091,   2.49081874,   0.33632195
   4092,   2.69180632,  0.181973383
   4093,   2.66768861,  0.359535396
   4094,  -2.46850204,  0.512501061
   4095,  -2.64378715,  0.535506487
   4096,   2.46850204,  0.512501061
   4097,   2.64378715,  0.535506487
   4098,  -2.44638515,  0.687101662
   4099,  -2.62009978,  0.709900975
   4100,   2.44638515,  0.687101662
   4101,   2.62009978,  0.709900975
   4102,  -2.42446661,  0.860137939
   4103,  -2.59662485,  0.882732987
   4104,   2.42446661,  0.860137939
   4105,   2.59662485,  0.882732987
   4106,  -2.40274429,   1.03162384
   4107,  -2.57335997,   1.05401647
   4108,  -2.23193383,    1.0107677
   4109,  -2.06094265,  0.991449594
   4110,  -1.88978457,  0.973671198
   4111,  -1.71847332,  0.957433879
   4112,  -1.54702294,  0.942739069
   4113,  -1.37544727,  0.929587841
   4114,  -1.20376015,  0.917981327
   4115,  -1.03197563,   0.90792048
   4116, -0.860107362,  0.899406075
   4117, -0.688169539,  0.892438769
   4118, -0.516175926,  0.887019157
   4119,   -0.3441405,  0.883147717
   4120, -0.172077224,  0.880824745
   4121,           0.,  0.880050361
   4122,  0.172077224,  0.880824745
   4123,    0.3441405,  0.883147717
   4124,  0.516175926,  0.887019157
   4125,  0.688169539,  0.892438769
   4126,  0.860107362,  0.899406075
   4127,   1.03197563,   0.90792048
   4128,   1.20376015,  0.917981327
   4129,   1.37544727,  0.929587841
   4130,   1.54702294,  0.942739069
   4131,   1.71847332,  0.957433879
   4132,   1.88978457,  0.973671198
   4133,   2.06094265,  0.991449594
   4134,   2.23193383,    1.0107677
   4135,   2.40274429,   1.03162384
   4136,   2.57335997,   1.05401647
   4137,  -2.38121653,   1.20157325
   4138,   -2.5503037,   1.22376525
   4139,  -2.21193647,   1.18090391
   4140,  -2.04247737,   1.16175902
   4141,   -1.8728528,   1.14413989
   4142,  -1.70307648,   1.12804806
   4143,  -1.53316224,   1.11348486
   4144,  -1.36312377,   1.10045159
   4145,  -1.19297493,   1.08894897
   4146,  -1.02272952,    1.0789783
   4147, -0.852401137,   1.07054019
   4148, -0.682003796,   1.06363523
   4149, -0.511551201,   1.05826426
   4150, -0.341057152,    1.0544275
   4151, -0.170535475,   1.05212533
   4152,           0.,   1.05135787
   4153,  0.170535475,   1.05212533
   4154,  0.341057152,    1.0544275
   4155,  0.511551201,   1.05826426
   4156,  0.682003796,   1.06363523
   4157,  0.852401137,   1.07054019
   4158,   1.02272952,    1.0789783
   4159,   1.19297493,   1.08894897
   4160,   1.36312377,   1.10045159
   4161,   1.53316224,   1.11348486
   4162,   1.70307648,   1.12804806
   4163,    1.8728528,   1.14413989
   4164,   2.04247737,   1.16175902
   4165,   2.21193647,   1.18090391
   4166,   2.38121653,   1.20157325
   4167,    2.5503037,   1.22376525
   4168,  -2.35988164,   1.37000012
   4169,   -2.4823668,   1.72394085
   4170,  -2.19211841,   1.34951591
   4171,  -1.98806834,   1.66358638
   4172,  -1.85607266,   1.31308126
   4173,  -1.68781757,   1.29713368
   4174,  -1.49232066,   1.61659825
   4175,  -1.35091066,   1.26978433
   4176,  -1.18228638,   1.25838482
   4177, -0.995485187,   1.58301079
   4178, -0.844763935,   1.24014091
   4179, -0.675893307,   1.23329794
   4180, -0.497924089,   1.56284857
   4181,   -0.3380014,   1.22417259
   4182,  -0.16900754,   1.22189105
   4183,           0.,   1.55612612
   4184,   0.16900754,   1.22189105
   4185,    0.3380014,   1.22417259
   4186,  0.497924089,   1.56284857
   4187,  0.675893307,   1.23329794
   4188,  0.844763935,   1.24014091
   4189,  0.995485187,   1.58301079
   4190,   1.18228638,   1.25838482
   4191,   1.35091066,   1.26978433
   4192,   1.49232066,   1.61659825
   4193,   1.68781757,   1.29713368
   4194,   1.85607266,   1.31308126
   4195,   1.98806834,   1.66358638
   4196,   2.19211841,   1.34951591
   4197,   2.35988164,   1.37000012
   4198,    2.4823668,   1.72394085
   4199,  -2.84434247,   0.38433969
   4200,  -3.22584677,   0.26186654
   4201,  -2.81885815,  0.560088575
   4202,  -3.13991427,  0.787665904
   4203,   2.84434247,   0.38433969
   4204,   3.22584677,   0.26186654
   4205,   2.81885815,  0.560088575
   4206,   3.13991427,  0.787665904
   4207,  -2.76857257,  0.906876504
   4208,  -2.74376726,   1.07794368
   4209,  -3.05627084,   1.29945862
   4210,   2.76857257,  0.906876504
   4211,   2.74376726,   1.07794368
   4212,   3.05627084,   1.29945862
   4213,  -2.97485566,   1.79761779
   4214,   2.97485566,   1.79761779
   4215,         -20.,          20.
   4216,  -19.9964714,   19.6243439
   4217,  -19.4637909,   19.6343498
   4218,  -19.4672241,          20.
   4219,  -19.9858875,   19.2488194
   4220,  -19.4534893,   19.2688293
   4221,  -19.9682522,     18.87356
   4222,  -19.4363232,   18.9035664
   4223,   -19.943573,   18.4986973
   4224,  -19.4123001,   18.5386906
   4225,  -19.9118557,   18.1243649
   4226,  -19.3814278,   18.1743298
   4227,  -19.8731136,   17.7506943
   4228,  -19.3437176,   17.8106136
   4229,  -19.8273582,   17.3778172
   4230,  -19.2991829,     17.44767
   4231,  -19.7746086,    17.005867
   4232,   -19.247839,   17.0856266
   4233,  -19.7148819,   16.6349716
   4234,   -19.189703,   16.7246113
   4235,  -19.6481991,   16.2652626
   4236,  -19.1247959,   16.3647518
   4237,   -19.574585,   15.8968725
   4238,  -19.0531425,    16.006176
   4239,  -19.4940624,   15.5299301
   4240,  -18.9747658,   15.6490078
   4241,  -19.4066639,   15.1645651
   4242,  -18.8896942,    15.293375
   4243,  -19.3124161,   14.8009052
   4244,  -18.7979565,   14.9394026
   4245,  -19.2113552,   14.4390802
   4246,  -18.6995888,   14.5872164
   4247,  -19.1035156,   14.0792179
   4248,  -18.5946217,   14.2369404
   4249,  -18.9889374,   13.7214441
   4250,  -18.4830952,   13.8886967
   4251,  -18.8676586,   13.3658848
   4252,  -18.3650475,   13.5426092
   4253,  -18.7397213,   13.0126667
   4254,  -18.2405186,    13.198801
   4255,  -18.6051731,   12.6619148
   4256,  -18.1095562,   12.8573923
   4257,  -18.4640617,   12.3137512
   4258,  -17.9722023,   12.5185032
   4259,  -18.3164349,   11.9682989
   4260,  -17.8285084,   12.1822538
   4261,  -18.1623459,   11.6256809
   4262,  -17.6785221,   11.8487625
   4263,  -18.0018482,   11.2860184
   4264,  -17.5223007,   11.5181475
   4265,  -17.8349991,   10.9494295
   4266,  -17.3598957,   11.1905251
   4267,  -17.6618576,   10.6160336
   4268,  -17.1913662,   10.8660116
   4269,  -17.4824829,   10.2859497
   4270,  -17.0167713,   10.5447197
   4271,  -17.2969418,   9.95929241
   4272,  -16.8361721,   10.2267647
   4273,  -17.1052971,   9.63617802
   4274,  -16.6496334,   9.91225719
   4275,  -16.9076176,   9.31672001
   4276,  -16.4572201,   9.60130978
   4277,  -16.7039719,   9.00103188
   4278,  -16.2589989,   9.29403019
   4279,  -16.4944344,   8.68922424
   4280,  -16.0550423,   8.99052906
   4281,  -16.2790756,   8.38140678
   4282,  -15.8454208,   8.69091129
   4283,  -16.0579739,   8.07768917
   4284,   -15.630209,   8.39528465
   4285,  -15.8312054,   7.77817774
   4286,   -15.409482,   8.10375214
   4287,  -15.5988522,   7.48297882
   4288,  -15.1833181,   7.81641674
   4289,  -15.3609943,   7.19219637
   4290,  -14.9517965,   7.53338003
   4291,  -15.1177177,   6.90593243
   4292,  -14.7150011,   7.25474215
   4293,  -14.8691072,   6.62428856
   4294,  -14.4730129,   6.98060083
   4295,  -14.6152496,   6.34736395
   4296,  -14.2259178,   6.71105337
   4297,  -14.3562365,   6.07525682
   4298,  -13.9738045,   6.44619465
   4299,  -14.0921574,   5.80806208
   4300,  -13.7167597,   6.18611765
   4301,  -13.8231068,   5.54587507
   4302,  -13.4548759,   5.93091488
   4303,  -13.5491781,   5.28878736
   4304,  -13.1882448,   5.68067598
   4305,  -13.2704697,   5.03689051
   4306,  -12.9169607,   5.43548918
   4307,  -12.9870787,   4.79027319
   4308,   -12.641119,   5.19544125
   4309,  -12.6991053,    4.5490222
   4310,   -12.360817,   4.96061707
   4311,  -12.4066515,   4.31322241
   4312,  -12.0761538,   4.73109865
   4313,  -12.1098213,   4.08295774
   4314,  -11.7872305,   4.50696802
   4315,  -11.8087168,   3.85830879
   4316,  -11.4941473,   4.28830338
   4317,  -11.5034475,   3.63935494
   4318,  -11.1970091,   4.07518244
   4319,  -11.1941185,   3.42617369
   4320,  -10.8959208,   3.86767983
   4321,  -10.8808393,   3.21884012
   4322,  -10.5909882,   3.66586947
   4323,  -10.5637226,   3.01742744
   4324,  -10.2823181,   3.46982217
   4325,   -10.242878,    2.8220067
   4326,  -9.97002029,   3.27960706
   4327,  -9.91841888,   2.63264656
   4328,  -9.65420437,   3.09529138
   4329,  -9.59046078,   2.44941425
   4330,  -9.33498287,   2.91694021
   4331,  -9.25911903,   2.27237439
   4332,  -9.01246738,   2.74461627
   4333,  -8.92451096,    2.1015892
   4334,  -8.68677235,   2.57838058
   4335,  -8.58675289,   1.93711889
   4336,   -8.3580122,   2.41829157
   4337,  -8.24596596,   1.77902174
   4338,  -8.02630329,   2.26440597
   4339,  -7.90226936,   1.62735355
   4340,  -7.69176245,    2.1167779
   4341,   -7.5557847,    1.4821676
   4342,  -7.35450792,   1.97545958
   4343,  -7.20663404,   1.34351516
   4344,  -7.01465845,   1.84050083
   4345,  -6.85494089,   1.21144533
   4346,  -6.67233372,   1.71194911
   4347,  -6.50082922,   1.08600461
   4348,  -6.32765484,   1.58984995
   4349,  -6.14442348,  0.967237234
   4350,  -5.98074389,   1.47424638
   4351,  -5.78585005,  0.855185091
   4352,  -5.63172245,   1.36517918
   4353,  -5.42523527,  0.749887764
   4354,  -5.28071356,   1.26268685
   4355,  -5.06270647,  0.651382327
   4356,  -4.92784214,   1.16680551
   4357,  -4.69839096,  0.559703648
   4358,   -4.5732317,   1.07756901
   4359,  -4.33241796,  0.474884033
   4360,  -4.21700764,  0.995008886
   4361,  -3.96491647,  0.396953374
   4362,  -3.85929608,  0.919154227
   4363,  -3.59601617,  0.325939208
   4364,  -3.50022268,  0.850031734
   4365,  -18.9452991,   19.6440907
   4366,  -18.9486427,          20.
   4367,  -18.9352722,   19.2883072
   4368,  -18.9185638,   18.9327736
   4369,  -18.8951817,   18.5776176
   4370,  -18.8651314,   18.2229633
   4371,  -18.8284264,   17.8689365
   4372,  -18.7850761,   17.5156612
   4373,  -18.7350998,   17.1632614
   4374,  -18.6785126,   16.8118629
   4375,  -18.6153355,   16.4615898
   4376,  -18.5455894,    16.112566
   4377,  -18.4693012,   15.7649126
   4378,  -18.3864956,   15.4187536
   4379,  -18.2972031,   15.0742111
   4380,  -18.2014542,   14.7314062
   4381,  -18.0992851,    14.390461
   4382,  -17.9907284,   14.0514946
   4383,  -17.8758259,   13.7146263
   4384,  -17.7546139,   13.3799763
   4385,    -17.62714,   13.0476618
   4386,  -17.4934444,   12.7178011
   4387,  -17.3535786,   12.3905087
   4388,  -17.2075882,   12.0659018
   4389,  -17.0555286,   11.7440939
   4390,  -16.8974495,   11.4251986
   4391,  -16.7334099,   11.1093292
   4392,  -16.5634651,   10.7965965
   4393,  -16.3876781,   10.4871111
   4394,  -16.2061081,   10.1809826
   4395,  -16.0188198,   9.87831783
   4396,  -15.8258801,   9.57922459
   4397,  -15.6273556,   9.28380775
   4398,  -15.4233189,   8.99217129
   4399,  -15.2138395,   8.70442009
   4400,   -14.998992,   8.42065334
   4401,  -14.7788534,   8.14097214
   4402,  -14.5534992,   7.86547565
   4403,  -14.3230114,   7.59425974
   4404,  -14.0874691,   7.32742167
   4405,  -13.8469572,   7.06505442
   4406,  -13.6015596,   6.80725098
   4407,  -13.3513622,   6.55410242
   4408,  -13.0964546,   6.30569792
   4409,  -12.8369265,   6.06212521
   4410,  -12.5728693,   5.82346964
   4411,  -12.3043756,   5.58981657
   4412,  -12.0315399,   5.36124754
   4413,  -11.7544603,   5.13784313
   4414,  -11.4732332,   4.91968298
   4415,  -11.1879578,   4.70684338
   4416,   -10.898735,   4.49939966
   4417,  -10.6056671,   4.29742479
   4418,   -10.308857,    4.1009903
   4419,  -10.0084095,   3.91016555
   4420,  -9.70443153,   3.72501755
   4421,  -9.39702892,   3.54561186
   4422,  -9.08631039,   3.37201166
   4423,  -8.77238655,   3.20427823
   4424,  -8.45536804,   3.04247093
   4425,  -8.13536549,   2.88664651
   4426,  -7.81249285,   2.73686028
   4427,  -7.48686361,   2.59316492
   4428,  -7.15859318,   2.45561099
   4429,  -6.82779646,   2.32424736
   4430,  -6.49459124,   2.19912004
   4431,  -6.15909433,   2.08027339
   4432,  -5.82142401,   1.96774948
   4433,  -5.48169994,   1.86158764
   4434,   -5.1400423,   1.76182556
   4435,   -4.7965703,    1.6684984
   4436,  -4.45140648,   1.58163905
   4437,  -4.10467196,   1.50127828
   4438,  -3.75648928,   1.42744422
   4439,  -3.40698099,   1.36016309
   4440,  -18.4406204,   19.6535721
   4441,  -18.4438744,          20.
   4442,  -18.4308605,   19.3072662
   4443,  -18.4145966,   18.9612026
   4444,  -18.3918362,    18.615509
   4445,   -18.362587,   18.2703018
   4446,  -18.3268604,    17.925705
   4447,  -18.2846661,   17.5818405
   4448,  -18.2360191,   17.2388287
   4449,  -18.1809406,   16.8967915
   4450,  -18.1194458,   16.5558491
   4451,  -18.0515575,   16.2161217
   4452,  -17.9773006,   15.8777294
   4453,  -17.8967018,   15.5407925
   4454,  -17.8097878,   15.2054281
   4455,  -17.7165909,   14.8717556
   4456,  -17.6171417,   14.5398922
   4457,  -17.5114784,   14.2099552
   4458,  -17.3996353,    13.882061
   4459,  -17.2816525,   13.5563259
   4460,  -17.1575737,   13.2328634
   4461,   -17.027441,   12.9117899
   4462,  -16.8913002,   12.5932159
   4463,  -16.7492008,    12.277256
   4464,  -16.6011906,   11.9640207
   4465,  -16.4473228,   11.6536207
   4466,   -16.287653,   11.3461657
   4467,  -16.1222363,   11.0417643
   4468,  -15.9511309,   10.7405224
   4469,  -15.7743969,   10.4425488
   4470,  -15.5920982,   10.1479464
   4471,  -15.4042978,   9.85682106
   4472,  -15.2110624,   9.56927395
   4473,  -15.0124607,   9.28540611
   4474,  -14.8085613,    9.0053196
   4475,  -14.5994377,   8.72911263
   4476,  -14.3851624,   8.45688248
   4477,  -14.1658125,   8.18872452
   4478,  -13.9414644,   7.92473364
   4479,  -13.7121964,    7.6650033
   4480,  -13.4780912,   7.40962553
   4481,  -13.2392302,    7.1586895
   4482,  -12.9956989,   6.91228437
   4483,  -12.7475815,   6.67049694
   4484,  -12.4949665,   6.43341255
   4485,  -12.2379436,   6.20111513
   4486,  -11.9766016,   5.97368574
   4487,  -11.7110348,   5.75120544
   4488,  -11.4413357,   5.53375292
   4489,  -11.1676006,   5.32140398
   4490,   -10.889924,   5.11423397
   4491,  -10.6084061,   4.91231632
   4492,  -10.3231449,   4.71572208
   4493,  -10.0342417,    4.5245204
   4494,   -9.7417984,    4.3387785
   4495,  -9.44591713,   4.15856266
   4496,  -9.14670372,   3.98393631
   4497,  -8.84426308,   3.81496072
   4498,  -8.53870106,   3.65169549
   4499,  -8.23012733,   3.49419832
   4500,   -7.9186492,   3.34252501
   4501,  -7.60437775,   3.19672894
   4502,  -7.28742313,    3.0568614
   4503,  -6.96789694,   2.92297173
   4504,  -6.64591265,   2.79510736
   4505,  -6.32158327,   2.67331338
   4506,  -5.99502373,   2.55763268
   4507,  -5.66634846,   2.44810629
   4508,  -5.33567429,   2.34477234
   4509,  -5.00311756,   2.24766803
   4510,  -4.66879559,   2.15682697
   4511,  -4.33282661,   2.07228136
   4512,  -3.99532866,   1.99406123
   4513,  -3.65642095,   1.92219412
   4514,  -3.31622338,   1.85670519
   4515,   3.59601617,  0.325939208
   4516,   3.50022268,  0.850031734
   4517,   3.96491647,  0.396953374
   4518,   3.85929608,  0.919154227
   4519,   4.33241796,  0.474884033
   4520,   4.21700764,  0.995008886
   4521,   4.69839096,  0.559703648
   4522,    4.5732317,   1.07756901
   4523,   5.06270647,  0.651382327
   4524,   4.92784214,   1.16680551
   4525,   5.42523527,  0.749887764
   4526,   5.28071356,   1.26268685
   4527,   5.78585005,  0.855185091
   4528,   5.63172245,   1.36517918
   4529,   6.14442348,  0.967237234
   4530,   5.98074389,   1.47424638
   4531,   6.50082922,   1.08600461
   4532,   6.32765484,   1.58984995
   4533,   6.85494089,   1.21144533
   4534,   6.67233372,   1.71194911
   4535,   7.20663404,   1.34351516
   4536,   7.01465845,   1.84050083
   4537,    7.5557847,    1.4821676
   4538,   7.35450792,   1.97545958
   4539,   7.90226936,   1.62735355
   4540,   7.69176245,    2.1167779
   4541,   8.24596596,   1.77902174
   4542,   8.02630329,   2.26440597
   4543,   8.58675289,   1.93711889
   4544,    8.3580122,   2.41829157
   4545,   8.92451096,    2.1015892
   4546,   8.68677235,   2.57838058
   4547,   9.25911903,   2.27237439
   4548,   9.01246738,   2.74461627
   4549,   9.59046078,   2.44941425
   4550,   9.33498287,   2.91694021
   4551,   9.91841888,   2.63264656
   4552,   9.65420437,   3.09529138
   4553,    10.242878,    2.8220067
   4554,   9.97002029,   3.27960706
   4555,   10.5637226,   3.01742744
   4556,   10.2823181,   3.46982217
   4557,   10.8808393,   3.21884012
   4558,   10.5909882,   3.66586947
   4559,   11.1941185,   3.42617369
   4560,   10.8959208,   3.86767983
   4561,   11.5034475,   3.63935494
   4562,   11.1970091,   4.07518244
   4563,   11.8087168,   3.85830879
   4564,   11.4941473,   4.28830338
   4565,   12.1098213,   4.08295774
   4566,   11.7872305,   4.50696802
   4567,   12.4066515,   4.31322241
   4568,   12.0761538,   4.73109865
   4569,   12.6991053,    4.5490222
   4570,    12.360817,   4.96061707
   4571,   12.9870787,   4.79027319
   4572,    12.641119,   5.19544125
   4573,   13.2704697,   5.03689051
   4574,   12.9169607,   5.43548918
   4575,   13.5491781,   5.28878736
   4576,   13.1882448,   5.68067598
   4577,   13.8231068,   5.54587507
   4578,   13.4548759,   5.93091488
   4579,   14.0921574,   5.80806208
   4580,   13.7167597,   6.18611765
   4581,   14.3562365,   6.07525682
   4582,   13.9738045,   6.44619465
   4583,   14.6152496,   6.34736395
   4584,   14.2259178,   6.71105337
   4585,   14.8691072,   6.62428856
   4586,   14.4730129,   6.98060083
   4587,   15.1177177,   6.90593243
   4588,   14.7150011,   7.25474215
   4589,   15.3609943,   7.19219637
   4590,   14.9517965,   7.53338003
   4591,   15.5988522,   7.48297882
   4592,   15.1833181,   7.81641674
   4593,   15.8312054,   7.77817774
   4594,    15.409482,   8.10375214
   4595,   16.0579739,   8.07768917
   4596,    15.630209,   8.39528465
   4597,   16.2790756,   8.38140678
   4598,   15.8454208,   8.69091129
   4599,   16.4944344,   8.68922424
   4600,   16.0550423,   8.99052906
   4601,   16.7039719,   9.00103188
   4602,   16.2589989,   9.29403019
   4603,   16.9076176,   9.31672001
   4604,   16.4572201,   9.60130978
   4605,   17.1052971,   9.63617802
   4606,   16.6496334,   9.91225719
   4607,   17.2969418,   9.95929241
   4608,   16.8361721,   10.2267647
   4609,   17.4824829,   10.2859497
   4610,   17.0167713,   10.5447197
   4611,   17.6618576,   10.6160336
   4612,   17.1913662,   10.8660116
   4613,   17.8349991,   10.9494295
   4614,   17.3598957,   11.1905251
   4615,   18.0018482,   11.2860184
   4616,   17.5223007,   11.5181475
   4617,   18.1623459,   11.6256809
   4618,   17.6785221,   11.8487625
   4619,   18.3164349,   11.9682989
   4620,   17.8285084,   12.1822538
   4621,   18.4640617,   12.3137512
   4622,   17.9722023,   12.5185032
   4623,   18.6051731,   12.6619148
   4624,   18.1095562,   12.8573923
   4625,   18.7397213,   13.0126667
   4626,   18.2405186,    13.198801
   4627,   18.8676586,   13.3658848
   4628,   18.3650475,   13.5426092
   4629,   18.9889374,   13.7214441
   4630,   18.4830952,   13.8886967
   4631,   19.1035156,   14.0792179
   4632,   18.5946217,   14.2369404
   4633,   19.2113552,   14.4390802
   4634,   18.6995888,   14.5872164
   4635,   19.3124161,   14.8009052
   4636,   18.7979565,   14.9394026
   4637,   19.4066639,   15.1645651
   4638,   18.8896942,    15.293375
   4639,   19.4940624,   15.5299301
   4640,   18.9747658,   15.6490078
   4641,    19.574585,   15.8968725
   4642,   19.0531425,    16.006176
   4643,   19.6481991,   16.2652626
   4644,   19.1247959,   16.3647518
   4645,   19.7148819,   16.6349716
   4646,    19.189703,   16.7246113
   4647,   19.7746086,    17.005867
   4648,    19.247839,   17.0856266
   4649,   19.8273582,   17.3778172
   4650,   19.2991829,     17.44767
   4651,   19.8731136,   17.7506943
   4652,   19.3437176,   17.8106136
   4653,   19.9118557,   18.1243649
   4654,   19.3814278,   18.1743298
   4655,    19.943573,   18.4986973
   4656,   19.4123001,   18.5386906
   4657,   19.9682522,     18.87356
   4658,   19.4363232,   18.9035664
   4659,   19.9858875,   19.2488194
   4660,   19.4534893,   19.2688293
   4661,   19.9964714,   19.6243439
   4662,   19.4637909,   19.6343498
   4663,          20.,          20.
   4664,   19.4672241,          20.
   4665,   3.40698099,   1.36016309
   4666,   3.75648928,   1.42744422
   4667,   4.10467196,   1.50127828
   4668,   4.45140648,   1.58163905
   4669,    4.7965703,    1.6684984
   4670,    5.1400423,   1.76182556
   4671,   5.48169994,   1.86158764
   4672,   5.82142401,   1.96774948
   4673,   6.15909433,   2.08027339
   4674,   6.49459124,   2.19912004
   4675,   6.82779646,   2.32424736
   4676,   7.15859318,   2.45561099
   4677,   7.48686361,   2.59316492
   4678,   7.81249285,   2.73686028
   4679,   8.13536549,   2.88664651
   4680,   8.45536804,   3.04247093
   4681,   8.77238655,   3.20427823
   4682,   9.08631039,   3.37201166
   4683,   9.39702892,   3.54561186
   4684,   9.70443153,   3.72501755
   4685,   10.0084095,   3.91016555
   4686,    10.308857,    4.1009903
   4687,   10.6056671,   4.29742479
   4688,    10.898735,   4.49939966
   4689,   11.1879578,   4.70684338
   4690,   11.4732332,   4.91968298
   4691,   11.7544603,   5.13784313
   4692,   12.0315399,   5.36124754
   4693,   12.3043756,   5.58981657
   4694,   12.5728693,   5.82346964
   4695,   12.8369265,   6.06212521
   4696,   13.0964546,   6.30569792
   4697,   13.3513622,   6.55410242
   4698,   13.6015596,   6.80725098
   4699,   13.8469572,   7.06505442
   4700,   14.0874691,   7.32742167
   4701,   14.3230114,   7.59425974
   4702,   14.5534992,   7.86547565
   4703,   14.7788534,   8.14097214
   4704,    14.998992,   8.42065334
   4705,   15.2138395,   8.70442009
   4706,   15.4233189,   8.99217129
   4707,   15.6273556,   9.28380775
   4708,   15.8258801,   9.57922459
   4709,   16.0188198,   9.87831783
   4710,   16.2061081,   10.1809826
   4711,   16.3876781,   10.4871111
   4712,   16.5634651,   10.7965965
   4713,   16.7334099,   11.1093292
   4714,   16.8974495,   11.4251986
   4715,   17.0555286,   11.7440939
   4716,   17.2075882,   12.0659018
   4717,   17.3535786,   12.3905087
   4718,   17.4934444,   12.7178011
   4719,     17.62714,   13.0476618
   4720,   17.7546139,   13.3799763
   4721,   17.8758259,   13.7146263
   4722,   17.9907284,   14.0514946
   4723,   18.0992851,    14.390461
   4724,   18.2014542,   14.7314062
   4725,   18.2972031,   15.0742111
   4726,   18.3864956,   15.4187536
   4727,   18.4693012,   15.7649126
   4728,   18.5455894,    16.112566
   4729,   18.6153355,   16.4615898
   4730,   18.6785126,   16.8118629
   4731,   18.7350998,   17.1632614
   4732,   18.7850761,   17.5156612
   4733,   18.8284264,   17.8689365
   4734,   18.8651314,   18.2229633
   4735,   18.8951817,   18.5776176
   4736,   18.9185638,   18.9327736
   4737,   18.9352722,   19.2883072
   4738,   18.9452991,   19.6440907
   4739,   18.9486427,          20.
   4740,   3.31622338,   1.85670519
   4741,   3.65642095,   1.92219412
   4742,   3.99532866,   1.99406123
   4743,   4.33282661,   2.07228136
   4744,   4.66879559,   2.15682697
   4745,   5.00311756,   2.24766803
   4746,   5.33567429,   2.34477234
   4747,   5.66634846,   2.44810629
   4748,   5.99502373,   2.55763268
   4749,   6.32158327,   2.67331338
   4750,   6.64591265,   2.79510736
   4751,   6.96789694,   2.92297173
   4752,   7.28742313,    3.0568614
   4753,   7.60437775,   3.19672894
   4754,    7.9186492,   3.34252501
   4755,   8.23012733,   3.49419832
   4756,   8.53870106,   3.65169549
   4757,   8.84426308,   3.81496072
   4758,   9.14670372,   3.98393631
   4759,   9.44591713,   4.15856266
   4760,    9.7417984,    4.3387785
   4761,   10.0342417,    4.5245204
   4762,   10.3231449,   4.71572208
   4763,   10.6084061,   4.91231632
   4764,    10.889924,   5.11423397
   4765,   11.1676006,   5.32140398
   4766,   11.4413357,   5.53375292
   4767,   11.7110348,   5.75120544
   4768,   11.9766016,   5.97368574
   4769,   12.2379436,   6.20111513
   4770,   12.4949665,   6.43341255
   4771,   12.7475815,   6.67049694
   4772,   12.9956989,   6.91228437
   4773,   13.2392302,    7.1586895
   4774,   13.4780912,   7.40962553
   4775,   13.7121964,    7.6650033
   4776,   13.9414644,   7.92473364
   4777,   14.1658125,   8.18872452
   4778,   14.3851624,   8.45688248
   4779,   14.5994377,   8.72911263
   4780,   14.8085613,    9.0053196
   4781,   15.0124607,   9.28540611
   4782,   15.2110624,   9.56927395
   4783,   15.4042978,   9.85682106
   4784,   15.5920982,   10.1479464
   4785,   15.7743969,   10.4425488
   4786,   15.9511309,   10.7405224
   4787,   16.1222363,   11.0417643
   4788,    16.287653,   11.3461657
   4789,   16.4473228,   11.6536207
   4790,   16.6011906,   11.9640207
   4791,   16.7492008,    12.277256
   4792,   16.8913002,   12.5932159
   4793,    17.027441,   12.9117899
   4794,   17.1575737,   13.2328634
   4795,   17.2816525,   13.5563259
   4796,   17.3996353,    13.882061
   4797,   17.5114784,   14.2099552
   4798,   17.6171417,   14.5398922
   4799,   17.7165909,   14.8717556
   4800,   17.8097878,   15.2054281
   4801,   17.8967018,   15.5407925
   4802,   17.9773006,   15.8777294
   4803,   18.0515575,   16.2161217
   4804,   18.1194458,   16.5558491
   4805,   18.1809406,   16.8967915
   4806,   18.2360191,   17.2388287
   4807,   18.2846661,   17.5818405
   4808,   18.3268604,    17.925705
   4809,    18.362587,   18.2703018
   4810,   18.3918362,    18.615509
   4811,   18.4145966,   18.9612026
   4812,   18.4308605,   19.3072662
   4813,   18.4406204,   19.6535721
   4814,   18.4438744,          20.
   4815,  -18.0863857,   19.6565552
   4816,  -18.0896454,          20.
   4817,  -18.0766048,   19.3132362
   4818,  -18.0603085,   18.9701633
   4819,  -18.0375004,   18.6274605
   4820,  -18.0081902,   18.2852535
   4821,  -17.9723892,   17.9436665
   4822,   -17.930109,   17.6028194
   4823,  -17.8813648,   17.2628345
   4824,  -17.8261757,   16.9238396
   4825,  -17.7645588,   16.5859509
   4826,  -17.6965389,   16.2492943
   4827,   -17.622139,     15.91399
   4828,  -17.5413876,   15.5801582
   4829,  -17.4543133,     15.24792
   4830,  -17.3609447,   14.9173946
   4831,  -17.2613182,   14.5887012
   4832,  -17.1554699,   14.2619591
   4833,   -17.043438,   13.9372845
   4834,  -16.9252605,   13.6147966
   4835,  -16.8009834,     13.29461
   4836,  -16.6706486,     12.97684
   4837,  -16.5343037,    12.661603
   4838,  -16.3920002,   12.3490105
   4839,  -16.2437859,    12.039176
   4840,   -16.089716,   11.7322121
   4841,  -15.9298468,   11.4282284
   4842,  -15.7642345,   11.1273346
   4843,  -15.5929394,   10.8296385
   4844,  -15.4160233,   10.5352488
   4845,  -15.2335501,   10.2442713
   4846,  -15.0455856,   9.95681095
   4847,  -14.8521967,   9.67297077
   4848,  -14.6534538,   9.39285278
   4849,  -14.4494286,   9.11655903
   4850,  -14.2401953,   8.84418869
   4851,  -14.0258274,   8.57583904
   4852,  -13.8064041,   8.31160831
   4853,  -13.5820036,   8.05159187
   4854,  -13.3527069,   7.79588175
   4855,   -13.118597,    7.5445714
   4856,  -12.8797579,   7.29775095
   4857,  -12.6362753,   7.05550957
   4858,   -12.388238,   6.81793451
   4859,  -12.1357346,   6.58511114
   4860,  -11.8788567,   6.35712433
   4861,  -11.6176958,   6.13405514
   4862,  -11.3523474,   5.91598463
   4863,  -11.0829067,   5.70299101
   4864,  -10.8094711,   5.49515152
   4865,  -10.5321379,   5.29254103
   4866,   -10.251009,   5.09523201
   4867,  -9.96618366,   4.90329599
   4868,   -9.6777668,    4.7168026
   4869,  -9.38586044,   4.53581858
   4870,  -9.09057045,   4.36040878
   4871,  -8.79200363,   4.19063711
   4872,  -8.49026775,    4.0265646
   4873,  -8.18547153,   3.86825013
   4874,  -7.87772369,   3.71575117
   4875,  -7.56713629,   3.56912231
   4876,   -7.2538209,   3.42841673
   4877,  -6.93789053,   3.29368496
   4878,  -6.61945963,   3.16497564
   4879,  -6.29864216,   3.04233503
   4880,  -5.97555399,   2.92580771
   4881,  -5.65031195,   2.81543517
   4882,  -5.32303286,    2.7112577
   4883,  -4.99383497,   2.61331248
   4884,  -4.66283703,   2.52163506
   4885,  -4.33015776,   2.43625832
   4886,  -3.99591804,   2.35721302
   4887,  -3.66023755,   2.28452802
   4888,  -3.32323742,   2.21822882
   4889,  -2.98503947,   2.15833998
   4890,  -2.64576554,   2.10488296
   4891,  -2.20722818,   2.04551768
   4892,  -1.76736975,    1.9968977
   4893,  -1.32645369,   1.95905185
   4894,  -0.88474369,    1.9320029
   4895, -0.442504257,   1.91576707
   4896,           0.,   1.91035402
   4897,  0.442504257,   1.91576707
   4898,   0.88474369,    1.9320029
   4899,   1.32645369,   1.95905185
   4900,   1.76736975,    1.9968977
   4901,   2.20722818,   2.04551768
   4902,   2.64576554,   2.10488296
   4903,   2.98503947,   2.15833998
   4904,   3.32323742,   2.21822882
   4905,   3.66023755,   2.28452802
   4906,   3.99591804,   2.35721302
   4907,   4.33015776,   2.43625832
   4908,   4.66283703,   2.52163506
   4909,   4.99383497,   2.61331248
   4910,   5.32303286,    2.7112577
   4911,   5.65031195,   2.81543517
   4912,   5.97555399,   2.92580771
   4913,   6.29864216,   3.04233503
   4914,   6.61945963,   3.16497564
   4915,   6.93789053,   3.29368496
   4916,    7.2538209,   3.42841673
   4917,   7.56713629,   3.56912231
   4918,   7.87772369,   3.71575117
   4919,   8.18547153,   3.86825013
   4920,   8.49026775,    4.0265646
   4921,   8.79200363,   4.19063711
   4922,   9.09057045,   4.36040878
   4923,   9.38586044,   4.53581858
   4924,    9.6777668,    4.7168026
   4925,   9.96618366,   4.90329599
   4926,    10.251009,   5.09523201
   4927,   10.5321379,   5.29254103
   4928,   10.8094711,   5.49515152
   4929,   11.0829067,   5.70299101
   4930,   11.3523474,   5.91598463
   4931,   11.6176958,   6.13405514
   4932,   11.8788567,   6.35712433
   4933,   12.1357346,   6.58511114
   4934,    12.388238,   6.81793451
   4935,   12.6362753,   7.05550957
   4936,   12.8797579,   7.29775095
   4937,    13.118597,    7.5445714
   4938,   13.3527069,   7.79588175
   4939,   13.5820036,   8.05159187
   4940,   13.8064041,   8.31160831
   4941,   14.0258274,   8.57583904
   4942,   14.2401953,   8.84418869
   4943,   14.4494286,   9.11655903
   4944,   14.6534538,   9.39285278
   4945,   14.8521967,   9.67297077
   4946,   15.0455856,   9.95681095
   4947,   15.2335501,   10.2442713
   4948,   15.4160233,   10.5352488
   4949,   15.5929394,   10.8296385
   4950,   15.7642345,   11.1273346
   4951,   15.9298468,   11.4282284
   4952,    16.089716,   11.7322121
   4953,   16.2437859,    12.039176
   4954,   16.3920002,   12.3490105
   4955,   16.5343037,    12.661603
   4956,   16.6706486,     12.97684
   4957,   16.8009834,     13.29461
   4958,   16.9252605,   13.6147966
   4959,    17.043438,   13.9372845
   4960,   17.1554699,   14.2619591
   4961,   17.2613182,   14.5887012
   4962,   17.3609447,   14.9173946
   4963,   17.4543133,     15.24792
   4964,   17.5413876,   15.5801582
   4965,    17.622139,     15.91399
   4966,   17.6965389,   16.2492943
   4967,   17.7645588,   16.5859509
   4968,   17.8261757,   16.9238396
   4969,   17.8813648,   17.2628345
   4970,    17.930109,   17.6028194
   4971,   17.9723892,   17.9436665
   4972,   18.0081902,   18.2852535
   4973,   18.0375004,   18.6274605
   4974,   18.0603085,   18.9701633
   4975,   18.0766048,   19.3132362
   4976,   18.0863857,   19.6565552
   4977,   18.0896454,          20.
   4978,  -17.7389317,   19.6583538
   4979,  -17.7422218,          20.
   4980,   -17.729063,   19.3168335
   4981,  -17.7126217,   18.9755688
   4982,  -17.6896114,   18.6346817
   4983,  -17.6600399,    18.294302
   4984,  -17.6239204,   17.9545536
   4985,  -17.5812645,   17.6155663
   4986,  -17.5320911,   17.2774601
   4987,  -17.4764137,   16.9403648
   4988,   -17.414257,   16.6044044
   4989,  -17.3456421,   16.2697029
   4990,  -17.2705956,   15.9363861
   4991,  -17.1891441,   15.6045742
   4992,  -17.1013184,   15.2743931
   4993,  -17.0071507,   14.9459648
   4994,  -16.9066753,   14.6194105
   4995,  -16.7999306,   14.2948513
   4996,  -16.6869564,   13.9724073
   4997,  -16.5677948,   13.6521988
   4998,  -16.4424896,   13.3343449
   4999,  -16.3110867,   13.0189619
   5000,  -16.1736336,   12.7061682
   5001,  -16.0301838,     12.39608
   5002,  -15.8807898,   12.0888109
   5003,  -15.7255068,   11.7844753
   5004,  -15.5643921,   11.4831858
   5005,  -15.3975058,   11.1850557
   5006,  -15.2249088,   10.8901939
   5007,  -15.0466661,   10.5987101
   5008,  -14.8628445,   10.3107138
   5009,  -14.6735106,    10.026309
   5010,   -14.478735,   9.74560356
   5011,  -14.2785912,   9.46870136
   5012,  -14.0731516,   9.19570351
   5013,  -13.8624935,   8.92671299
   5014,  -13.6466942,   8.66182804
   5015,  -13.4258347,   8.40114784
   5016,  -13.1999969,   8.14476871
   5017,   -12.969264,    7.8927865
   5018,  -12.7337208,   7.64529419
   5019,  -12.4934568,   7.40238285
   5020,   -12.248559,   7.16414309
   5021,  -11.9991188,   6.93066359
   5022,  -11.7452297,   6.70203018
   5023,  -11.4869843,    6.4783287
   5024,  -11.2244797,   6.25964117
   5025,  -10.9578123,   6.04604864
   5026,  -10.6870823,   5.83763123
   5027,  -10.4123888,   5.63446569
   5028,  -10.1338339,   5.43662691
   5029,  -9.85152054,   5.24418879
   5030,  -9.56555462,   5.05722284
   5031,  -9.27604103,   4.87579823
   5032,  -8.98308754,   4.69998217
   5033,  -8.68680286,   4.52983952
   5034,  -8.38729763,   4.36543369
   5035,  -8.08468151,   4.20682621
   5036,  -7.77906704,   4.05407476
   5037,  -7.47056818,   3.90723681
   5038,   -7.1592989,   3.76636648
   5039,  -6.84537458,   3.63151622
   5040,  -6.52891207,   3.50273585
   5041,  -6.21002817,   3.38007331
   5042,  -5.88884163,   3.26357388
   5043,  -5.56547117,   3.15328097
   5044,  -5.24003696,   3.04923534
   5045,  -4.91265965,   2.95147538
   5046,  -4.58346033,    2.8600378
   5047,  -4.25256157,   2.77495623
   5048,  -3.92008543,   2.69626212
   5049,  -3.58615589,   2.62398505
   5050,  -3.25089645,   2.55815125
   5051,  -2.91443157,   2.49878573
   5052,   -2.5768857,   2.44590998
   5053,  -2.23838449,     2.399544
   5054,  -1.86684239,   2.35626698
   5055,   -1.4944706,   2.32083225
   5056,  -1.12143457,   2.29325557
   5057, -0.747900128,   2.27354908
   5058, -0.374033183,   2.26172185
   5059,           0.,   2.25777888
   5060,  0.374033183,   2.26172185
   5061,  0.747900128,   2.27354908
   5062,   1.12143457,   2.29325557
   5063,    1.4944706,   2.32083225
   5064,   1.86684239,   2.35626698
   5065,   2.23838449,     2.399544
   5066,    2.5768857,   2.44590998
   5067,   2.91443157,   2.49878573
   5068,   3.25089645,   2.55815125
   5069,   3.58615589,   2.62398505
   5070,   3.92008543,   2.69626212
   5071,   4.25256157,   2.77495623
   5072,   4.58346033,    2.8600378
   5073,   4.91265965,   2.95147538
   5074,   5.24003696,   3.04923534
   5075,   5.56547117,   3.15328097
   5076,   5.88884163,   3.26357388
   5077,   6.21002817,   3.38007331
   5078,   6.52891207,   3.50273585
   5079,   6.84537458,   3.63151622
   5080,    7.1592989,   3.76636648
   5081,   7.47056818,   3.90723681
   5082,   7.77906704,   4.05407476
   5083,   8.08468151,   4.20682621
   5084,   8.38729763,   4.36543369
   5085,   8.68680286,   4.52983952
   5086,   8.98308754,   4.69998217
   5087,   9.27604103,   4.87579823
   5088,   9.56555462,   5.05722284
   5089,   9.85152054,   5.24418879
   5090,   10.1338339,   5.43662691
   5091,   10.4123888,   5.63446569
   5092,   10.6870823,   5.83763123
   5093,   10.9578123,   6.04604864
   5094,   11.2244797,   6.25964117
   5095,   11.4869843,    6.4783287
   5096,   11.7452297,   6.70203018
   5097,   11.9991188,   6.93066359
   5098,    12.248559,   7.16414309
   5099,   12.4934568,   7.40238285
   5100,   12.7337208,   7.64529419
   5101,    12.969264,    7.8927865
   5102,   13.1999969,   8.14476871
   5103,   13.4258347,   8.40114784
   5104,   13.6466942,   8.66182804
   5105,   13.8624935,   8.92671299
   5106,   14.0731516,   9.19570351
   5107,   14.2785912,   9.46870136
   5108,    14.478735,   9.74560356
   5109,   14.6735106,    10.026309
   5110,   14.8628445,   10.3107138
   5111,   15.0466661,   10.5987101
   5112,   15.2249088,   10.8901939
   5113,   15.3975058,   11.1850557
   5114,   15.5643921,   11.4831858
   5115,   15.7255068,   11.7844753
   5116,   15.8807898,   12.0888109
   5117,   16.0301838,     12.39608
   5118,   16.1736336,   12.7061682
   5119,   16.3110867,   13.0189619
   5120,   16.4424896,   13.3343449
   5121,   16.5677948,   13.6521988
   5122,   16.6869564,   13.9724073
   5123,   16.7999306,   14.2948513
   5124,   16.9066753,   14.6194105
   5125,   17.0071507,   14.9459648
   5126,   17.1013184,   15.2743931
   5127,   17.1891441,   15.6045742
   5128,   17.2705956,   15.9363861
   5129,   17.3456421,   16.2697029
   5130,    17.414257,   16.6044044
   5131,   17.4764137,   16.9403648
   5132,   17.5320911,   17.2774601
   5133,   17.5812645,   17.6155663
   5134,   17.6239204,   17.9545536
   5135,   17.6600399,    18.294302
   5136,   17.6896114,   18.6346817
   5137,   17.7126217,   18.9755688
   5138,    17.729063,   19.3168335
   5139,   17.7389317,   19.6583538
   5140,   17.7422218,          20.
   5141,  -17.3981972,   19.6625614
   5142,  -17.4014683,          20.
   5143,   -17.388382,   19.3252506
   5144,  -17.3720284,   18.9881954
   5145,  -17.3491421,   18.6515179
   5146,  -17.3197308,   18.3153496
   5147,  -17.2838058,   17.9798126
   5148,  -17.2413826,   17.6450367
   5149,  -17.1924744,   17.3111458
   5150,  -17.1371021,   16.9782658
   5151,  -17.0752831,   16.6465244
   5152,  -17.0070457,   16.3160419
   5153,  -16.9324093,   15.9869452
   5154,   -16.851408,    15.659358
   5155,  -16.7640686,   15.3334026
   5156,  -16.6704254,    15.009202
   5157,  -16.5705128,   14.6868792
   5158,  -16.4643688,   14.3665543
   5159,  -16.3520317,   14.0483475
   5160,  -16.2335472,    13.732378
   5161,  -16.1089573,    13.418767
   5162,  -15.9783096,   13.1076298
   5163,  -15.8416529,   12.7990856
   5164,  -15.6990385,   12.4932489
   5165,  -15.5505209,   12.1902351
   5166,  -15.3961554,   11.8901577
   5167,  -15.2359991,   11.5931311
   5168,  -15.0701141,   11.2992659
   5169,  -14.8985615,   11.0086718
   5170,  -14.7214069,   10.7214594
   5171,  -14.5387154,   10.4377365
   5172,  -14.3505564,    10.157609
   5173,  -14.1570015,   9.88118362
   5174,  -13.9581223,   9.60856342
   5175,   -13.753994,   9.33985043
   5176,   -13.544693,   9.07514668
   5177,  -13.3302984,   8.81455135
   5178,  -13.1108913,   8.55816269
   5179,  -12.8865538,   8.30607605
   5180,  -12.6573696,   8.05838776
   5181,  -12.4234266,   7.81518936
   5182,  -12.1848106,   7.57657385
   5183,  -11.9416122,   7.34262991
   5184,   -11.693924,   7.11344624
   5185,  -11.4418373,   6.88910866
   5186,  -11.1854486,    6.6697011
   5187,  -10.9248533,   6.45530701
   5188,  -10.6601496,   6.24600649
   5189,  -10.3914366,   6.04187822
   5190,  -10.1188164,   5.84299898
   5191,  -9.84239101,   5.64944363
   5192,  -9.56226349,   5.46128464
   5193,  -9.27854061,   5.27859354
   5194,  -8.99132824,   5.10143805
   5195,  -8.70073414,   4.92988586
   5196,  -8.40686893,   4.76400042
   5197,   -8.1098423,   4.60384512
   5198,  -7.80976486,    4.4494791
   5199,  -7.50675106,   4.30096149
   5200,  -7.20091438,   4.15834761
   5201,  -6.89236975,   4.02169085
   5202,  -6.58123302,   3.89104295
   5203,  -6.26762152,   3.76645303
   5204,    -5.951653,   3.64796782
   5205,  -5.63344622,   3.53563213
   5206,  -5.31312084,   3.42948794
   5207,  -4.99079752,   3.32957506
   5208,  -4.66659737,    3.2359314
   5209,  -4.34064245,     3.148592
   5210,  -4.01305485,   3.06758976
   5211,  -3.68395829,   2.99295521
   5212,  -3.35347652,     2.924716
   5213,  -3.02173328,   2.86289835
   5214,  -2.68885398,   2.80752516
   5215,  -2.35496354,    2.7586174
   5216,  -2.02018714,   2.71619344
   5217,  -1.68465137,   2.68026924
   5218,  -1.34848201,   2.65085816
   5219,  -1.01180542,   2.62797141
   5220, -0.674748421,   2.61161757
   5221,  -0.33743766,   2.60180283
   5222,           0.,   2.59853101
   5223,   0.33743766,   2.60180283
   5224,  0.674748421,   2.61161757
   5225,   1.01180542,   2.62797141
   5226,   1.34848201,   2.65085816
   5227,   1.68465137,   2.68026924
   5228,   2.02018714,   2.71619344
   5229,   2.35496354,    2.7586174
   5230,   2.68885398,   2.80752516
   5231,   3.02173328,   2.86289835
   5232,   3.35347652,     2.924716
   5233,   3.68395829,   2.99295521
   5234,   4.01305485,   3.06758976
   5235,   4.34064245,     3.148592
   5236,   4.66659737,    3.2359314
   5237,   4.99079752,   3.32957506
   5238,   5.31312084,   3.42948794
   5239,   5.63344622,   3.53563213
   5240,     5.951653,   3.64796782
   5241,   6.26762152,   3.76645303
   5242,   6.58123302,   3.89104295
   5243,   6.89236975,   4.02169085
   5244,   7.20091438,   4.15834761
   5245,   7.50675106,   4.30096149
   5246,   7.80976486,    4.4494791
   5247,    8.1098423,   4.60384512
   5248,   8.40686893,   4.76400042
   5249,   8.70073414,   4.92988586
   5250,   8.99132824,   5.10143805
   5251,   9.27854061,   5.27859354
   5252,   9.56226349,   5.46128464
   5253,   9.84239101,   5.64944363
   5254,   10.1188164,   5.84299898
   5255,   10.3914366,   6.04187822
   5256,   10.6601496,   6.24600649
   5257,   10.9248533,   6.45530701
   5258,   11.1854486,    6.6697011
   5259,   11.4418373,   6.88910866
   5260,    11.693924,   7.11344624
   5261,   11.9416122,   7.34262991
   5262,   12.1848106,   7.57657385
   5263,   12.4234266,   7.81518936
   5264,   12.6573696,   8.05838776
   5265,   12.8865538,   8.30607605
   5266,   13.1108913,   8.55816269
   5267,   13.3302984,   8.81455135
   5268,    13.544693,   9.07514668
   5269,    13.753994,   9.33985043
   5270,   13.9581223,   9.60856342
   5271,   14.1570015,   9.88118362
   5272,   14.3505564,    10.157609
   5273,   14.5387154,   10.4377365
   5274,   14.7214069,   10.7214594
   5275,   14.8985615,   11.0086718
   5276,   15.0701141,   11.2992659
   5277,   15.2359991,   11.5931311
   5278,   15.3961554,   11.8901577
   5279,   15.5505209,   12.1902351
   5280,   15.6990385,   12.4932489
   5281,   15.8416529,   12.7990856
   5282,   15.9783096,   13.1076298
   5283,   16.1089573,    13.418767
   5284,   16.2335472,    13.732378
   5285,   16.3520317,   14.0483475
   5286,   16.4643688,   14.3665543
   5287,   16.5705128,   14.6868792
   5288,   16.6704254,    15.009202
   5289,   16.7640686,   15.3334026
   5290,    16.851408,    15.659358
   5291,   16.9324093,   15.9869452
   5292,   17.0070457,   16.3160419
   5293,   17.0752831,   16.6465244
   5294,   17.1371021,   16.9782658
   5295,   17.1924744,   17.3111458
   5296,   17.2413826,   17.6450367
   5297,   17.2838058,   17.9798126
   5298,   17.3197308,   18.3153496
   5299,   17.3491421,   18.6515179
   5300,   17.3720284,   18.9881954
   5301,    17.388382,   19.3252506
   5302,   17.3981972,   19.6625614
   5303,   17.4014683,          20.
   5304,  -17.0640526,   19.6690426
   5305,  -17.0672607,          20.
   5306,  -17.0544262,   19.3382111
   5307,  -17.0383854,   19.0076275
   5308,  -17.0159397,   18.6774158
   5309,   -16.987093,   18.3477039
   5310,  -16.9518585,   18.0186119
   5311,  -16.9102497,   17.6902657
   5312,  -16.8622818,   17.3627872
   5313,   -16.807972,   17.0363007
   5314,  -16.7473412,   16.7109299
   5315,  -16.6804123,    16.386795
   5316,  -16.6072102,   16.0640182
   5317,  -16.5277653,   15.7427225
   5318,  -16.4421024,    15.423028
   5319,  -16.3502579,   15.1050539
   5320,   -16.252264,   14.7889214
   5321,  -16.1481571,   14.4747486
   5322,  -16.0379791,    14.162653
   5323,  -15.9217701,   13.8527527
   5324,  -15.7995729,   13.5451641
   5325,  -15.6714344,   13.2400036
   5326,  -15.5374022,   12.9373846
   5327,  -15.3975267,   12.6374216
   5328,  -15.2518616,   12.3402271
   5329,   -15.100461,   12.0459137
   5330,  -14.9433813,    11.754591
   5331,  -14.7806816,   11.4663696
   5332,  -14.6124239,   11.1813564
   5333,  -14.4386711,   10.8996611
   5334,  -14.2594891,   10.6213865
   5335,  -14.0749435,   10.3466396
   5336,  -13.8851061,   10.0755224
   5337,  -13.6900463,   9.80813789
   5338,  -13.4898386,   9.54458618
   5339,  -13.2845573,   9.28496647
   5340,  -13.0742807,   9.02937603
   5341,   -12.859087,   8.77791119
   5342,  -12.6390581,   8.53066635
   5343,  -12.4142761,   8.28773499
   5344,  -12.1848249,   8.04920769
   5345,  -11.9507923,   7.81517458
   5346,   -11.712265,   7.58572388
   5347,  -11.4693336,   7.36094189
   5348,  -11.2220888,   7.14091253
   5349,   -10.970624,   6.92571926
   5350,  -10.7150335,   6.71544266
   5351,  -10.4554138,   6.51016188
   5352,  -10.1918621,   6.30995369
   5353,  -9.92447758,   6.11489439
   5354,  -9.65336037,   5.92505598
   5355,  -9.37861347,   5.74051142
   5356,  -9.10033894,   5.56132841
   5357,  -8.81864357,   5.38757563
   5358,  -8.53363037,   5.21931791
   5359,  -8.24540901,   5.05661869
   5360,   -7.9540863,   4.89953899
   5361,  -7.65977287,   4.74813843
   5362,  -7.36257887,   4.60247278
   5363,  -7.06261587,   4.46259785
   5364,  -6.75999689,    4.3285656
   5365,  -6.45483589,   4.20042706
   5366,  -6.14724731,    4.0782299
   5367,  -5.83734703,    3.9620204
   5368,  -5.52525187,   3.85184216
   5369,  -5.21107864,   3.74773645
   5370,  -4.89494562,    3.6497426
   5371,  -4.57697201,   3.55789757
   5372,  -4.25727701,   3.47223544
   5373,  -3.93598127,   3.39278889
   5374,  -3.61320519,   3.31958771
   5375,  -3.28907061,   3.25265932
   5376,  -2.96369886,   3.19202876
   5377,  -2.63721251,   3.13771915
   5378,  -2.30973458,   3.08975053
   5379,  -1.98138809,   3.04814148
   5380,  -1.65229642,   3.01290703
   5381,  -1.32258344,     2.984061
   5382,  -0.99237299,   2.96161389
   5383, -0.661789417,   2.94557405
   5384, -0.330956936,    2.9359479
   5385,           0.,   2.93273878
   5386,  0.330956936,    2.9359479
   5387,  0.661789417,   2.94557405
   5388,   0.99237299,   2.96161389
   5389,   1.32258344,     2.984061
   5390,   1.65229642,   3.01290703
   5391,   1.98138809,   3.04814148
   5392,   2.30973458,   3.08975053
   5393,   2.63721251,   3.13771915
   5394,   2.96369886,   3.19202876
   5395,   3.28907061,   3.25265932
   5396,   3.61320519,   3.31958771
   5397,   3.93598127,   3.39278889
   5398,   4.25727701,   3.47223544
   5399,   4.57697201,   3.55789757
   5400,   4.89494562,    3.6497426
   5401,   5.21107864,   3.74773645
   5402,   5.52525187,   3.85184216
   5403,   5.83734703,    3.9620204
   5404,   6.14724731,    4.0782299
   5405,   6.45483589,   4.20042706
   5406,   6.75999689,    4.3285656
   5407,   7.06261587,   4.46259785
   5408,   7.36257887,   4.60247278
   5409,   7.65977287,   4.74813843
   5410,    7.9540863,   4.89953899
   5411,   8.24540901,   5.05661869
   5412,   8.53363037,   5.21931791
   5413,   8.81864357,   5.38757563
   5414,   9.10033894,   5.56132841
   5415,   9.37861347,   5.74051142
   5416,   9.65336037,   5.92505598
   5417,   9.92447758,   6.11489439
   5418,   10.1918621,   6.30995369
   5419,   10.4554138,   6.51016188
   5420,   10.7150335,   6.71544266
   5421,    10.970624,   6.92571926
   5422,   11.2220888,   7.14091253
   5423,   11.4693336,   7.36094189
   5424,    11.712265,   7.58572388
   5425,   11.9507923,   7.81517458
   5426,   12.1848249,   8.04920769
   5427,   12.4142761,   8.28773499
   5428,   12.6390581,   8.53066635
   5429,    12.859087,   8.77791119
   5430,   13.0742807,   9.02937603
   5431,   13.2845573,   9.28496647
   5432,   13.4898386,   9.54458618
   5433,   13.6900463,   9.80813789
   5434,   13.8851061,   10.0755224
   5435,   14.0749435,   10.3466396
   5436,   14.2594891,   10.6213865
   5437,   14.4386711,   10.8996611
   5438,   14.6124239,   11.1813564
   5439,   14.7806816,   11.4663696
   5440,   14.9433813,    11.754591
   5441,    15.100461,   12.0459137
   5442,   15.2518616,   12.3402271
   5443,   15.3975267,   12.6374216
   5444,   15.5374022,   12.9373846
   5445,   15.6714344,   13.2400036
   5446,   15.7995729,   13.5451641
   5447,   15.9217701,   13.8527527
   5448,   16.0379791,    14.162653
   5449,   16.1481571,   14.4747486
   5450,    16.252264,   14.7889214
   5451,   16.3502579,   15.1050539
   5452,   16.4421024,    15.423028
   5453,   16.5277653,   15.7427225
   5454,   16.6072102,   16.0640182
   5455,   16.6804123,    16.386795
   5456,   16.7473412,   16.7109299
   5457,    16.807972,   17.0363007
   5458,   16.8622818,   17.3627872
   5459,   16.9102497,   17.6902657
   5460,   16.9518585,   18.0186119
   5461,    16.987093,   18.3477039
   5462,   17.0159397,   18.6774158
   5463,   17.0383854,   19.0076275
   5464,   17.0544262,   19.3382111
   5465,   17.0640526,   19.6690426
   5466,   17.0672607,          20.
   5467,  -16.7363243,   19.6753998
   5468,  -16.7394714,          20.
   5469,  -16.7268829,   19.3509216
   5470,  -16.7111511,   19.0266857
   5471,  -16.6891365,   18.7028179
   5472,  -16.6608429,   18.3794365
   5473,  -16.6262856,   18.0566654
   5474,  -16.5854759,   17.7346249
   5475,  -16.5384293,   17.4134369
   5476,  -16.4851627,   17.0932217
   5477,  -16.4256954,   16.7740993
   5478,  -16.3600521,   16.4561882
   5479,  -16.2882576,   16.1396122
   5480,  -16.2103367,   15.8244867
   5481,  -16.1263199,    15.510932
   5482,  -16.0362396,   15.1990652
   5483,  -15.9401274,   14.8890038
   5484,  -15.8380203,   14.5808649
   5485,  -15.7299585,   14.2747631
   5486,  -15.6159811,   13.9708147
   5487,  -15.4961309,   13.6691341
   5488,  -15.3704529,   13.3698339
   5489,  -15.2389956,   13.0730267
   5490,  -15.1018066,   12.7788248
   5491,  -14.9589386,    12.487339
   5492,  -14.8104458,   12.1986771
   5493,  -14.6563826,   11.9129505
   5494,  -14.4968081,   11.6302643
   5495,  -14.3317823,   11.3507252
   5496,  -14.1613665,    11.074439
   5497,  -13.9856253,   10.8015099
   5498,  -13.8046246,   10.5320396
   5499,   -13.618432,   10.2661295
   5500,  -13.4271193,   10.0038805
   5501,  -13.2307558,   9.74538994
   5502,   -13.029418,   9.49075603
   5503,  -12.8231792,   9.24007511
   5504,  -12.6121197,   8.99343967
   5505,  -12.3963156,   8.75094318
   5506,  -12.1758509,   8.51267719
   5507,  -11.9508066,   8.27873135
   5508,  -11.7212687,   8.04919338
   5509,  -11.4873228,   7.82414913
   5510,  -11.2490568,   7.60368395
   5511,  -11.0065603,    7.3878808
   5512,  -10.7599249,   7.17682028
   5513,   -10.509244,   6.97058201
   5514,  -10.2546101,   6.76924372
   5515,   -9.9961195,   6.57288122
   5516,  -9.73387051,   6.38156748
   5517,  -9.46796036,   6.19537544
   5518,  -9.19849014,   6.01437521
   5519,  -8.92556095,   5.83863354
   5520,  -8.64927483,   5.66821814
   5521,  -8.36973572,   5.50319195
   5522,  -8.08704948,   5.34361744
   5523,  -7.80132246,   5.18955469
   5524,  -7.51266146,    5.0410614
   5525,  -7.22117519,   4.89819336
   5526,  -6.92697334,   4.76100492
   5527,  -6.63016605,   4.62954712
   5528,  -6.33086586,   4.50386953
   5529,  -6.02918482,    4.3840189
   5530,  -5.72523689,   4.27004147
   5531,  -5.41913557,    4.1619792
   5532,  -5.11099625,    4.0598731
   5533,  -4.80093479,   3.96376109
   5534,  -4.48906803,   3.87367988
   5535,  -4.17551327,   3.78966308
   5536,  -3.86038804,    3.7117424
   5537,  -3.54381108,   3.63994694
   5538,   -3.2259016,   3.57430387
   5539,  -2.90677881,   3.51483798
   5540,  -2.58656311,   3.46157146
   5541,  -2.26537442,   3.41452408
   5542,   -1.9433341,   3.37371397
   5543,  -1.62056291,   3.33915639
   5544,   -1.2971822,   3.31086445
   5545, -0.973313749,    3.2888484
   5546, -0.649079263,   3.27311659
   5547, -0.324600667,   3.26367521
   5548,           0.,   3.26052785
   5549,  0.324600667,   3.26367521
   5550,  0.649079263,   3.27311659
   5551,  0.973313749,    3.2888484
   5552,    1.2971822,   3.31086445
   5553,   1.62056291,   3.33915639
   5554,    1.9433341,   3.37371397
   5555,   2.26537442,   3.41452408
   5556,   2.58656311,   3.46157146
   5557,   2.90677881,   3.51483798
   5558,    3.2259016,   3.57430387
   5559,   3.54381108,   3.63994694
   5560,   3.86038804,    3.7117424
   5561,   4.17551327,   3.78966308
   5562,   4.48906803,   3.87367988
   5563,   4.80093479,   3.96376109
   5564,   5.11099625,    4.0598731
   5565,   5.41913557,    4.1619792
   5566,   5.72523689,   4.27004147
   5567,   6.02918482,    4.3840189
   5568,   6.33086586,   4.50386953
   5569,   6.63016605,   4.62954712
   5570,   6.92697334,   4.76100492
   5571,   7.22117519,   4.89819336
   5572,   7.51266146,    5.0410614
   5573,   7.80132246,   5.18955469
   5574,   8.08704948,   5.34361744
   5575,   8.36973572,   5.50319195
   5576,   8.64927483,   5.66821814
   5577,   8.92556095,   5.83863354
   5578,   9.19849014,   6.01437521
   5579,   9.46796036,   6.19537544
   5580,   9.73387051,   6.38156748
   5581,    9.9961195,   6.57288122
   5582,   10.2546101,   6.76924372
   5583,    10.509244,   6.97058201
   5584,   10.7599249,   7.17682028
   5585,   11.0065603,    7.3878808
   5586,   11.2490568,   7.60368395
   5587,   11.4873228,   7.82414913
   5588,   11.7212687,   8.04919338
   5589,   11.9508066,   8.27873135
   5590,   12.1758509,   8.51267719
   5591,   12.3963156,   8.75094318
   5592,   12.6121197,   8.99343967
   5593,   12.8231792,   9.24007511
   5594,    13.029418,   9.49075603
   5595,   13.2307558,   9.74538994
   5596,   13.4271193,   10.0038805
   5597,    13.618432,   10.2661295
   5598,   13.8046246,   10.5320396
   5599,   13.9856253,   10.8015099
   5600,   14.1613665,    11.074439
   5601,   14.3317823,   11.3507252
   5602,   14.4968081,   11.6302643
   5603,   14.6563826,   11.9129505
   5604,   14.8104458,   12.1986771
   5605,   14.9589386,    12.487339
   5606,   15.1018066,   12.7788248
   5607,   15.2389956,   13.0730267
   5608,   15.3704529,   13.3698339
   5609,   15.4961309,   13.6691341
   5610,   15.6159811,   13.9708147
   5611,   15.7299585,   14.2747631
   5612,   15.8380203,   14.5808649
   5613,   15.9401274,   14.8890038
   5614,   16.0362396,   15.1990652
   5615,   16.1263199,    15.510932
   5616,   16.2103367,   15.8244867
   5617,   16.2882576,   16.1396122
   5618,   16.3600521,   16.4561882
   5619,   16.4256954,   16.7740993
   5620,   16.4851627,   17.0932217
   5621,   16.5384293,   17.4134369
   5622,   16.5854759,   17.7346249
   5623,   16.6262856,   18.0566654
   5624,   16.6608429,   18.3794365
   5625,   16.6891365,   18.7028179
   5626,   16.7111511,   19.0266857
   5627,   16.7268829,   19.3509216
   5628,   16.7363243,   19.6753998
   5629,   16.7394714,          20.
   5630,  -16.4148922,    19.681633
   5631,  -16.4179783,          20.
   5632,   -16.405632,   19.3633862
   5633,  -16.3902016,   19.0453796
   5634,  -16.3686085,   18.7277317
   5635,  -16.3408604,   18.4105606
   5636,  -16.3069668,   18.0939884
   5637,  -16.2669392,   17.7781334
   5638,  -16.2207966,   17.4631138
   5639,  -16.1685524,   17.1490479
   5640,  -16.1102295,   16.8360538
   5641,  -16.0458469,     16.52425
   5642,  -15.9754295,   16.2137527
   5643,  -15.8990059,   15.9046803
   5644,  -15.8166027,   15.5971479
   5645,  -15.7282515,   15.2912703
   5646,  -15.6339855,   14.9871645
   5647,  -15.5338402,   14.6849432
   5648,  -15.4278536,   14.3847208
   5649,  -15.3160648,   14.0866098
   5650,  -15.1985159,   13.7907228
   5651,  -15.0752525,   13.4971704
   5652,  -14.9463196,   13.2060642
   5653,  -14.8117657,   12.9175129
   5654,  -14.6716413,   12.6316242
   5655,      -14.526,   12.3485079
   5656,   -14.374896,   12.0682678
   5657,  -14.2183867,   11.7910109
   5658,    -14.05653,   11.5168409
   5659,  -13.8893871,   11.2458611
   5660,   -13.717021,   10.9781733
   5661,  -13.5394964,   10.7138786
   5662,  -13.3568802,   10.4530754
   5663,   -13.169241,   10.1958628
   5664,  -12.9766502,   9.94233704
   5665,  -12.7791786,   9.69259357
   5666,  -12.5769014,    9.4467268
   5667,   -12.369894,   9.20482826
   5668,  -12.1582355,   8.96698952
   5669,  -11.9420052,   8.73329926
   5670,   -11.721283,   8.50384617
   5671,  -11.4961538,   8.27871704
   5672,  -11.2667007,   8.05799484
   5673,  -11.0330105,   7.84176445
   5674,  -10.7951717,    7.6301055
   5675,  -10.5532732,   7.42309856
   5676,  -10.3074064,   7.22082138
   5677,   -10.057663,   7.02335024
   5678,  -9.80413723,   6.83075857
   5679,  -9.54692459,   6.64311934
   5680,  -9.28612137,   6.46050358
   5681,  -9.02182674,   6.28297901
   5682,  -8.75413895,   6.11061287
   5683,  -8.48315907,      5.94347
   5684,  -8.20898914,   5.78161335
   5685,  -7.93173218,   5.62510347
   5686,   -7.6514926,   5.47399998
   5687,   -7.3683753,   5.32835865
   5688,  -7.08248711,   5.18823433
   5689,  -6.79393578,    5.0536809
   5690,  -6.50282907,   4.92474747
   5691,  -6.20927715,   4.80148363
   5692,  -5.91339016,   4.68393517
   5693,   -5.6152792,   4.57214689
   5694,   -5.3150568,   4.46615982
   5695,   -5.0128355,   4.36601448
   5696,  -4.70872927,   4.27174854
   5697,  -4.40285206,   4.18339777
   5698,  -4.09531927,   4.10099459
   5699,  -3.78624654,   4.02456999
   5700,  -3.47574973,   3.95415354
   5701,  -3.16394567,   3.88977122
   5702,  -2.85095215,   3.83144736
   5703,  -2.53688622,   3.77920389
   5704,  -2.22186637,   3.73306012
   5705,  -1.90601099,   3.69303393
   5706,   -1.5894388,   3.65914011
   5707,  -1.27226889,   3.63139129
   5708,  -0.95462054,   3.60979795
   5709,  -0.63661319,   3.59436846
   5710, -0.318366468,   3.58510852
   5711,           0.,   3.58202147
   5712,  0.318366468,   3.58510852
   5713,   0.63661319,   3.59436846
   5714,   0.95462054,   3.60979795
   5715,   1.27226889,   3.63139129
   5716,    1.5894388,   3.65914011
   5717,   1.90601099,   3.69303393
   5718,   2.22186637,   3.73306012
   5719,   2.53688622,   3.77920389
   5720,   2.85095215,   3.83144736
   5721,   3.16394567,   3.88977122
   5722,   3.47574973,   3.95415354
   5723,   3.78624654,   4.02456999
   5724,   4.09531927,   4.10099459
   5725,   4.40285206,   4.18339777
   5726,   4.70872927,   4.27174854
   5727,    5.0128355,   4.36601448
   5728,    5.3150568,   4.46615982
   5729,    5.6152792,   4.57214689
   5730,   5.91339016,   4.68393517
   5731,   6.20927715,   4.80148363
   5732,   6.50282907,   4.92474747
   5733,   6.79393578,    5.0536809
   5734,   7.08248711,   5.18823433
   5735,    7.3683753,   5.32835865
   5736,    7.6514926,   5.47399998
   5737,   7.93173218,   5.62510347
   5738,   8.20898914,   5.78161335
   5739,   8.48315907,      5.94347
   5740,   8.75413895,   6.11061287
   5741,   9.02182674,   6.28297901
   5742,   9.28612137,   6.46050358
   5743,   9.54692459,   6.64311934
   5744,   9.80413723,   6.83075857
   5745,    10.057663,   7.02335024
   5746,   10.3074064,   7.22082138
   5747,   10.5532732,   7.42309856
   5748,   10.7951717,    7.6301055
   5749,   11.0330105,   7.84176445
   5750,   11.2667007,   8.05799484
   5751,   11.4961538,   8.27871704
   5752,    11.721283,   8.50384617
   5753,   11.9420052,   8.73329926
   5754,   12.1582355,   8.96698952
   5755,    12.369894,   9.20482826
   5756,   12.5769014,    9.4467268
   5757,   12.7791786,   9.69259357
   5758,   12.9766502,   9.94233704
   5759,    13.169241,   10.1958628
   5760,   13.3568802,   10.4530754
   5761,   13.5394964,   10.7138786
   5762,    13.717021,   10.9781733
   5763,   13.8893871,   11.2458611
   5764,     14.05653,   11.5168409
   5765,   14.2183867,   11.7910109
   5766,    14.374896,   12.0682678
   5767,       14.526,   12.3485079
   5768,   14.6716413,   12.6316242
   5769,   14.8117657,   12.9175129
   5770,   14.9463196,   13.2060642
   5771,   15.0752525,   13.4971704
   5772,   15.1985159,   13.7907228
   5773,   15.3160648,   14.0866098
   5774,   15.4278536,   14.3847208
   5775,   15.5338402,   14.6849432
   5776,   15.6339855,   14.9871645
   5777,   15.7282515,   15.2912703
   5778,   15.8166027,   15.5971479
   5779,   15.8990059,   15.9046803
   5780,   15.9754295,   16.2137527
   5781,   16.0458469,     16.52425
   5782,   16.1102295,   16.8360538
   5783,   16.1685524,   17.1490479
   5784,   16.2207966,   17.4631138
   5785,   16.2669392,   17.7781334
   5786,   16.3069668,   18.0939884
   5787,   16.3408604,   18.4105606
   5788,   16.3686085,   18.7277317
   5789,   16.3902016,   19.0453796
   5790,    16.405632,   19.3633862
   5791,   16.4148922,    19.681633
   5792,   16.4179783,          20.
   5793,  -16.0996323,    19.687748
   5794,  -16.1026592,          20.
   5795,  -16.0905495,   19.3756142
   5796,  -16.0754166,   19.0637131
   5797,  -16.0542374,   18.7521667
   5798,  -16.0270214,   18.4410877
   5799,  -15.9937792,   18.1305962
   5800,  -15.9545212,   17.8208065
   5801,  -15.9092646,    17.511837
   5802,  -15.8580236,   17.2038021
   5803,  -15.8008204,   16.8968201
   5804,  -15.7376747,   16.5910053
   5805,  -15.6686106,   16.2864704
   5806,  -15.5936537,   15.9833345
   5807,  -15.5128336,   15.6817074
   5808,  -15.4261789,   15.3817053
   5809,  -15.3337231,   15.0834398
   5810,  -15.2355013,   14.7870226
   5811,  -15.1315498,   14.4925661
   5812,  -15.0219088,    14.200181
   5813,  -14.9066181,    13.909976
   5814,  -14.7857208,   13.6220627
   5815,  -14.6592646,   13.3365469
   5816,  -14.5272951,   13.0535374
   5817,  -14.3898621,     12.77314
   5818,  -14.2470179,   12.4954596
   5819,  -14.0988159,    12.220602
   5820,  -13.9453125,   11.9486704
   5821,  -13.7865639,   11.6797657
   5822,  -13.6226311,    11.413991
   5823,  -13.4535761,   11.1514444
   5824,  -13.2794609,   10.8922253
   5825,  -13.1003523,   10.6364307
   5826,   -12.916317,   10.3841581
   5827,  -12.7274237,   10.1355019
   5828,  -12.5337448,   9.89055538
   5829,  -12.3353529,   9.64941025
   5830,  -12.1323214,   9.41215706
   5831,  -11.9247284,   9.17888641
   5832,  -11.7126503,   8.94968414
   5833,  -11.4961672,   8.72463894
   5834,  -11.2753611,   8.50383282
   5835,  -11.0503159,    8.2873497
   5836,  -10.8211136,   8.07527161
   5837,  -10.5878429,   7.86767817
   5838,  -10.3505898,    7.6646471
   5839,  -10.1094446,   7.46625471
   5840,  -9.86449814,   7.27257586
   5841,  -9.61584187,   7.08368349
   5842,  -9.36356926,   6.89964819
   5843,  -9.10777473,   6.72053909
   5844,  -8.84855556,   6.54642439
   5845,  -8.58600903,   6.37736845
   5846,   -8.3202343,   6.21343613
   5847,  -8.05132961,   6.05468798
   5848,  -7.77939749,   5.90118408
   5849,  -7.50453997,   5.75298214
   5850,  -7.22686052,   5.61013794
   5851,  -6.94646311,   5.47270536
   5852,   -6.6634531,   5.34073544
   5853,  -6.37793779,    5.2142787
   5854,  -6.09002352,   5.09338236
   5855,  -5.79981947,   4.97809124
   5856,  -5.50743389,   4.86844969
   5857,  -5.21297741,   4.76449823
   5858,  -4.91656065,   4.66627645
   5859,  -4.61829472,   4.57382107
   5860,  -4.31829214,   4.48716688
   5861,  -4.01666594,   4.40634632
   5862,  -3.71352887,    4.3313899
   5863,  -3.40899539,   4.26232576
   5864,  -3.10317993,   4.19917965
   5865,  -2.79619741,   4.14197588
   5866,  -2.48816347,   4.09073591
   5867,  -2.17919374,   4.04547834
   5868,  -1.86940467,   4.00622082
   5869,  -1.55891252,   3.97297812
   5870,  -1.24783409,   3.94576216
   5871,  -0.93628639,   3.92458367
   5872, -0.624386609,   3.90945053
   5873, -0.312252015,   3.90036821
   5874,           0.,   3.89734054
   5875,  0.312252015,   3.90036821
   5876,  0.624386609,   3.90945053
   5877,   0.93628639,   3.92458367
   5878,   1.24783409,   3.94576216
   5879,   1.55891252,   3.97297812
   5880,   1.86940467,   4.00622082
   5881,   2.17919374,   4.04547834
   5882,   2.48816347,   4.09073591
   5883,   2.79619741,   4.14197588
   5884,   3.10317993,   4.19917965
   5885,   3.40899539,   4.26232576
   5886,   3.71352887,    4.3313899
   5887,   4.01666594,   4.40634632
   5888,   4.31829214,   4.48716688
   5889,   4.61829472,   4.57382107
   5890,   4.91656065,   4.66627645
   5891,   5.21297741,   4.76449823
   5892,   5.50743389,   4.86844969
   5893,   5.79981947,   4.97809124
   5894,   6.09002352,   5.09338236
   5895,   6.37793779,    5.2142787
   5896,    6.6634531,   5.34073544
   5897,   6.94646311,   5.47270536
   5898,   7.22686052,   5.61013794
   5899,   7.50453997,   5.75298214
   5900,   7.77939749,   5.90118408
   5901,   8.05132961,   6.05468798
   5902,    8.3202343,   6.21343613
   5903,   8.58600903,   6.37736845
   5904,   8.84855556,   6.54642439
   5905,   9.10777473,   6.72053909
   5906,   9.36356926,   6.89964819
   5907,   9.61584187,   7.08368349
   5908,   9.86449814,   7.27257586
   5909,   10.1094446,   7.46625471
   5910,   10.3505898,    7.6646471
   5911,   10.5878429,   7.86767817
   5912,   10.8211136,   8.07527161
   5913,   11.0503159,    8.2873497
   5914,   11.2753611,   8.50383282
   5915,   11.4961672,   8.72463894
   5916,   11.7126503,   8.94968414
   5917,   11.9247284,   9.17888641
   5918,   12.1323214,   9.41215706
   5919,   12.3353529,   9.64941025
   5920,   12.5337448,   9.89055538
   5921,   12.7274237,   10.1355019
   5922,    12.916317,   10.3841581
   5923,   13.1003523,   10.6364307
   5924,   13.2794609,   10.8922253
   5925,   13.4535761,   11.1514444
   5926,   13.6226311,    11.413991
   5927,   13.7865639,   11.6797657
   5928,   13.9453125,   11.9486704
   5929,   14.0988159,    12.220602
   5930,   14.2470179,   12.4954596
   5931,   14.3898621,     12.77314
   5932,   14.5272951,   13.0535374
   5933,   14.6592646,   13.3365469
   5934,   14.7857208,   13.6220627
   5935,   14.9066181,    13.909976
   5936,   15.0219088,    14.200181
   5937,   15.1315498,   14.4925661
   5938,   15.2355013,   14.7870226
   5939,   15.3337231,   15.0834398
   5940,   15.4261789,   15.3817053
   5941,   15.5128336,   15.6817074
   5942,   15.5936537,   15.9833345
   5943,   15.6686106,   16.2864704
   5944,   15.7376747,   16.5910053
   5945,   15.8008204,   16.8968201
   5946,   15.8580236,   17.2038021
   5947,   15.9092646,    17.511837
   5948,   15.9545212,   17.8208065
   5949,   15.9937792,   18.1305962
   5950,   16.0270214,   18.4410877
   5951,   16.0542374,   18.7521667
   5952,   16.0754166,   19.0637131
   5953,   16.0905495,   19.3756142
   5954,   16.0996323,    19.687748
   5955,   16.1026592,          20.
   5956,  -15.7904263,   19.6937447
   5957,   -15.793396,          20.
   5958,  -15.7815189,   19.3876057
   5959,  -15.7666759,   19.0816956
   5960,  -15.7459049,   18.7761307
   5961,  -15.7192116,   18.4710274
   5962,  -15.6866074,   18.1664982
   5963,  -15.6481037,   17.8626595
   5964,  -15.6037149,   17.5596237
   5965,  -15.5534592,   17.2575054
   5966,  -15.4973536,    16.956419
   5967,   -15.435421,    16.656477
   5968,  -15.3676834,   16.3577919
   5969,  -15.2941666,   16.0604763
   5970,  -15.2148981,   15.7646437
   5971,  -15.1299076,   15.4704027
   5972,  -15.0392284,    15.177866
   5973,   -14.942893,   14.8871412
   5974,  -14.8409376,     14.59834
   5975,  -14.7334023,   14.3115702
   5976,  -14.6203251,   14.0269394
   5977,  -14.5017509,   13.7445555
   5978,  -14.3777227,   13.4645233
   5979,  -14.2482872,   13.1869488
   5980,  -14.1134949,   12.9119368
   5981,  -13.9733934,   12.6395903
   5982,  -13.8280382,   12.3700113
   5983,  -13.6774826,    12.103302
   5984,  -13.5217829,   11.8395624
   5985,  -13.3609991,   11.5788908
   5986,  -13.1951904,   11.3213873
   5987,  -13.0244188,   11.0671463
   5988,  -12.8487501,   10.8162651
   5989,  -12.6682491,   10.5688381
   5990,  -12.4829845,   10.3249569
   5991,   -12.293026,   10.0847139
   5992,   -12.098443,    9.8482008
   5993,   -11.899312,   9.61550426
   5994,  -11.6957054,   9.38671398
   5995,  -11.4877005,   9.16191387
   5996,  -11.2753754,   8.94118977
   5997,  -11.0588102,   8.72462463
   5998,  -10.8380861,   8.51229954
   5999,   -10.613286,   8.30429459
   6000,  -10.3844957,   8.10068798
   6001,  -10.1517992,   7.90155649
   6002,  -9.91528606,   7.70697451
   6003,  -9.67504311,   7.51701546
   6004,  -9.43116188,   7.33175039
   6005,  -9.18373489,   7.15124989
   6006,   -8.9328537,   6.97558069
   6007,  -8.67861271,   6.80481005
   6008,   -8.4211092,   6.63900089
   6009,  -8.16043758,   6.47821665
   6010,    -7.896698,    6.3225174
   6011,  -7.62998867,   6.17196178
   6012,  -7.36041021,   6.02660656
   6013,  -7.08806324,    5.8865056
   6014,  -6.81305122,   5.75171232
   6015,  -6.53547668,   5.62227726
   6016,  -6.25544453,   5.49824905
   6017,  -5.97306013,   5.37967443
   6018,  -5.68842936,   5.26659775
   6019,  -5.40165949,   5.15906191
   6020,   -5.1128583,   5.05710745
   6021,  -4.82213449,   4.96077156
   6022,  -4.52959728,   4.87009192
   6023,  -4.23535633,   4.78510189
   6024,  -3.93952274,   4.70583344
   6025,  -3.64220786,   4.63231659
   6026,  -3.34352326,   4.56457901
   6027,  -3.04358101,   4.50264597
   6028,  -2.74249458,   4.44654083
   6029,  -2.44037652,   4.39628458
   6030,  -2.13734078,   4.35189676
   6031,  -1.83350134,   4.31339312
   6032,  -1.52897239,   4.28078842
   6033,  -1.22386849,   4.25409555
   6034, -0.918304324,   4.23332357
   6035,  -0.61239481,   4.21848106
   6036, -0.306254983,   4.20957327
   6037,           0.,   4.20660353
   6038,  0.306254983,   4.20957327
   6039,   0.61239481,   4.21848106
   6040,  0.918304324,   4.23332357
   6041,   1.22386849,   4.25409555
   6042,   1.52897239,   4.28078842
   6043,   1.83350134,   4.31339312
   6044,   2.13734078,   4.35189676
   6045,   2.44037652,   4.39628458
   6046,   2.74249458,   4.44654083
   6047,   3.04358101,   4.50264597
   6048,   3.34352326,   4.56457901
   6049,   3.64220786,   4.63231659
   6050,   3.93952274,   4.70583344
   6051,   4.23535633,   4.78510189
   6052,   4.52959728,   4.87009192
   6053,   4.82213449,   4.96077156
   6054,    5.1128583,   5.05710745
   6055,   5.40165949,   5.15906191
   6056,   5.68842936,   5.26659775
   6057,   5.97306013,   5.37967443
   6058,   6.25544453,   5.49824905
   6059,   6.53547668,   5.62227726
   6060,   6.81305122,   5.75171232
   6061,   7.08806324,    5.8865056
   6062,   7.36041021,   6.02660656
   6063,   7.62998867,   6.17196178
   6064,     7.896698,    6.3225174
   6065,   8.16043758,   6.47821665
   6066,    8.4211092,   6.63900089
   6067,   8.67861271,   6.80481005
   6068,    8.9328537,   6.97558069
   6069,   9.18373489,   7.15124989
   6070,   9.43116188,   7.33175039
   6071,   9.67504311,   7.51701546
   6072,   9.91528606,   7.70697451
   6073,   10.1517992,   7.90155649
   6074,   10.3844957,   8.10068798
   6075,    10.613286,   8.30429459
   6076,   10.8380861,   8.51229954
   6077,   11.0588102,   8.72462463
   6078,   11.2753754,   8.94118977
   6079,   11.4877005,   9.16191387
   6080,   11.6957054,   9.38671398
   6081,    11.899312,   9.61550426
   6082,    12.098443,    9.8482008
   6083,    12.293026,   10.0847139
   6084,   12.4829845,   10.3249569
   6085,   12.6682491,   10.5688381
   6086,   12.8487501,   10.8162651
   6087,   13.0244188,   11.0671463
   6088,   13.1951904,   11.3213873
   6089,   13.3609991,   11.5788908
   6090,   13.5217829,   11.8395624
   6091,   13.6774826,    12.103302
   6092,   13.8280382,   12.3700113
   6093,   13.9733934,   12.6395903
   6094,   14.1134949,   12.9119368
   6095,   14.2482872,   13.1869488
   6096,   14.3777227,   13.4645233
   6097,   14.5017509,   13.7445555
   6098,   14.6203251,   14.0269394
   6099,   14.7334023,   14.3115702
   6100,   14.8409376,     14.59834
   6101,    14.942893,   14.8871412
   6102,   15.0392284,    15.177866
   6103,   15.1299076,   15.4704027
   6104,   15.2148981,   15.7646437
   6105,   15.2941666,   16.0604763
   6106,   15.3676834,   16.3577919
   6107,    15.435421,    16.656477
   6108,   15.4973536,    16.956419
   6109,   15.5534592,   17.2575054
   6110,   15.6037149,   17.5596237
   6111,   15.6481037,   17.8626595
   6112,   15.6866074,   18.1664982
   6113,   15.7192116,   18.4710274
   6114,   15.7459049,   18.7761307
   6115,   15.7666759,   19.0816956
   6116,   15.7815189,   19.3876057
   6117,   15.7904263,   19.6937447
   6118,    15.793396,          20.
   6119,  -15.4871597,   19.6996269
   6120,  -15.4900723,          20.
   6121,  -15.4784231,   19.3993664
   6122,  -15.4638662,   19.0993328
   6123,  -15.4434929,   18.7996368
   6124,  -15.4173126,   18.5003929
   6125,   -15.385334,   18.2017117
   6126,  -15.3475704,   17.9037075
   6127,  -15.3040342,    17.606493
   6128,  -15.2547436,   17.3101768
   6129,  -15.1997166,   17.0148735
   6130,  -15.1389723,   16.7206917
   6131,  -15.0725355,   16.4277439
   6132,  -15.0004311,   16.1361389
   6133,  -14.9226847,   15.8459864
   6134,  -14.8393269,   15.5573969
   6135,  -14.7503891,   15.2704782
   6136,  -14.6559038,   14.9853373
   6137,  -14.5559072,   14.7020836
   6138,  -14.4504366,   14.4208212
   6139,  -14.3395319,   14.1416569
   6140,  -14.2232342,   13.8646955
   6141,  -14.1015882,   13.5900421
   6142,  -13.9746389,   13.3177986
   6143,  -13.8424349,    13.048068
   6144,  -13.7050247,   12.7809525
   6145,  -13.5624609,    12.516551
   6146,  -13.4147968,   12.2549639
   6147,  -13.2620878,   11.9962893
   6148,  -13.1043911,   11.7406244
   6149,  -12.9417667,   11.4880657
   6150,  -12.7742758,   11.2387085
   6151,  -12.6019812,   10.9926453
   6152,  -12.4249468,   10.7499704
   6153,  -12.2432404,   10.5107727
   6154,  -12.0569286,   10.2751446
   6155,  -11.8660841,   10.0431728
   6156,  -11.6707764,   9.81494617
   6157,  -11.4710808,   9.59054947
   6158,  -11.2670708,    9.3700676
   6159,  -11.0588236,   9.15358257
   6160,  -10.8464174,   8.94117641
   6161,  -10.6299324,   8.73292923
   6162,  -10.4094505,   8.52891922
   6163,  -10.1850538,   8.32922363
   6164,  -9.95682716,    8.1339159
   6165,  -9.72485542,   7.94307089
   6166,  -9.48922729,   7.75676012
   6167,  -9.25002956,   7.57505322
   6168,  -9.00735474,   7.39801931
   6169,   -8.7612915,   7.22572422
   6170,  -8.51193428,   7.05823326
   6171,  -8.25937557,    6.8956089
   6172,  -8.00371075,   6.73791265
   6173,  -7.74503613,   6.58520365
   6174,  -7.48344946,    6.4375391
   6175,  -7.21904802,   6.29497528
   6176,  -6.95193195,   6.15756559
   6177,  -6.68220139,   6.02536106
   6178,  -6.40995836,   5.89841175
   6179,  -6.13530445,   5.77676582
   6180,  -5.85834312,   5.66046858
   6181,  -5.57917929,   5.54956341
   6182,  -5.29791689,   5.44409275
   6183,  -5.01466227,   5.34409618
   6184,  -4.72952175,    5.2496109
   6185,  -4.44260311,   5.16067266
   6186,  -4.15401316,   5.07731485
   6187,  -3.86386156,   4.99956894
   6188,  -3.57225657,   4.92746401
   6189,  -3.27930832,   4.86102724
   6190,  -2.98512697,   4.80028391
   6191,  -2.68982291,   4.74525642
   6192,  -2.39350724,   4.69596529
   6193,  -2.09629178,   4.65242958
   6194,  -1.79828763,   4.61466551
   6195,  -1.49960744,   4.58268738
   6196,  -1.20036328,   4.55650663
   6197, -0.900667608,   4.53613424
   6198, -0.600633323,    4.5215764
   6199, -0.300373137,   4.51283979
   6200,           0.,   4.50992727
   6201,  0.300373137,   4.51283979
   6202,  0.600633323,    4.5215764
   6203,  0.900667608,   4.53613424
   6204,   1.20036328,   4.55650663
   6205,   1.49960744,   4.58268738
   6206,   1.79828763,   4.61466551
   6207,   2.09629178,   4.65242958
   6208,   2.39350724,   4.69596529
   6209,   2.68982291,   4.74525642
   6210,   2.98512697,   4.80028391
   6211,   3.27930832,   4.86102724
   6212,   3.57225657,   4.92746401
   6213,   3.86386156,   4.99956894
   6214,   4.15401316,   5.07731485
   6215,   4.44260311,   5.16067266
   6216,   4.72952175,    5.2496109
   6217,   5.01466227,   5.34409618
   6218,   5.29791689,   5.44409275
   6219,   5.57917929,   5.54956341
   6220,   5.85834312,   5.66046858
   6221,   6.13530445,   5.77676582
   6222,   6.40995836,   5.89841175
   6223,   6.68220139,   6.02536106
   6224,   6.95193195,   6.15756559
   6225,   7.21904802,   6.29497528
   6226,   7.48344946,    6.4375391
   6227,   7.74503613,   6.58520365
   6228,   8.00371075,   6.73791265
   6229,   8.25937557,    6.8956089
   6230,   8.51193428,   7.05823326
   6231,    8.7612915,   7.22572422
   6232,   9.00735474,   7.39801931
   6233,   9.25002956,   7.57505322
   6234,   9.48922729,   7.75676012
   6235,   9.72485542,   7.94307089
   6236,   9.95682716,    8.1339159
   6237,   10.1850538,   8.32922363
   6238,   10.4094505,   8.52891922
   6239,   10.6299324,   8.73292923
   6240,   10.8464174,   8.94117641
   6241,   11.0588236,   9.15358257
   6242,   11.2670708,    9.3700676
   6243,   11.4710808,   9.59054947
   6244,   11.6707764,   9.81494617
   6245,   11.8660841,   10.0431728
   6246,   12.0569286,   10.2751446
   6247,   12.2432404,   10.5107727
   6248,   12.4249468,   10.7499704
   6249,   12.6019812,   10.9926453
   6250,   12.7742758,   11.2387085
   6251,   12.9417667,   11.4880657
   6252,   13.1043911,   11.7406244
   6253,   13.2620878,   11.9962893
   6254,   13.4147968,   12.2549639
   6255,   13.5624609,    12.516551
   6256,   13.7050247,   12.7809525
   6257,   13.8424349,    13.048068
   6258,   13.9746389,   13.3177986
   6259,   14.1015882,   13.5900421
   6260,   14.2232342,   13.8646955
   6261,   14.3395319,   14.1416569
   6262,   14.4504366,   14.4208212
   6263,   14.5559072,   14.7020836
   6264,   14.6559038,   14.9853373
   6265,   14.7503891,   15.2704782
   6266,   14.8393269,   15.5573969
   6267,   14.9226847,   15.8459864
   6268,   15.0004311,   16.1361389
   6269,   15.0725355,   16.4277439
   6270,   15.1389723,   16.7206917
   6271,   15.1997166,   17.0148735
   6272,   15.2547436,   17.3101768
   6273,   15.3040342,    17.606493
   6274,   15.3475704,   17.9037075
   6275,    15.385334,   18.2017117
   6276,   15.4173126,   18.5003929
   6277,   15.4434929,   18.7996368
   6278,   15.4638662,   19.0993328
   6279,   15.4784231,   19.3993664
   6280,   15.4871597,   19.6996269
   6281,   15.4900723,          20.
   6282,  -15.1897182,   19.7053967
   6283,  -15.1925745,          20.
   6284,  -15.1811495,    19.410902
   6285,  -15.1668711,   19.1166306
   6286,  -15.1468897,    18.822691
   6287,   -15.121212,   18.5291939
   6288,  -15.0898476,   18.2362499
   6289,  -15.0528088,   17.9439697
   6290,  -15.0101099,    17.652462
   6291,  -14.9617653,   17.3618374
   6292,   -14.907795,   17.0722046
   6293,   -14.848218,   16.7836723
   6294,  -14.7830572,   16.4963512
   6295,  -14.7123365,   16.2103462
   6296,  -14.6360836,   15.9257679
   6297,   -14.554327,   15.6427202
   6298,  -14.4670973,   15.3613119
   6299,  -14.3744268,   15.0816479
   6300,    -14.27635,    14.803833
   6301,   -14.172905,   14.5279732
   6302,  -14.0641308,   14.2541704
   6303,  -13.9500666,   13.9825287
   6304,  -13.8307571,     13.71315
   6305,  -13.7062464,   13.4461346
   6306,   -13.576581,   13.1815853
   6307,  -13.4418097,   12.9195986
   6308,  -13.3019838,   12.6602755
   6309,   -13.157156,   12.4037123
   6310,  -13.0073795,   12.1500063
   6311,  -12.8527117,   11.8992519
   6312,  -12.6932106,   11.6515436
   6313,  -12.5289364,   11.4069757
   6314,   -12.359951,    11.165638
   6315,  -12.1863165,   10.9276237
   6316,  -12.0080996,   10.6930208
   6317,   -11.825367,   10.4619179
   6318,  -11.6381874,   10.2344017
   6319,  -11.4466314,   10.0105572
   6320,  -11.2507706,   9.79047012
   6321,  -11.0506783,   9.57422256
   6322,  -10.8464308,   9.36189556
   6323,  -10.6381044,   9.15356922
   6324,  -10.4257774,   8.94932175
   6325,  -10.2095299,   8.74922943
   6326,  -9.98944283,   8.55336857
   6327,   -9.7655983,   8.36181259
   6328,  -9.53808212,   8.17463303
   6329,  -9.30697918,   7.99190044
   6330,  -9.07237625,   7.81368351
   6331,  -8.83436203,   7.64004946
   6332,  -8.59302425,   7.47106361
   6333,  -8.34845638,   7.30678892
   6334,  -8.10074806,   7.14728785
   6335,  -7.84999371,   6.99262047
   6336,  -7.59628725,   6.84284449
   6337,  -7.33972406,   6.69801617
   6338,  -7.08040094,   6.55819035
   6339,  -6.81841516,   6.42341948
   6340,  -6.55386496,    6.2937541
   6341,  -6.28685045,   6.16924286
   6342,  -6.01747131,   6.04993343
   6343,  -5.74582958,   5.93586969
   6344,  -5.47202682,   5.82709455
   6345,  -5.19616652,    5.7236495
   6346,  -4.91835213,   5.62557364
   6347,  -4.63868809,   5.53290272
   6348,   -4.3572793,   5.44567299
   6349,  -4.07423258,   5.36391592
   6350,   -3.7896533,   5.28766298
   6351,  -3.50364876,   5.21694326
   6352,  -3.21632695,   5.15178251
   6353,  -2.92779541,   5.09220552
   6354,  -2.63816285,   5.03823471
   6355,  -2.34753823,   4.98989058
   6356,  -2.05603099,   4.94719076
   6357,  -1.76375031,   4.91015196
   6358,  -1.47080636,   4.87878799
   6359,  -1.17730939,   4.85311031
   6360, -0.883369684,   4.83312893
   6361, -0.589097738,   4.81885099
   6362, -0.294604242,   4.81028175
   6363,           0.,    4.8074255
   6364,  0.294604242,   4.81028175
   6365,  0.589097738,   4.81885099
   6366,  0.883369684,   4.83312893
   6367,   1.17730939,   4.85311031
   6368,   1.47080636,   4.87878799
   6369,   1.76375031,   4.91015196
   6370,   2.05603099,   4.94719076
   6371,   2.34753823,   4.98989058
   6372,   2.63816285,   5.03823471
   6373,   2.92779541,   5.09220552
   6374,   3.21632695,   5.15178251
   6375,   3.50364876,   5.21694326
   6376,    3.7896533,   5.28766298
   6377,   4.07423258,   5.36391592
   6378,    4.3572793,   5.44567299
   6379,   4.63868809,   5.53290272
   6380,   4.91835213,   5.62557364
   6381,   5.19616652,    5.7236495
   6382,   5.47202682,   5.82709455
   6383,   5.74582958,   5.93586969
   6384,   6.01747131,   6.04993343
   6385,   6.28685045,   6.16924286
   6386,   6.55386496,    6.2937541
   6387,   6.81841516,   6.42341948
   6388,   7.08040094,   6.55819035
   6389,   7.33972406,   6.69801617
   6390,   7.59628725,   6.84284449
   6391,   7.84999371,   6.99262047
   6392,   8.10074806,   7.14728785
   6393,   8.34845638,   7.30678892
   6394,   8.59302425,   7.47106361
   6395,   8.83436203,   7.64004946
   6396,   9.07237625,   7.81368351
   6397,   9.30697918,   7.99190044
   6398,   9.53808212,   8.17463303
   6399,    9.7655983,   8.36181259
   6400,   9.98944283,   8.55336857
   6401,   10.2095299,   8.74922943
   6402,   10.4257774,   8.94932175
   6403,   10.6381044,   9.15356922
   6404,   10.8464308,   9.36189556
   6405,   11.0506783,   9.57422256
   6406,   11.2507706,   9.79047012
   6407,   11.4466314,   10.0105572
   6408,   11.6381874,   10.2344017
   6409,    11.825367,   10.4619179
   6410,   12.0080996,   10.6930208
   6411,   12.1863165,   10.9276237
   6412,    12.359951,    11.165638
   6413,   12.5289364,   11.4069757
   6414,   12.6932106,   11.6515436
   6415,   12.8527117,   11.8992519
   6416,   13.0073795,   12.1500063
   6417,    13.157156,   12.4037123
   6418,   13.3019838,   12.6602755
   6419,   13.4418097,   12.9195986
   6420,    13.576581,   13.1815853
   6421,   13.7062464,   13.4461346
   6422,   13.8307571,     13.71315
   6423,   13.9500666,   13.9825287
   6424,   14.0641308,   14.2541704
   6425,    14.172905,   14.5279732
   6426,     14.27635,    14.803833
   6427,   14.3744268,   15.0816479
   6428,   14.4670973,   15.3613119
   6429,    14.554327,   15.6427202
   6430,   14.6360836,   15.9257679
   6431,   14.7123365,   16.2103462
   6432,   14.7830572,   16.4963512
   6433,    14.848218,   16.7836723
   6434,    14.907795,   17.0722046
   6435,   14.9617653,   17.3618374
   6436,   15.0101099,    17.652462
   6437,   15.0528088,   17.9439697
   6438,   15.0898476,   18.2362499
   6439,    15.121212,   18.5291939
   6440,   15.1468897,    18.822691
   6441,   15.1668711,   19.1166306
   6442,   15.1811495,    19.410902
   6443,   15.1897182,   19.7053967
   6444,   15.1925745,          20.
   6445,  -14.8979883,   19.7110538
   6446,  -14.9007902,          20.
   6447,  -14.8895845,   19.4222164
   6448,  -14.8755808,   19.1335964
   6449,  -14.8559828,   18.8453026
   6450,  -14.8307981,   18.5574417
   6451,  -14.8000364,   18.2701244
   6452,  -14.7637091,   17.9834576
   6453,  -14.7218294,   17.6975479
   6454,  -14.6744137,   17.4125042
   6455,    -14.62148,   17.1284351
   6456,  -14.5630465,   16.8454456
   6457,  -14.4991379,   16.5636406
   6458,  -14.4297762,   16.2831306
   6459,  -14.3549871,   16.0040169
   6460,  -14.2748013,   15.7264051
   6461,  -14.1892462,   15.4504013
   6462,  -14.0983553,   15.1761084
   6463,  -14.0021629,   14.9036293
   6464,  -13.9007044,   14.6330671
   6465,  -13.7940187,   14.3645229
   6466,  -13.6821461,   14.0980988
   6467,  -13.5651274,   13.8338928
   6468,  -13.4430075,   13.5720062
   6469,  -13.3158321,   13.3125372
   6470,    -13.18365,    13.055583
   6471,  -13.0465097,   12.8012409
   6472,  -12.9044628,   12.5496044
   6473,  -12.7575636,   12.3007708
   6474,  -12.6058664,   12.0548325
   6475,  -12.4494286,    11.811882
   6476,  -12.2883091,    11.572011
   6477,  -12.1225691,    11.335309
   6478,  -11.9522696,   11.1018648
   6479,  -11.7774754,    10.871768
   6480,  -11.5982523,   10.6451035
   6481,  -11.4146681,    10.421957
   6482,  -11.2267904,   10.2024117
   6483,  -11.0346909,   9.98655224
   6484,  -10.8384418,   9.77445698
   6485,  -10.6381168,   9.56620789
   6486,  -10.4337921,   9.36188316
   6487,   -10.225543,   9.16155815
   6488,  -10.0134478,   8.96530914
   6489,  -9.79758835,   8.77320957
   6490,  -9.57804298,   8.58533192
   6491,  -9.35489655,    8.4017477
   6492,    -9.128232,   8.22252464
   6493,  -8.89813519,   8.04773045
   6494,  -8.66469097,   7.87743139
   6495,  -8.42798901,    7.7116909
   6496,  -8.18811798,   7.55057144
   6497,  -7.94516754,   7.39413357
   6498,  -7.69922876,   7.24243641
   6499,  -7.45039511,   7.09553719
   6500,  -7.19875956,   6.95349026
   6501,    -6.944417,   6.81634998
   6502,  -6.68746233,   6.68416739
   6503,   -6.4279933,   6.55699253
   6504,   -6.1661067,   6.43487263
   6505,  -5.90190172,    6.3178544
   6506,  -5.63547659,   6.20598125
   6507,  -5.36693287,   6.09929562
   6508,  -5.09637022,   5.99783707
   6509,  -4.82389164,   5.90164471
   6510,  -4.54959869,   5.81075382
   6511,  -4.27359486,   5.72519922
   6512,  -3.99598384,   5.64501238
   6513,  -3.71687007,   5.57022429
   6514,  -3.43635869,    5.5008626
   6515,  -3.15455508,   5.43695307
   6516,   -2.8715651,   5.37852049
   6517,  -2.58749509,   5.32558632
   6518,  -2.30245209,   5.27817059
   6519,  -2.01654339,   5.23629093
   6520,  -1.72987616,   5.19996357
   6521,  -1.44255853,   5.16920185
   6522,  -1.15469837,   5.14401722
   6523, -0.866403878,   5.12441921
   6524, -0.577783704,   5.11041594
   6525, -0.288946182,   5.10201168
   6526,           0.,   5.09920979
   6527,  0.288946182,   5.10201168
   6528,  0.577783704,   5.11041594
   6529,  0.866403878,   5.12441921
   6530,   1.15469837,   5.14401722
   6531,   1.44255853,   5.16920185
   6532,   1.72987616,   5.19996357
   6533,   2.01654339,   5.23629093
   6534,   2.30245209,   5.27817059
   6535,   2.58749509,   5.32558632
   6536,    2.8715651,   5.37852049
   6537,   3.15455508,   5.43695307
   6538,   3.43635869,    5.5008626
   6539,   3.71687007,   5.57022429
   6540,   3.99598384,   5.64501238
   6541,   4.27359486,   5.72519922
   6542,   4.54959869,   5.81075382
   6543,   4.82389164,   5.90164471
   6544,   5.09637022,   5.99783707
   6545,   5.36693287,   6.09929562
   6546,   5.63547659,   6.20598125
   6547,   5.90190172,    6.3178544
   6548,    6.1661067,   6.43487263
   6549,    6.4279933,   6.55699253
   6550,   6.68746233,   6.68416739
   6551,     6.944417,   6.81634998
   6552,   7.19875956,   6.95349026
   6553,   7.45039511,   7.09553719
   6554,   7.69922876,   7.24243641
   6555,   7.94516754,   7.39413357
   6556,   8.18811798,   7.55057144
   6557,   8.42798901,    7.7116909
   6558,   8.66469097,   7.87743139
   6559,   8.89813519,   8.04773045
   6560,     9.128232,   8.22252464
   6561,   9.35489655,    8.4017477
   6562,   9.57804298,   8.58533192
   6563,   9.79758835,   8.77320957
   6564,   10.0134478,   8.96530914
   6565,    10.225543,   9.16155815
   6566,   10.4337921,   9.36188316
   6567,   10.6381168,   9.56620789
   6568,   10.8384418,   9.77445698
   6569,   11.0346909,   9.98655224
   6570,   11.2267904,   10.2024117
   6571,   11.4146681,    10.421957
   6572,   11.5982523,   10.6451035
   6573,   11.7774754,    10.871768
   6574,   11.9522696,   11.1018648
   6575,   12.1225691,    11.335309
   6576,   12.2883091,    11.572011
   6577,   12.4494286,    11.811882
   6578,   12.6058664,   12.0548325
   6579,   12.7575636,   12.3007708
   6580,   12.9044628,   12.5496044
   6581,   13.0465097,   12.8012409
   6582,     13.18365,    13.055583
   6583,   13.3158321,   13.3125372
   6584,   13.4430075,   13.5720062
   6585,   13.5651274,   13.8338928
   6586,   13.6821461,   14.0980988
   6587,   13.7940187,   14.3645229
   6588,   13.9007044,   14.6330671
   6589,   14.0021629,   14.9036293
   6590,   14.0983553,   15.1761084
   6591,   14.1892462,   15.4504013
   6592,   14.2748013,   15.7264051
   6593,   14.3549871,   16.0040169
   6594,   14.4297762,   16.2831306
   6595,   14.4991379,   16.5636406
   6596,   14.5630465,   16.8454456
   6597,     14.62148,   17.1284351
   6598,   14.6744137,   17.4125042
   6599,   14.7218294,   17.6975479
   6600,   14.7637091,   17.9834576
   6601,   14.8000364,   18.2701244
   6602,   14.8307981,   18.5574417
   6603,   14.8559828,   18.8453026
   6604,   14.8755808,   19.1335964
   6605,   14.8895845,   19.4222164
   6606,   14.8979883,   19.7110538
   6607,   14.9007902,          20.
   6608,  -14.6118622,   19.7166023
   6609,  -14.6146097,          20.
   6610,  -14.6036186,   19.4333134
   6611,  -14.5898848,   19.1502361
   6612,  -14.5706625,   18.8674793
   6613,  -14.5459623,    18.585146
   6614,  -14.5157909,   18.3033466
   6615,  -14.4801617,   18.0221863
   6616,   -14.439086,   17.7417679
   6617,   -14.392581,   17.4622002
   6618,  -14.3406639,   17.1835861
   6619,  -14.2833529,   16.9060307
   6620,  -14.2206717,   16.6296387
   6621,  -14.1526413,   16.3545151
   6622,  -14.0792894,    16.080761
   6623,  -14.0006428,   15.8084822
   6624,  -13.9167318,   15.5377798
   6625,  -13.8275862,    15.268755
   6626,  -13.7332411,   15.0015087
   6627,  -13.6337318,   14.7361431
   6628,  -13.5290947,   14.4727564
   6629,  -13.4193707,   14.2114487
   6630,  -13.3045988,   13.9523172
   6631,  -13.1848249,   13.6954613
   6632,   -13.060092,   13.4409752
   6633,  -12.9304485,   13.1889553
   6634,  -12.7959423,   12.9394979
   6635,  -12.6566238,   12.6926947
   6636,  -12.5125456,   12.4486399
   6637,  -12.3637619,   12.2074251
   6638,  -12.2103281,    11.969141
   6639,  -12.0523033,   11.7338762
   6640,  -11.8897457,   11.5017204
   6641,  -11.7227173,   11.2727604
   6642,   -11.551281,   11.0470819
   6643,  -11.3754997,   10.8247709
   6644,  -11.1954403,   10.6059103
   6645,  -11.0111713,   10.3905821
   6646,  -10.8227615,   10.1788673
   6647,  -10.6302824,   9.97084618
   6648,  -10.4338045,   9.76659679
   6649,  -10.2334032,   9.56619549
   6650,  -10.0291538,    9.3697176
   6651,  -9.82113266,   9.17723846
   6652,  -9.60941792,   8.98882866
   6653,   -9.3940897,   8.80455971
   6654,  -9.17522907,   8.62450027
   6655,  -8.95291805,   8.44871902
   6656,  -8.72723961,   8.27728271
   6657,  -8.49827957,   8.11025429
   6658,  -8.26612377,   7.94769669
   6659,  -8.03085899,   7.78967142
   6660,  -7.79257488,   7.63623857
   6661,  -7.55135965,   7.48745489
   6662,  -7.30730486,   7.34337664
   6663,  -7.06050205,   7.20405817
   6664,  -6.81104422,   7.06955147
   6665,  -6.55902481,   6.93990755
   6666,   -6.3045392,   6.81517506
   6667,  -6.04768229,   6.69540071
   6668,  -5.78855133,   6.58062983
   6669,  -5.52724361,    6.4709053
   6670,  -5.26385689,   6.36626863
   6671,  -4.99849081,   6.26675892
   6672,  -4.73124504,   6.17241383
   6673,  -4.46222019,   6.08326864
   6674,  -4.19151735,   5.99935722
   6675,  -3.91923809,   5.92071056
   6676,  -3.64548492,    5.8473587
   6677,  -3.37036109,   5.77932882
   6678,  -3.09396958,   5.71664715
   6679,  -2.81641459,   5.65933657
   6680,  -2.53780031,   5.60741901
   6681,  -2.25823188,   5.56091356
   6682,   -1.9778142,   5.51983881
   6683,  -1.69665265,   5.48420906
   6684,   -1.4148531,   5.45403767
   6685,  -1.13252151,   5.42933702
   6686, -0.849763989,   5.41011572
   6687, -0.566686928,    5.3963809
   6688, -0.283396751,   5.38813829
   6689,           0.,   5.38539028
   6690,  0.283396751,   5.38813829
   6691,  0.566686928,    5.3963809
   6692,  0.849763989,   5.41011572
   6693,   1.13252151,   5.42933702
   6694,    1.4148531,   5.45403767
   6695,   1.69665265,   5.48420906
   6696,    1.9778142,   5.51983881
   6697,   2.25823188,   5.56091356
   6698,   2.53780031,   5.60741901
   6699,   2.81641459,   5.65933657
   6700,   3.09396958,   5.71664715
   6701,   3.37036109,   5.77932882
   6702,   3.64548492,    5.8473587
   6703,   3.91923809,   5.92071056
   6704,   4.19151735,   5.99935722
   6705,   4.46222019,   6.08326864
   6706,   4.73124504,   6.17241383
   6707,   4.99849081,   6.26675892
   6708,   5.26385689,   6.36626863
   6709,   5.52724361,    6.4709053
   6710,   5.78855133,   6.58062983
   6711,   6.04768229,   6.69540071
   6712,    6.3045392,   6.81517506
   6713,   6.55902481,   6.93990755
   6714,   6.81104422,   7.06955147
   6715,   7.06050205,   7.20405817
   6716,   7.30730486,   7.34337664
   6717,   7.55135965,   7.48745489
   6718,   7.79257488,   7.63623857
   6719,   8.03085899,   7.78967142
   6720,   8.26612377,   7.94769669
   6721,   8.49827957,   8.11025429
   6722,   8.72723961,   8.27728271
   6723,   8.95291805,   8.44871902
   6724,   9.17522907,   8.62450027
   6725,    9.3940897,   8.80455971
   6726,   9.60941792,   8.98882866
   6727,   9.82113266,   9.17723846
   6728,   10.0291538,    9.3697176
   6729,   10.2334032,   9.56619549
   6730,   10.4338045,   9.76659679
   6731,   10.6302824,   9.97084618
   6732,   10.8227615,   10.1788673
   6733,   11.0111713,   10.3905821
   6734,   11.1954403,   10.6059103
   6735,   11.3754997,   10.8247709
   6736,    11.551281,   11.0470819
   6737,   11.7227173,   11.2727604
   6738,   11.8897457,   11.5017204
   6739,   12.0523033,   11.7338762
   6740,   12.2103281,    11.969141
   6741,   12.3637619,   12.2074251
   6742,   12.5125456,   12.4486399
   6743,   12.6566238,   12.6926947
   6744,   12.7959423,   12.9394979
   6745,   12.9304485,   13.1889553
   6746,    13.060092,   13.4409752
   6747,   13.1848249,   13.6954613
   6748,   13.3045988,   13.9523172
   6749,   13.4193707,   14.2114487
   6750,   13.5290947,   14.4727564
   6751,   13.6337318,   14.7361431
   6752,   13.7332411,   15.0015087
   6753,   13.8275862,    15.268755
   6754,   13.9167318,   15.5377798
   6755,   14.0006428,   15.8084822
   6756,   14.0792894,    16.080761
   6757,   14.1526413,   16.3545151
   6758,   14.2206717,   16.6296387
   6759,   14.2833529,   16.9060307
   6760,   14.3406639,   17.1835861
   6761,    14.392581,   17.4622002
   6762,    14.439086,   17.7417679
   6763,   14.4801617,   18.0221863
   6764,   14.5157909,   18.3033466
   6765,   14.5459623,    18.585146
   6766,   14.5706625,   18.8674793
   6767,   14.5898848,   19.1502361
   6768,   14.6036186,   19.4333134
   6769,   14.6118622,   19.7166023
   6770,   14.6146097,          20.
   6771,  -14.3312302,   19.7220459
   6772,  -14.3339262,          20.
   6773,  -14.3231459,   19.4441967
   6774,  -14.3096752,   19.1665554
   6775,   -14.290823,   18.8892288
   6776,  -14.2665968,   18.6123199
   6777,  -14.2370052,   18.3359337
   6778,  -14.2020597,   18.0601711
   6779,  -14.1617727,   17.7851391
   6780,  -14.1161613,   17.5109406
   6781,  -14.0652409,   17.2376766
   6782,  -14.0090313,   16.9654522
   6783,  -13.9475527,   16.6943684
   6784,  -13.8808298,     16.42453
   6785,  -13.8088865,   16.1560345
   6786,  -13.7317505,   15.8889837
   6787,  -13.6494503,   15.6234798
   6788,  -13.5620174,    15.359622
   6789,  -13.4694843,   15.0975084
   6790,  -13.3718863,   14.8372393
   6791,  -13.2692585,   14.5789118
   6792,  -13.1616411,   14.3226223
   6793,  -13.0490751,   14.0684681
   6794,  -12.9316006,   13.8165445
   6795,  -12.8092642,    13.566946
   6796,  -12.6821098,    13.319767
   6797,  -12.5501871,   13.0750999
   6798,  -12.4135437,   12.8330374
   6799,   -12.272233,   12.5936699
   6800,  -12.1263065,   12.3570871
   6801,  -11.9758205,   12.1233788
   6802,  -11.8208303,   11.8926334
   6803,  -11.6613951,   11.6649361
   6804,  -11.4975739,   11.4403734
   6805,  -11.3294296,   11.2190294
   6806,  -11.1570253,    11.000988
   6807,  -10.9804239,   10.7863302
   6808,  -10.7996941,   10.5751371
   6809,  -10.6149025,   10.3674889
   6810,  -10.4261198,   10.1634636
   6811,  -10.2334156,   9.96313667
   6812,  -10.0368633,    9.7665844
   6813,  -9.83653641,    9.5738802
   6814,  -9.63251114,    9.3850975
   6815,  -9.42486286,   9.20030594
   6816,  -9.21366978,   9.01957607
   6817,  -8.99901199,   8.84297466
   6818,  -8.78097057,   8.67057037
   6819,  -8.55962658,   8.50242615
   6820,  -8.33506393,   8.33860493
   6821,  -8.10736656,   8.17916965
   6822,  -7.87662077,   8.02417946
   6823,  -7.64291286,   7.87369347
   6824,  -7.40633059,   7.72776699
   6825,   -7.1669631,    7.5864563
   6826,  -6.92490005,   7.44981337
   6827,    -6.680233,   7.31789017
   6828,  -6.43305397,   7.19073629
   6829,  -6.18345594,   7.06839895
   6830,  -5.93153238,   6.95092535
   6831,  -5.67737818,    6.8383584
   6832,   -5.4210887,    6.7307415
   6833,  -5.16276073,   6.62811422
   6834,  -4.90249157,   6.53051567
   6835,  -4.64037848,   6.43798256
   6836,  -4.37652016,    6.3505497
   6837,  -4.11101627,   6.26824951
   6838,  -3.84396625,   6.19111347
   6839,  -3.57547092,   6.11917019
   6840,  -3.30563068,   6.05244684
   6841,  -3.03454757,   5.99096918
   6842,  -2.76232314,   5.93475914
   6843,  -2.48906016,   5.88383865
   6844,  -2.21486092,    5.8382268
   6845,  -1.93982875,   5.79794073
   6846,  -1.66406727,   5.76299524
   6847,  -1.38767982,   5.73340368
   6848,  -1.11077058,   5.70917702
   6849, -0.833443642,   5.69032478
   6850, -0.555803299,   5.67685413
   6851, -0.277953923,   5.66876936
   6852,           0.,   5.66607428
   6853,  0.277953923,   5.66876936
   6854,  0.555803299,   5.67685413
   6855,  0.833443642,   5.69032478
   6856,   1.11077058,   5.70917702
   6857,   1.38767982,   5.73340368
   6858,   1.66406727,   5.76299524
   6859,   1.93982875,   5.79794073
   6860,   2.21486092,    5.8382268
   6861,   2.48906016,   5.88383865
   6862,   2.76232314,   5.93475914
   6863,   3.03454757,   5.99096918
   6864,   3.30563068,   6.05244684
   6865,   3.57547092,   6.11917019
   6866,   3.84396625,   6.19111347
   6867,   4.11101627,   6.26824951
   6868,   4.37652016,    6.3505497
   6869,   4.64037848,   6.43798256
   6870,   4.90249157,   6.53051567
   6871,   5.16276073,   6.62811422
   6872,    5.4210887,    6.7307415
   6873,   5.67737818,    6.8383584
   6874,   5.93153238,   6.95092535
   6875,   6.18345594,   7.06839895
   6876,   6.43305397,   7.19073629
   6877,     6.680233,   7.31789017
   6878,   6.92490005,   7.44981337
   6879,    7.1669631,    7.5864563
   6880,   7.40633059,   7.72776699
   6881,   7.64291286,   7.87369347
   6882,   7.87662077,   8.02417946
   6883,   8.10736656,   8.17916965
   6884,   8.33506393,   8.33860493
   6885,   8.55962658,   8.50242615
   6886,   8.78097057,   8.67057037
   6887,   8.99901199,   8.84297466
   6888,   9.21366978,   9.01957607
   6889,   9.42486286,   9.20030594
   6890,   9.63251114,    9.3850975
   6891,   9.83653641,    9.5738802
   6892,   10.0368633,    9.7665844
   6893,   10.2334156,   9.96313667
   6894,   10.4261198,   10.1634636
   6895,   10.6149025,   10.3674889
   6896,   10.7996941,   10.5751371
   6897,   10.9804239,   10.7863302
   6898,   11.1570253,    11.000988
   6899,   11.3294296,   11.2190294
   6900,   11.4975739,   11.4403734
   6901,   11.6613951,   11.6649361
   6902,   11.8208303,   11.8926334
   6903,   11.9758205,   12.1233788
   6904,   12.1263065,   12.3570871
   6905,    12.272233,   12.5936699
   6906,   12.4135437,   12.8330374
   6907,   12.5501871,   13.0750999
   6908,   12.6821098,    13.319767
   6909,   12.8092642,    13.566946
   6910,   12.9316006,   13.8165445
   6911,   13.0490751,   14.0684681
   6912,   13.1616411,   14.3226223
   6913,   13.2692585,   14.5789118
   6914,   13.3718863,   14.8372393
   6915,   13.4694843,   15.0975084
   6916,   13.5620174,    15.359622
   6917,   13.6494503,   15.6234798
   6918,   13.7317505,   15.8889837
   6919,   13.8088865,   16.1560345
   6920,   13.8808298,     16.42453
   6921,   13.9475527,   16.6943684
   6922,   14.0090313,   16.9654522
   6923,   14.0652409,   17.2376766
   6924,   14.1161613,   17.5109406
   6925,   14.1617727,   17.7851391
   6926,   14.2020597,   18.0601711
   6927,   14.2370052,   18.3359337
   6928,   14.2665968,   18.6123199
   6929,    14.290823,   18.8892288
   6930,   14.3096752,   19.1665554
   6931,   14.3231459,   19.4441967
   6932,   14.3312302,   19.7220459
   6933,   14.3339262,          20.
   6934,  -14.0559893,   19.7273846
   6935,  -14.0586329,          20.
   6936,  -14.0480595,   19.4548721
   6937,  -14.0348473,   19.1825638
   6938,  -14.0163574,   18.9105625
   6939,  -13.9925957,   18.6389713
   6940,  -13.9635725,   18.3678932
   6941,  -13.9292984,   18.0974274
   6942,  -13.8897858,   17.8276768
   6943,  -13.8450499,   17.5587444
   6944,  -13.7951078,   17.2907295
   6945,  -13.7399778,   17.0237331
   6946,  -13.6796799,   16.7578564
   6947,  -13.6142387,   16.4931984
   6948,  -13.5436773,   16.2298603
   6949,  -13.4680223,   15.9679384
   6950,  -13.3873034,   15.7075338
   6951,   -13.301549,   15.4487438
   6952,  -13.2107935,   15.1916647
   6953,  -13.1150694,   14.9363937
   6954,  -13.0144129,   14.6830273
   6955,  -12.9088631,   14.4316597
   6956,  -12.7984581,   14.1823874
   6957,  -12.6832399,   13.9353018
   6958,  -12.5632524,   13.6904974
   6959,  -12.4385405,   13.4480658
   6960,  -12.3091516,   13.2080975
   6961,  -12.1751328,   12.9706841
   6962,  -12.0365353,   12.7359133
   6963,  -11.8934126,   12.5038748
   6964,  -11.7458162,   12.2746553
   6965,  -11.5938025,   12.0483408
   6966,  -11.4374294,    11.825017
   6967,  -11.2767553,   11.6047668
   6968,  -11.1118402,   11.3876743
   6969,  -10.9427462,   11.1738205
   6970,   -10.769537,   10.9632854
   6971,  -10.5922785,   10.7561483
   6972,  -10.4110365,   10.5524883
   6973,  -10.2258787,   10.3523808
   6974,  -10.0368757,   10.1559019
   6975,  -9.84409809,   9.96312428
   6976,  -9.64761925,   9.77412128
   6977,  -9.44751167,   9.58896351
   6978,  -9.24385166,   9.40772152
   6979,  -9.03671455,   9.23046303
   6980,   -8.8261795,   9.05725384
   6981,  -8.61232567,   8.88815975
   6982,  -8.39523315,   8.72324467
   6983,  -8.17498302,   8.56257057
   6984,   -7.9516592,   8.40619755
   6985,  -7.72534466,   8.25418377
   6986,  -7.49612522,   8.10658741
   6987,  -7.26408672,   7.96346426
   6988,  -7.02931643,   7.82486725
   6989,  -6.79190254,   7.69084883
   6990,  -6.55193472,   7.56145906
   6991,   -6.3095026,   7.43674707
   6992,  -6.06469822,   7.31675959
   6993,  -5.81761265,    7.2015419
   6994,  -5.56833982,   7.09113741
   6995,  -5.31697273,   6.98558712
   6996,  -5.06360626,   6.88493109
   6997,   -4.8083353,   6.78920698
   6998,  -4.55125666,   6.69845104
   6999,  -4.29246616,   6.61269712
   7000,   -4.0320611,   6.53197765
   7001,  -3.77014017,   6.45632315
   7002,  -3.50680137,   6.38576174
   7003,  -3.24214387,   6.32031965
   7004,  -2.97626686,   6.26002264
   7005,  -2.70927072,   6.20489216
   7006,  -2.44125581,   6.15494967
   7007,  -2.17232299,   6.11021376
   7008,  -1.90257299,   6.07070112
   7009,  -1.63210762,   6.03642702
   7010,  -1.36102843,   6.00740385
   7011,  -1.08943748,   5.98364258
   7012, -0.817436755,   5.96515274
   7013, -0.545128703,   5.95194054
   7014, -0.272615612,   5.94401121
   7015,           0.,   5.94136763
   7016,  0.272615612,   5.94401121
   7017,  0.545128703,   5.95194054
   7018,  0.817436755,   5.96515274
   7019,   1.08943748,   5.98364258
   7020,   1.36102843,   6.00740385
   7021,   1.63210762,   6.03642702
   7022,   1.90257299,   6.07070112
   7023,   2.17232299,   6.11021376
   7024,   2.44125581,   6.15494967
   7025,   2.70927072,   6.20489216
   7026,   2.97626686,   6.26002264
   7027,   3.24214387,   6.32031965
   7028,   3.50680137,   6.38576174
   7029,   3.77014017,   6.45632315
   7030,    4.0320611,   6.53197765
   7031,   4.29246616,   6.61269712
   7032,   4.55125666,   6.69845104
   7033,    4.8083353,   6.78920698
   7034,   5.06360626,   6.88493109
   7035,   5.31697273,   6.98558712
   7036,   5.56833982,   7.09113741
   7037,   5.81761265,    7.2015419
   7038,   6.06469822,   7.31675959
   7039,    6.3095026,   7.43674707
   7040,   6.55193472,   7.56145906
   7041,   6.79190254,   7.69084883
   7042,   7.02931643,   7.82486725
   7043,   7.26408672,   7.96346426
   7044,   7.49612522,   8.10658741
   7045,   7.72534466,   8.25418377
   7046,    7.9516592,   8.40619755
   7047,   8.17498302,   8.56257057
   7048,   8.39523315,   8.72324467
   7049,   8.61232567,   8.88815975
   7050,    8.8261795,   9.05725384
   7051,   9.03671455,   9.23046303
   7052,   9.24385166,   9.40772152
   7053,   9.44751167,   9.58896351
   7054,   9.64761925,   9.77412128
   7055,   9.84409809,   9.96312428
   7056,   10.0368757,   10.1559019
   7057,   10.2258787,   10.3523808
   7058,   10.4110365,   10.5524883
   7059,   10.5922785,   10.7561483
   7060,    10.769537,   10.9632854
   7061,   10.9427462,   11.1738205
   7062,   11.1118402,   11.3876743
   7063,   11.2767553,   11.6047668
   7064,   11.4374294,    11.825017
   7065,   11.5938025,   12.0483408
   7066,   11.7458162,   12.2746553
   7067,   11.8934126,   12.5038748
   7068,   12.0365353,   12.7359133
   7069,   12.1751328,   12.9706841
   7070,   12.3091516,   13.2080975
   7071,   12.4385405,   13.4480658
   7072,   12.5632524,   13.6904974
   7073,   12.6832399,   13.9353018
   7074,   12.7984581,   14.1823874
   7075,   12.9088631,   14.4316597
   7076,   13.0144129,   14.6830273
   7077,   13.1150694,   14.9363937
   7078,   13.2107935,   15.1916647
   7079,    13.301549,   15.4487438
   7080,   13.3873034,   15.7075338
   7081,   13.4680223,   15.9679384
   7082,   13.5436773,   16.2298603
   7083,   13.6142387,   16.4931984
   7084,   13.6796799,   16.7578564
   7085,   13.7399778,   17.0237331
   7086,   13.7951078,   17.2907295
   7087,   13.8450499,   17.5587444
   7088,   13.8897858,   17.8276768
   7089,   13.9292984,   18.0974274
   7090,   13.9635725,   18.3678932
   7091,   13.9925957,   18.6389713
   7092,   14.0163574,   18.9105625
   7093,   14.0348473,   19.1825638
   7094,   14.0480595,   19.4548721
   7095,   14.0559893,   19.7273846
   7096,   14.0586329,          20.
   7097,  -13.7860336,   19.7326202
   7098,  -13.7886267,          20.
   7099,  -13.7782564,   19.4653416
   7100,  -13.7652979,   19.1982632
   7101,  -13.7471628,   18.9314861
   7102,  -13.7238579,   18.6651115
   7103,  -13.6953926,   18.3992386
   7104,  -13.6617765,   18.1339664
   7105,   -13.623023,   17.8693981
   7106,  -13.5791464,   17.6056309
   7107,  -13.5301628,    17.342762
   7108,  -13.4760914,   17.0808945
   7109,  -13.4169521,   16.8201237
   7110,   -13.352767,   16.5605488
   7111,  -13.2835608,    16.302269
   7112,  -13.2093592,   16.0453777
   7113,  -13.1301899,   15.7899742
   7114,  -13.0460835,   15.5361538
   7115,  -12.9570704,   15.2840118
   7116,  -12.8631849,   15.0336437
   7117,  -12.7644615,   14.7851439
   7118,  -12.6609383,   14.5386038
   7119,  -12.5526543,   14.2941189
   7120,  -12.4396496,   14.0517788
   7121,  -12.3219662,    13.811676
   7122,  -12.1996498,   13.5739002
   7123,  -12.0727453,    13.338541
   7124,  -11.9413004,   13.1056871
   7125,  -11.8053656,   12.8754253
   7126,  -11.6649904,   12.6478434
   7127,  -11.5202293,   12.4230261
   7128,  -11.3711357,   12.2010584
   7129,  -11.2177658,   11.9820232
   7130,  -11.0601768,   11.7660036
   7131,  -10.8984289,   11.5530796
   7132,   -10.732583,   11.3433332
   7133,  -10.5627003,   11.1368418
   7134,  -10.3888464,   10.9336834
   7135,  -10.2110844,   10.7339344
   7136,  -10.0294828,   10.5376701
   7137,  -9.84411049,    10.344965
   7138,  -9.65503502,   10.1558895
   7139,  -9.46232986,   9.97051716
   7140,   -9.2660656,   9.78891563
   7141,   -9.0663166,    9.6111536
   7142,  -8.86315823,   9.43729973
   7143,  -8.65666676,   9.26741695
   7144,  -8.44692039,   9.10157108
   7145,  -8.23399639,   8.93982315
   7146,  -8.01797676,   8.78223419
   7147,  -7.79894161,   8.62886429
   7148,  -7.57697392,   8.47977066
   7149,  -7.35215664,   8.33500957
   7150,  -7.12457466,   8.19463444
   7151,  -6.89431334,   8.05869961
   7152,  -6.66145897,   7.92725468
   7153,  -6.42609978,   7.80035019
   7154,  -6.18832397,   7.67803335
   7155,  -5.94822121,   7.56035042
   7156,   -5.7058816,   7.44734573
   7157,  -5.46139574,   7.33906126
   7158,  -5.21485662,   7.23553801
   7159,   -4.9663558,   7.13681507
   7160,  -4.71598768,   7.04292965
   7161,  -4.46384621,   6.95391655
   7162,  -4.21002626,   6.86980963
   7163,  -3.95462251,   6.79064083
   7164,  -3.69773197,   6.71643925
   7165,  -3.43945074,   6.64723301
   7166,  -3.17987609,   6.58304787
   7167,  -2.91910553,   6.52390862
   7168,  -2.65723729,   6.46983719
   7169,  -2.39436984,   6.42085409
   7170,  -2.13060188,   6.37697744
   7171,  -1.86603272,   6.33822346
   7172,  -1.60076177,   6.30460739
   7173,  -1.33488894,   6.27614164
   7174,  -1.06851399,   6.25283718
   7175, -0.801737309,   6.23470211
   7176, -0.534659088,   6.22174358
   7177,  -0.26737982,   6.21396637
   7178,           0.,   6.21137381
   7179,   0.26737982,   6.21396637
   7180,  0.534659088,   6.22174358
   7181,  0.801737309,   6.23470211
   7182,   1.06851399,   6.25283718
   7183,   1.33488894,   6.27614164
   7184,   1.60076177,   6.30460739
   7185,   1.86603272,   6.33822346
   7186,   2.13060188,   6.37697744
   7187,   2.39436984,   6.42085409
   7188,   2.65723729,   6.46983719
   7189,   2.91910553,   6.52390862
   7190,   3.17987609,   6.58304787
   7191,   3.43945074,   6.64723301
   7192,   3.69773197,   6.71643925
   7193,   3.95462251,   6.79064083
   7194,   4.21002626,   6.86980963
   7195,   4.46384621,   6.95391655
   7196,   4.71598768,   7.04292965
   7197,    4.9663558,   7.13681507
   7198,   5.21485662,   7.23553801
   7199,   5.46139574,   7.33906126
   7200,    5.7058816,   7.44734573
   7201,   5.94822121,   7.56035042
   7202,   6.18832397,   7.67803335
   7203,   6.42609978,   7.80035019
   7204,   6.66145897,   7.92725468
   7205,   6.89431334,   8.05869961
   7206,   7.12457466,   8.19463444
   7207,   7.35215664,   8.33500957
   7208,   7.57697392,   8.47977066
   7209,   7.79894161,   8.62886429
   7210,   8.01797676,   8.78223419
   7211,   8.23399639,   8.93982315
   7212,   8.44692039,   9.10157108
   7213,   8.65666676,   9.26741695
   7214,   8.86315823,   9.43729973
   7215,    9.0663166,    9.6111536
   7216,    9.2660656,   9.78891563
   7217,   9.46232986,   9.97051716
   7218,   9.65503502,   10.1558895
   7219,   9.84411049,    10.344965
   7220,   10.0294828,   10.5376701
   7221,   10.2110844,   10.7339344
   7222,   10.3888464,   10.9336834
   7223,   10.5627003,   11.1368418
   7224,    10.732583,   11.3433332
   7225,   10.8984289,   11.5530796
   7226,   11.0601768,   11.7660036
   7227,   11.2177658,   11.9820232
   7228,   11.3711357,   12.2010584
   7229,   11.5202293,   12.4230261
   7230,   11.6649904,   12.6478434
   7231,   11.8053656,   12.8754253
   7232,   11.9413004,   13.1056871
   7233,   12.0727453,    13.338541
   7234,   12.1996498,   13.5739002
   7235,   12.3219662,    13.811676
   7236,   12.4396496,   14.0517788
   7237,   12.5526543,   14.2941189
   7238,   12.6609383,   14.5386038
   7239,   12.7644615,   14.7851439
   7240,   12.8631849,   15.0336437
   7241,   12.9570704,   15.2840118
   7242,   13.0460835,   15.5361538
   7243,   13.1301899,   15.7899742
   7244,   13.2093592,   16.0453777
   7245,   13.2835608,    16.302269
   7246,    13.352767,   16.5605488
   7247,   13.4169521,   16.8201237
   7248,   13.4760914,   17.0808945
   7249,   13.5301628,    17.342762
   7250,   13.5791464,   17.6056309
   7251,    13.623023,   17.8693981
   7252,   13.6617765,   18.1339664
   7253,   13.6953926,   18.3992386
   7254,   13.7238579,   18.6651115
   7255,   13.7471628,   18.9314861
   7256,   13.7652979,   19.1982632
   7257,   13.7782564,   19.4653416
   7258,   13.7860336,   19.7326202
   7259,   13.7886267,          20.
   7260,  -13.5212631,   19.7377548
   7261,   -13.009325,          20.
   7262,  -13.5136347,   19.4756088
   7263,  -12.9873152,   19.2435741
   7264,   -13.483139,   18.9520073
   7265,  -13.4602814,   18.6907482
   7266,   -12.921361,   18.4897099
   7267,  -13.3993921,   18.1698055
   7268,  -13.3613825,   17.9103184
   7269,  -12.8116846,   17.7409534
   7270,  -13.2703066,   17.3937969
   7271,  -13.2172728,   17.1369572
   7272,  -12.6586571,   16.9998436
   7273,  -13.0963173,    16.626606
   7274,  -13.0284405,   16.3732853
   7275,  -12.4627972,   16.2688828
   7276,  -12.8780155,   15.8708305
   7277,  -12.7955236,   15.6218853
   7278,  -12.2247667,   15.5505486
   7279,  -12.6161375,   15.1290264
   7280,   -12.519311,   14.8852987
   7281,  -11.9453716,   14.8472691
   7282,  -12.3115711,   14.4037037
   7283,   -12.200737,   14.1660185
   7284,  -11.6255579,   14.1614256
   7285,  -11.9653463,   13.6973181
   7286,  -11.8408794,   13.4664793
   7287,  -11.2664061,   13.4953375
   7288,  -11.5786352,   13.0122585
   7289,  -11.4409561,   12.7890472
   7290,   -10.869133,   12.8512592
   7291,  -11.1527443,   12.3508425
   7292,  -11.0023203,    12.136014
   7293,  -10.4350815,     12.23137
   7294,  -10.6891165,   11.7153091
   7295,  -10.5264559,   11.5095911
   7296,  -9.96572113,   11.6377668
   7297,  -10.1893206,   11.1078091
   7298,  -10.0149736,   10.9118967
   7299,  -9.46263981,   11.0724592
   7300,  -9.65504742,   10.5303965
   7301,  -9.46960354,   10.3449526
   7302,  -8.92754078,   10.5373602
   7303,  -9.08810329,   9.98502636
   7304,  -8.89219093,   9.81067944
   7305,  -8.36223316,   10.0342789
   7306,   -8.4904089,   9.47354412
   7307,  -8.28469086,   9.31088352
   7308,   -7.7686305,   9.56491852
   7309,  -7.86398602,   8.99767971
   7310,  -7.64915752,   8.84725571
   7311,  -7.14874077,     9.130867
   7312,  -7.21095324,   8.55904388
   7313,  -6.98774195,   8.42136478
   7314,  -6.50466251,   8.73359394
   7315,   -6.5335207,   8.15912056
   7316,  -6.30268192,   8.03465366
   7317,  -5.83857441,    8.3744421
   7318,  -5.83398151,     7.799263
   7319,  -5.59629583,    7.6884284
   7320,  -5.15273046,   8.05462837
   7321,  -5.11470127,   7.48068905
   7322,  -4.87097359,   7.38386202
   7323,  -4.44945145,   7.77523327
   7324,   -4.3781147,   7.20447636
   7325,  -4.12916946,   7.12198448
   7326,  -3.73111653,   7.53720284
   7327,  -3.62671423,   6.97155952
   7328,  -3.37339354,   6.90368223
   7329,  -3.00015688,   7.34134293
   7330,  -2.86304212,   6.78272676
   7331,  -2.60620308,   6.72969389
   7332,   -2.2590456,   7.18831587
   7333,   -2.0896821,   6.63861704
   7334,  -1.83019423,   6.60060787
   7335,   -1.5102905,   7.07863903
   7336,  -1.30925143,   6.53971815
   7337,  -1.04799247,   6.51686096
   7338, -0.756424963,   7.01268435
   7339, -0.524390578,   6.48636484
   7340, -0.262244612,   6.47873735
   7341,           0.,   6.99067497
   7342,  0.262244612,   6.47873735
   7343,  0.524390578,   6.48636484
   7344,  0.756424963,   7.01268435
   7345,   1.04799247,   6.51686096
   7346,   1.30925143,   6.53971815
   7347,    1.5102905,   7.07863903
   7348,   1.83019423,   6.60060787
   7349,    2.0896821,   6.63861704
   7350,    2.2590456,   7.18831587
   7351,   2.60620308,   6.72969389
   7352,   2.86304212,   6.78272676
   7353,   3.00015688,   7.34134293
   7354,   3.37339354,   6.90368223
   7355,   3.62671423,   6.97155952
   7356,   3.73111653,   7.53720284
   7357,   4.12916946,   7.12198448
   7358,    4.3781147,   7.20447636
   7359,   4.44945145,   7.77523327
   7360,   4.87097359,   7.38386202
   7361,   5.11470127,   7.48068905
   7362,   5.15273046,   8.05462837
   7363,   5.59629583,    7.6884284
   7364,   5.83398151,     7.799263
   7365,   5.83857441,    8.3744421
   7366,   6.30268192,   8.03465366
   7367,    6.5335207,   8.15912056
   7368,   6.50466251,   8.73359394
   7369,   6.98774195,   8.42136478
   7370,   7.21095324,   8.55904388
   7371,   7.14874077,     9.130867
   7372,   7.64915752,   8.84725571
   7373,   7.86398602,   8.99767971
   7374,    7.7686305,   9.56491852
   7375,   8.28469086,   9.31088352
   7376,    8.4904089,   9.47354412
   7377,   8.36223316,   10.0342789
   7378,   8.89219093,   9.81067944
   7379,   9.08810329,   9.98502636
   7380,   8.92754078,   10.5373602
   7381,   9.46960354,   10.3449526
   7382,   9.65504742,   10.5303965
   7383,   9.46263981,   11.0724592
   7384,   10.0149736,   10.9118967
   7385,   10.1893206,   11.1078091
   7386,   9.96572113,   11.6377668
   7387,   10.5264559,   11.5095911
   7388,   10.6891165,   11.7153091
   7389,   10.4350815,     12.23137
   7390,   11.0023203,    12.136014
   7391,   11.1527443,   12.3508425
   7392,    10.869133,   12.8512592
   7393,   11.4409561,   12.7890472
   7394,   11.5786352,   13.0122585
   7395,   11.2664061,   13.4953375
   7396,   11.8408794,   13.4664793
   7397,   11.9653463,   13.6973181
   7398,   11.6255579,   14.1614256
   7399,    12.200737,   14.1660185
   7400,   12.3115711,   14.4037037
   7401,   11.9453716,   14.8472691
   7402,    12.519311,   14.8852987
   7403,   12.6161375,   15.1290264
   7404,   12.2247667,   15.5505486
   7405,   12.7955236,   15.6218853
   7406,   12.8780155,   15.8708305
   7407,   12.4627972,   16.2688828
   7408,   13.0284405,   16.3732853
   7409,   13.0963173,    16.626606
   7410,   12.6586571,   16.9998436
   7411,   13.2172728,   17.1369572
   7412,   13.2703066,   17.3937969
   7413,   12.8116846,   17.7409534
   7414,   13.3613825,   17.9103184
   7415,   13.3993921,   18.1698055
   7416,    12.921361,   18.4897099
   7417,   13.4602814,   18.6907482
   7418,    13.483139,   18.9520073
   7419,   12.9873152,   19.2435741
   7420,   13.5136347,   19.4756088
   7421,   13.5212631,   19.7377548
   7422,    13.009325,          20.
   7423,  -12.2533026,   19.2863255
   7424,  -12.2740688,          20.
   7425,  -12.1910753,   18.5750675
   7426,  -12.0875978,   17.8686295
   7427,  -11.9432192,    17.169405
   7428,  -11.7584286,   16.4797573
   7429,  -11.5338516,    15.802021
   7430,  -11.2702475,   15.1384897
   7431,  -10.9685078,   14.4914083
   7432,  -10.6296549,   13.8629656
   7433,  -10.2548342,   13.2552891
   7434,  -9.84531498,    12.670435
   7435,  -9.40248203,   12.1103811
   7436,  -8.92783356,   11.5770235
   7437,  -8.42297649,   11.0721664
   7438,  -7.88961935,    10.597518
   7439,  -7.32956553,    10.154685
   7440,  -6.74471092,   9.74516582
   7441,  -6.13703442,   9.37034512
   7442,  -5.50859165,   9.03149223
   7443,  -4.86151028,   8.72975254
   7444,   -4.1979785,   8.46614838
   7445,  -3.52024245,   8.24157143
   7446,  -2.83059502,   8.05678082
   7447,  -2.13136959,   7.91240215
   7448,  -1.42493236,    7.8089242
   7449, -0.713673592,   7.74669743
   7450,           0.,   7.72593164
   7451,  0.713673592,   7.74669743
   7452,   1.42493236,    7.8089242
   7453,   2.13136959,   7.91240215
   7454,   2.83059502,   8.05678082
   7455,   3.52024245,   8.24157143
   7456,    4.1979785,   8.46614838
   7457,   4.86151028,   8.72975254
   7458,   5.50859165,   9.03149223
   7459,   6.13703442,   9.37034512
   7460,   6.74471092,   9.74516582
   7461,   7.32956553,    10.154685
   7462,   7.88961935,    10.597518
   7463,   8.42297649,   11.0721664
   7464,   8.92783356,   11.5770235
   7465,   9.40248203,   12.1103811
   7466,   9.84531498,    12.670435
   7467,   10.2548342,   13.2552891
   7468,   10.6296549,   13.8629656
   7469,   10.9685078,   14.4914083
   7470,   11.2702475,   15.1384897
   7471,   11.5338516,    15.802021
   7472,   11.7584286,   16.4797573
   7473,   11.9432192,    17.169405
   7474,   12.0875978,   17.8686295
   7475,   12.1910753,   18.5750675
   7476,   12.2533026,   19.2863255
   7477,   12.2740688,          20.
   7478,  -11.5607748,   19.3266621
   7479,  -11.5803671,          20.
   7480,  -11.5020647,   18.6556015
   7481,  -11.4044352,     17.98909
   7482,  -11.2682161,   17.3293839
   7483,  -11.0938702,   16.6787128
   7484,  -10.8819847,   16.0392818
   7485,  -10.6332788,   15.4132509
   7486,  -10.3485937,   14.8027411
   7487,  -10.0288916,   14.2098169
   7488,  -9.67525482,   13.6364841
   7489,  -9.28888035,   13.0846844
   7490,  -8.87107563,    12.556284
   7491,  -8.42325306,   12.0530701
   7492,  -7.94692993,   11.5767469
   7493,  -7.44371605,   11.1289244
   7494,  -6.91531563,   10.7111197
   7495,  -6.36351538,   10.3247452
   7496,  -5.79018354,   9.97110844
   7497,  -5.19725895,   9.65140629
   7498,  -4.58674908,   9.36672115
   7499,  -3.96071863,   9.11801529
   7500,  -3.32128668,   8.90612984
   7501,  -2.67061639,   8.73178387
   7502,  -2.01090956,   8.59556484
   7503,   -1.3443985,    8.4979353
   7504, -0.673338413,    8.4392252
   7505,           0.,   8.41963291
   7506,  0.673338413,    8.4392252
   7507,    1.3443985,    8.4979353
   7508,   2.01090956,   8.59556484
   7509,   2.67061639,   8.73178387
   7510,   3.32128668,   8.90612984
   7511,   3.96071863,   9.11801529
   7512,   4.58674908,   9.36672115
   7513,   5.19725895,   9.65140629
   7514,   5.79018354,   9.97110844
   7515,   6.36351538,   10.3247452
   7516,   6.91531563,   10.7111197
   7517,   7.44371605,   11.1289244
   7518,   7.94692993,   11.5767469
   7519,   8.42325306,   12.0530701
   7520,   8.87107563,    12.556284
   7521,   9.28888035,   13.0846844
   7522,   9.67525482,   13.6364841
   7523,   10.0288916,   14.2098169
   7524,   10.3485937,   14.8027411
   7525,   10.6332788,   15.4132509
   7526,   10.8819847,   16.0392818
   7527,   11.0938702,   16.6787128
   7528,   11.2682161,   17.3293839
   7529,   11.4044352,     17.98909
   7530,   11.5020647,   18.6556015
   7531,   11.5607748,   19.3266621
   7532,   11.5803671,          20.
   7533,  -10.9073868,   19.3647175
   7534,  -10.9258718,          20.
   7535,  -10.8519945,   18.7315845
   7536,  -10.7598829,   18.1027431
   7537,  -10.6313629,     17.48032
   7538,  -10.4668703,   16.8664246
   7539,  -10.2669611,   16.2631321
   7540,  -10.0323114,   15.6724834
   7541,  -9.76371574,   15.0964775
   7542,  -9.46208191,   14.5370646
   7543,  -9.12843227,   13.9961357
   7544,  -8.76389503,    13.475522
   7545,  -8.36970329,    12.976985
   7546,  -7.94719076,   12.5022125
   7547,  -7.49778795,   12.0528088
   7548,  -7.02301455,   11.6302967
   7549,  -6.52447796,    11.236105
   7550,  -6.00386429,   10.8715677
   7551,  -5.46293592,   10.5379181
   7552,  -4.90352201,   10.2362843
   7553,  -4.32751656,   9.96768856
   7554,  -3.73686814,    9.7330389
   7555,   -3.1335752,   9.53312969
   7556,  -2.51967931,   9.36863708
   7557,  -1.89725769,   9.24011707
   7558,  -1.26841629,   9.14800549
   7559, -0.635282934,   9.09261322
   7560,           0.,   9.07412815
   7561,  0.635282934,   9.09261322
   7562,   1.26841629,   9.14800549
   7563,   1.89725769,   9.24011707
   7564,   2.51967931,   9.36863708
   7565,    3.1335752,   9.53312969
   7566,   3.73686814,    9.7330389
   7567,   4.32751656,   9.96768856
   7568,   4.90352201,   10.2362843
   7569,   5.46293592,   10.5379181
   7570,   6.00386429,   10.8715677
   7571,   6.52447796,    11.236105
   7572,   7.02301455,   11.6302967
   7573,   7.49778795,   12.0528088
   7574,   7.94719076,   12.5022125
   7575,   8.36970329,    12.976985
   7576,   8.76389503,    13.475522
   7577,   9.12843227,   13.9961357
   7578,   9.46208191,   14.5370646
   7579,   9.76371574,   15.0964775
   7580,   10.0323114,   15.6724834
   7581,   10.2669611,   16.2631321
   7582,   10.4668703,   16.8664246
   7583,   10.6313629,     17.48032
   7584,   10.7598829,   18.1027431
   7585,   10.8519945,   18.7315845
   7586,   10.9073868,   19.3647175
   7587,   10.9258718,          20.
   7588,  -10.2909269,   19.4006214
   7589,  -10.3083668,          20.
   7590,  -10.2386656,   18.8032722
   7591,  -10.1517591,   18.2099705
   7592,  -10.0305033,   17.6227264
   7593,  -9.87530708,   17.0435276
   7594,  -9.68669605,   16.4743309
   7595,  -9.46530819,   15.9170647
   7596,  -9.21189308,   15.3736134
   7597,  -8.92730713,   14.8458166
   7598,   -8.6125145,   14.3354597
   7599,  -8.26857948,   13.8442707
   7600,    -7.896667,     13.37391
   7601,    -7.498034,   12.9259701
   7602,   -7.0740304,   12.5019655
   7603,  -6.62609053,   12.1033335
   7604,  -6.15572977,   11.7314205
   7605,  -5.66453981,   11.3874855
   7606,  -5.15418339,   11.0726929
   7607,  -4.62638664,   10.7881069
   7608,  -4.08293533,   10.5346918
   7609,   -3.5256691,   10.3133039
   7610,  -2.95647287,   10.1246929
   7611,  -2.37727284,   9.96949673
   7612,  -1.79002905,   9.84824085
   7613,  -1.19672835,   9.76133442
   7614, -0.599378228,   9.70907307
   7615,           0.,   9.69163322
   7616,  0.599378228,   9.70907307
   7617,   1.19672835,   9.76133442
   7618,   1.79002905,   9.84824085
   7619,   2.37727284,   9.96949673
   7620,   2.95647287,   10.1246929
   7621,    3.5256691,   10.3133039
   7622,   4.08293533,   10.5346918
   7623,   4.62638664,   10.7881069
   7624,   5.15418339,   11.0726929
   7625,   5.66453981,   11.3874855
   7626,   6.15572977,   11.7314205
   7627,   6.62609053,   12.1033335
   7628,    7.0740304,   12.5019655
   7629,     7.498034,   12.9259701
   7630,     7.896667,     13.37391
   7631,   8.26857948,   13.8442707
   7632,    8.6125145,   14.3354597
   7633,   8.92730713,   14.8458166
   7634,   9.21189308,   15.3736134
   7635,   9.46530819,   15.9170647
   7636,   9.68669605,   16.4743309
   7637,   9.87530708,   17.0435276
   7638,   10.0305033,   17.6227264
   7639,   10.1517591,   18.2099705
   7640,   10.2386656,   18.8032722
   7641,   10.2909269,   19.4006214
   7642,   10.3083668,          20.
   7643,  -9.70930767,   19.4344978
   7644,  -9.72576141,          20.
   7645,  -9.65999985,   18.8709087
   7646,  -9.57800579,   18.3111401
   7647,  -9.46360302,   17.7570858
   7648,  -9.31717777,   17.2106209
   7649,  -9.13922691,   16.6735935
   7650,  -8.93035126,   16.1478233
   7651,  -8.69125843,   15.6350861
   7652,  -8.42275715,   15.1371193
   7653,  -8.12575531,   14.6556063
   7654,  -7.80125904,   14.1921778
   7655,  -7.45036554,   13.7484007
   7656,  -7.07426262,   13.3257771
   7657,  -6.67422247,   12.9257374
   7658,  -6.25159931,    12.549634
   7659,  -5.80782223,    12.198741
   7660,  -5.34439325,   11.8742447
   7661,  -4.86288071,   11.5772429
   7662,  -4.36491394,   11.3087416
   7663,  -3.85217738,   11.0696487
   7664,  -3.32640648,   10.8607731
   7665,  -2.78937984,   10.6828222
   7666,  -2.24291492,    10.536397
   7667,  -1.68886077,   10.4219942
   7668,  -1.12909198,   10.3400002
   7669, -0.565502763,   10.2906923
   7670,           0.,   10.2742386
   7671,  0.565502763,   10.2906923
   7672,   1.12909198,   10.3400002
   7673,   1.68886077,   10.4219942
   7674,   2.24291492,    10.536397
   7675,   2.78937984,   10.6828222
   7676,   3.32640648,   10.8607731
   7677,   3.85217738,   11.0696487
   7678,   4.36491394,   11.3087416
   7679,   4.86288071,   11.5772429
   7680,   5.34439325,   11.8742447
   7681,   5.80782223,    12.198741
   7682,   6.25159931,    12.549634
   7683,   6.67422247,   12.9257374
   7684,   7.07426262,   13.3257771
   7685,   7.45036554,   13.7484007
   7686,   7.80125904,   14.1921778
   7687,   8.12575531,   14.6556063
   7688,   8.42275715,   15.1371193
   7689,   8.69125843,   15.6350861
   7690,   8.93035126,   16.1478233
   7691,   9.13922691,   16.6735935
   7692,   9.31717777,   17.2106209
   7693,   9.46360302,   17.7570858
   7694,   9.57800579,   18.3111401
   7695,   9.65999985,   18.8709087
   7696,   9.70930767,   19.4344978
   7697,   9.72576141,          20.
   7698,  -9.16055965,   19.4664574
   7699,  -9.17608452,          20.
   7700,  -9.11403942,    18.934721
   7701,  -9.03667927,   18.4065895
   7702,  -8.92874146,   17.8838501
   7703,  -8.79059219,    17.368269
   7704,  -8.62269878,   16.8615952
   7705,  -8.42562866,   16.3655396
   7706,  -8.20004845,   15.8817806
   7707,  -7.94672203,   15.4119577
   7708,  -7.66650677,   14.9576597
   7709,  -7.36035013,    14.520422
   7710,  -7.02928829,   14.1017265
   7711,  -6.67444181,   13.7029886
   7712,  -6.29701138,   13.3255577
   7713,  -5.89827347,   12.9707117
   7714,  -5.47957754,   12.6396503
   7715,  -5.04234076,   12.3334932
   7716,  -4.58804226,    12.053278
   7717,   -4.1182189,   11.7999516
   7718,   -3.6344614,   11.5743713
   7719,   -3.1384058,   11.3773012
   7720,  -2.63173056,   11.2094078
   7721,  -2.11615062,   11.0712585
   7722,  -1.59341037,   10.9633207
   7723,  -1.06527841,   10.8859606
   7724, -0.533541858,   10.8394403
   7725,           0.,   10.8239155
   7726,  0.533541858,   10.8394403
   7727,   1.06527841,   10.8859606
   7728,   1.59341037,   10.9633207
   7729,   2.11615062,   11.0712585
   7730,   2.63173056,   11.2094078
   7731,    3.1384058,   11.3773012
   7732,    3.6344614,   11.5743713
   7733,    4.1182189,   11.7999516
   7734,   4.58804226,    12.053278
   7735,   5.04234076,   12.3334932
   7736,   5.47957754,   12.6396503
   7737,   5.89827347,   12.9707117
   7738,   6.29701138,   13.3255577
   7739,   6.67444181,   13.7029886
   7740,   7.02928829,   14.1017265
   7741,   7.36035013,    14.520422
   7742,   7.66650677,   14.9576597
   7743,   7.94672203,   15.4119577
   7744,   8.20004845,   15.8817806
   7745,   8.42562866,   16.3655396
   7746,   8.62269878,   16.8615952
   7747,   8.79059219,    17.368269
   7748,   8.92874146,   17.8838501
   7749,   9.03667927,   18.4065895
   7750,   9.11403942,    18.934721
   7751,   9.16055965,   19.4664574
   7752,   9.17608452,          20.
   7753,  -8.64282608,   19.4966125
   7754,  -8.65747356,          20.
   7755,  -8.59893513,   18.9949284
   7756,  -8.52594662,    18.496645
   7757,  -8.42411041,   18.0034485
   7758,  -8.29376888,   17.5170078
   7759,  -8.13536358,    17.038969
   7760,  -7.94943142,   16.5709496
   7761,  -7.73660088,   16.1145325
   7762,  -7.49759197,   15.6712637
   7763,  -7.23321342,   15.2426405
   7764,  -6.94436026,   14.8301153
   7765,  -6.63200951,   14.4350834
   7766,  -6.29721785,   14.0588808
   7767,  -5.94111872,   13.7027817
   7768,  -5.56491661,   13.3679905
   7769,  -5.16988468,   13.0556402
   7770,   -4.7573595,   12.7667866
   7771,  -4.32873678,    12.502408
   7772,  -3.88546705,   12.2633991
   7773,  -3.42904997,   12.0505686
   7774,  -2.96103024,   11.8646364
   7775,  -2.48299146,   11.7062311
   7776,   -1.9965508,   11.5758896
   7777,  -1.50335443,   11.4740534
   7778,  -1.00507128,   11.4010649
   7779, -0.503387332,   11.3571739
   7780,           0.,   11.3425264
   7781,  0.503387332,   11.3571739
   7782,   1.00507128,   11.4010649
   7783,   1.50335443,   11.4740534
   7784,    1.9965508,   11.5758896
   7785,   2.48299146,   11.7062311
   7786,   2.96103024,   11.8646364
   7787,   3.42904997,   12.0505686
   7788,   3.88546705,   12.2633991
   7789,   4.32873678,    12.502408
   7790,    4.7573595,   12.7667866
   7791,   5.16988468,   13.0556402
   7792,   5.56491661,   13.3679905
   7793,   5.94111872,   13.7027817
   7794,   6.29721785,   14.0588808
   7795,   6.63200951,   14.4350834
   7796,   6.94436026,   14.8301153
   7797,   7.23321342,   15.2426405
   7798,   7.49759197,   15.6712637
   7799,   7.73660088,   16.1145325
   7800,   7.94943142,   16.5709496
   7801,   8.13536358,    17.038969
   7802,   8.29376888,   17.5170078
   7803,   8.42411041,   18.0034485
   7804,   8.52594662,    18.496645
   7805,   8.59893513,   18.9949284
   7806,   8.64282608,   19.4966125
   7807,   8.65747356,          20.
   7808,   -8.1543541,   19.5250626
   7809,  -8.16817284,          20.
   7810,   -8.1129427,    19.051733
   7811,  -8.04408073,   18.5816116
   7812,    -7.947999,   18.1162891
   7813,  -7.82502413,    17.657341
   7814,  -7.67557192,   17.2063198
   7815,   -7.5001483,   16.7647514
   7816,  -7.29934645,   16.3341312
   7817,  -7.07384539,   15.9159136
   7818,  -6.82440901,   15.5115156
   7819,  -6.55188131,   15.1223049
   7820,  -6.25718355,   14.7495995
   7821,  -5.94131374,    14.394659
   7822,  -5.60534048,   14.0586863
   7823,  -5.25040054,    13.742816
   7824,  -4.87769461,   13.4481192
   7825,  -4.48848438,   13.1755905
   7826,  -4.08408642,   12.9261541
   7827,  -3.66586947,    12.700654
   7828,  -3.23524809,   12.4998522
   7829,  -2.79367971,   12.3244276
   7830,  -2.34265852,   12.1749754
   7831,  -1.88371038,    12.052001
   7832,  -1.41838837,   11.9559193
   7833, -0.948267043,   11.8870573
   7834, -0.474937022,   11.8456459
   7835,           0.,   11.8318272
   7836,  0.474937022,   11.8456459
   7837,  0.948267043,   11.8870573
   7838,   1.41838837,   11.9559193
   7839,   1.88371038,    12.052001
   7840,   2.34265852,   12.1749754
   7841,   2.79367971,   12.3244276
   7842,   3.23524809,   12.4998522
   7843,   3.66586947,    12.700654
   7844,   4.08408642,   12.9261541
   7845,   4.48848438,   13.1755905
   7846,   4.87769461,   13.4481192
   7847,   5.25040054,    13.742816
   7848,   5.60534048,   14.0586863
   7849,   5.94131374,    14.394659
   7850,   6.25718355,   14.7495995
   7851,   6.55188131,   15.1223049
   7852,   6.82440901,   15.5115156
   7853,   7.07384539,   15.9159136
   7854,   7.29934645,   16.3341312
   7855,    7.5001483,   16.7647514
   7856,   7.67557192,   17.2063198
   7857,   7.82502413,    17.657341
   7858,     7.947999,   18.1162891
   7859,   8.04408073,   18.5816116
   7860,    8.1129427,    19.051733
   7861,    8.1543541,   19.5250626
   7862,   8.16817284,          20.
   7863,  -7.69348907,   19.5519047
   7864,  -7.70652723,          20.
   7865,  -7.65441847,   19.1053276
   7866,   -7.5894475,   18.6617756
   7867,  -7.49879646,   18.2227516
   7868,  -7.38277197,   17.7897434
   7869,  -7.24176645,    17.364212
   7870,  -7.07625723,   16.9476013
   7871,   -6.8868041,    16.541317
   7872,  -6.67404842,   16.1467361
   7873,  -6.43870926,   15.7651939
   7874,  -6.18158436,   15.3979807
   7875,  -5.90354204,     15.04634
   7876,  -5.60552454,   14.7114601
   7877,  -5.28853989,    14.394475
   7878,  -4.95366001,   14.0964575
   7879,  -4.60201883,   13.8184156
   7880,  -4.23480606,   13.5612907
   7881,  -3.85326362,   13.3259516
   7882,  -3.45868301,   13.1131954
   7883,   -3.0523994,   12.9237423
   7884,  -2.63578749,   12.7582331
   7885,  -2.21025681,   12.6172276
   7886,  -1.77724743,   12.5012035
   7887,  -1.33822441,    12.410552
   7888, -0.894673169,    12.345582
   7889, -0.448094696,   12.3065109
   7890,           0.,   12.2934732
   7891,  0.448094696,   12.3065109
   7892,  0.894673169,    12.345582
   7893,   1.33822441,    12.410552
   7894,   1.77724743,   12.5012035
   7895,   2.21025681,   12.6172276
   7896,   2.63578749,   12.7582331
   7897,    3.0523994,   12.9237423
   7898,   3.45868301,   13.1131954
   7899,   3.85326362,   13.3259516
   7900,   4.23480606,   13.5612907
   7901,   4.60201883,   13.8184156
   7902,   4.95366001,   14.0964575
   7903,   5.28853989,    14.394475
   7904,   5.60552454,   14.7114601
   7905,   5.90354204,     15.04634
   7906,   6.18158436,   15.3979807
   7907,   6.43870926,   15.7651939
   7908,   6.67404842,   16.1467361
   7909,    6.8868041,    16.541317
   7910,   7.07625723,   16.9476013
   7911,   7.24176645,    17.364212
   7912,   7.38277197,   17.7897434
   7913,   7.49879646,   18.2227516
   7914,    7.5894475,   18.6617756
   7915,   7.65441847,   19.1053276
   7916,   7.69348907,   19.5519047
   7917,   7.70652723,          20.
   7918,  -7.25867081,   19.5772305
   7919,  -7.27097225,          20.
   7920,  -7.22180843,   19.1558914
   7921,  -7.16050959,   18.7374096
   7922,  -7.07498217,   18.3231983
   7923,  -6.96551514,   17.9146614
   7924,    -6.832479,   17.5131817
   7925,  -6.67632389,   17.1201153
   7926,  -6.49757814,   16.7367935
   7927,  -6.29684639,   16.3645134
   7928,   -6.0748086,   16.0045357
   7929,  -5.83221531,   15.6580763
   7930,  -5.56988764,   15.3263092
   7931,  -5.28871346,   15.0103559
   7932,  -4.98964405,   14.7112865
   7933,   -4.6736908,   14.4301119
   7934,  -4.34192371,   14.1677847
   7935,  -3.99546456,   13.9251909
   7936,  -3.63548613,   13.7031536
   7937,  -3.26320624,   13.5024223
   7938,  -2.87988496,   13.3236761
   7939,  -2.48681903,   13.1675215
   7940,  -2.08533835,   13.0344849
   7941,  -1.67680156,   12.9250174
   7942,  -1.26259112,   12.8394899
   7943, -0.844108343,   12.7781916
   7944, -0.422769427,   12.7413292
   7945,           0.,   12.7290277
   7946,  0.422769427,   12.7413292
   7947,  0.844108343,   12.7781916
   7948,   1.26259112,   12.8394899
   7949,   1.67680156,   12.9250174
   7950,   2.08533835,   13.0344849
   7951,   2.48681903,   13.1675215
   7952,   2.87988496,   13.3236761
   7953,   3.26320624,   13.5024223
   7954,   3.63548613,   13.7031536
   7955,   3.99546456,   13.9251909
   7956,   4.34192371,   14.1677847
   7957,    4.6736908,   14.4301119
   7958,   4.98964405,   14.7112865
   7959,   5.28871346,   15.0103559
   7960,   5.56988764,   15.3263092
   7961,   5.83221531,   15.6580763
   7962,    6.0748086,   16.0045357
   7963,   6.29684639,   16.3645134
   7964,   6.49757814,   16.7367935
   7965,   6.67632389,   17.1201153
   7966,     6.832479,   17.5131817
   7967,   6.96551514,   17.9146614
   7968,   7.07498217,   18.3231983
   7969,   7.16050959,   18.7374096
   7970,   7.22180843,   19.1558914
   7971,   7.25867081,   19.5772305
   7972,   7.27097225,          20.
   7973,  -6.84842777,   19.6011238
   7974,  -6.86003399,          20.
   7975,   -6.8136487,    19.203598
   7976,  -6.75581455,   18.8087673
   7977,  -6.67512083,   18.4179668
   7978,  -6.57184029,   18.0325203
   7979,  -6.44632292,   17.6537304
   7980,  -6.29899359,   17.2828789
   7981,  -6.13035011,   16.9212227
   7982,  -5.94096375,   16.5699825
   7983,   -5.7314744,   16.2303505
   7984,  -5.50259209,   15.9034719
   7985,  -5.25509071,   15.5904551
   7986,  -4.98980761,   15.2923594
   7987,  -4.70764065,   15.0101919
   7988,  -4.40954494,   14.7449093
   7989,  -4.09652805,   14.4974079
   7990,  -3.76965022,   14.2685251
   7991,  -3.43001699,   14.0590363
   7992,  -3.07877755,   13.8696499
   7993,  -2.71712065,   13.7010069
   7994,  -2.34626985,   13.5536766
   7995,  -1.96747983,   13.4281597
   7996,  -1.58203268,   13.3248796
   7997,  -1.19123232,   13.2441854
   7998, -0.796401322,   13.1863518
   7999, -0.398875475,   13.1515722
   8000,           0.,    13.139966
   8001,  0.398875475,   13.1515722
   8002,  0.796401322,   13.1863518
   8003,   1.19123232,   13.2441854
   8004,   1.58203268,   13.3248796
   8005,   1.96747983,   13.4281597
   8006,   2.34626985,   13.5536766
   8007,   2.71712065,   13.7010069
   8008,   3.07877755,   13.8696499
   8009,   3.43001699,   14.0590363
   8010,   3.76965022,   14.2685251
   8011,   4.09652805,   14.4974079
   8012,   4.40954494,   14.7449093
   8013,   4.70764065,   15.0101919
   8014,   4.98980761,   15.2923594
   8015,   5.25509071,   15.5904551
   8016,   5.50259209,   15.9034719
   8017,    5.7314744,   16.2303505
   8018,   5.94096375,   16.5699825
   8019,   6.13035011,   16.9212227
   8020,   6.29899359,   17.2828789
   8021,   6.44632292,   17.6537304
   8022,   6.57184029,   18.0325203
   8023,   6.67512083,   18.4179668
   8024,   6.75581455,   18.8087673
   8025,    6.8136487,    19.203598
   8026,   6.84842777,   19.6011238
   8027,   6.86003399,          20.
   8028,  -6.46137047,   19.6236687
   8029,  -6.47232056,          20.
   8030,  -6.42855692,   19.2486095
   8031,  -6.37399149,   18.8760929
   8032,  -6.29785824,   18.5073795
   8033,  -6.20041513,   18.1437168
   8034,  -6.08199215,   17.7863369
   8035,  -5.94298887,   17.4364452
   8036,   -5.7838769,   17.0952282
   8037,  -5.60519409,   16.7638397
   8038,  -5.40754509,   16.4434013
   8039,  -5.19159842,   16.1349983
   8040,  -4.95808506,   15.8396721
   8041,  -4.70779562,    15.558424
   8042,    -4.441576,   15.2922049
   8043,  -4.16032743,   15.0419149
   8044,  -3.86500192,   14.8084011
   8045,  -3.55659819,   14.5924549
   8046,  -3.23616028,   14.3948059
   8047,  -2.90477228,   14.2161226
   8048,  -2.56355524,   14.0570107
   8049,  -2.21366405,   13.9180079
   8050,  -1.85628247,   13.7995844
   8051,  -1.49261987,   13.7021418
   8052,  -1.12390673,    13.626008
   8053, -0.751390576,   13.5714426
   8054, -0.376331985,   13.5386295
   8055,           0.,   13.5276794
   8056,  0.376331985,   13.5386295
   8057,  0.751390576,   13.5714426
   8058,   1.12390673,    13.626008
   8059,   1.49261987,   13.7021418
   8060,   1.85628247,   13.7995844
   8061,   2.21366405,   13.9180079
   8062,   2.56355524,   14.0570107
   8063,   2.90477228,   14.2161226
   8064,   3.23616028,   14.3948059
   8065,   3.55659819,   14.5924549
   8066,   3.86500192,   14.8084011
   8067,   4.16032743,   15.0419149
   8068,     4.441576,   15.2922049
   8069,   4.70779562,    15.558424
   8070,   4.95808506,   15.8396721
   8071,   5.19159842,   16.1349983
   8072,   5.40754509,   16.4434013
   8073,   5.60519409,   16.7638397
   8074,    5.7838769,   17.0952282
   8075,   5.94298887,   17.4364452
   8076,   6.08199215,   17.7863369
   8077,   6.20041513,   18.1437168
   8078,   6.29785824,   18.5073795
   8079,   6.37399149,   18.8760929
   8080,   6.42855692,   19.2486095
   8081,   6.46137047,   19.6236687
   8082,   6.47232056,          20.
   8083,  -6.09618902,   19.6449375
   8084,  -6.10652018,          20.
   8085,  -6.06522989,   19.2910767
   8086,  -6.01374817,   18.9396133
   8087,   -5.9419179,   18.5917397
   8088,  -5.84998226,   18.2486305
   8089,  -5.73825216,   17.9114475
   8090,  -5.60710526,   17.5813313
   8091,  -5.45698595,   17.2593994
   8092,   -5.2884016,   16.9467392
   8093,  -5.10192299,    16.644413
   8094,  -4.89818144,   16.3534393
   8095,  -4.67786598,   16.0748043
   8096,  -4.44172192,   15.8094521
   8097,  -4.19054842,   15.5582781
   8098,  -3.92519546,    15.322134
   8099,  -3.64656091,   15.1018181
   8100,  -3.35558772,    14.898077
   8101,  -3.05326009,   14.7115984
   8102,   -2.7406013,   14.5430145
   8103,  -2.41866899,   14.3928947
   8104,  -2.08855295,   14.2617483
   8105,  -1.75136971,   14.1500177
   8106,  -1.40826046,   14.0580816
   8107,  -1.06038606,   13.9862518
   8108, -0.708923697,   13.9347696
   8109, -0.355062574,   13.9038115
   8110,           0.,   13.8934803
   8111,  0.355062574,   13.9038115
   8112,  0.708923697,   13.9347696
   8113,   1.06038606,   13.9862518
   8114,   1.40826046,   14.0580816
   8115,   1.75136971,   14.1500177
   8116,   2.08855295,   14.2617483
   8117,   2.41866899,   14.3928947
   8118,    2.7406013,   14.5430145
   8119,   3.05326009,   14.7115984
   8120,   3.35558772,    14.898077
   8121,   3.64656091,   15.1018181
   8122,   3.92519546,    15.322134
   8123,   4.19054842,   15.5582781
   8124,   4.44172192,   15.8094521
   8125,   4.67786598,   16.0748043
   8126,   4.89818144,   16.3534393
   8127,   5.10192299,    16.644413
   8128,    5.2884016,   16.9467392
   8129,   5.45698595,   17.2593994
   8130,   5.60710526,   17.5813313
   8131,   5.73825216,   17.9114475
   8132,   5.84998226,   18.2486305
   8133,    5.9419179,   18.5917397
   8134,   6.01374817,   18.9396133
   8135,   6.06522989,   19.2910767
   8136,   6.09618902,   19.6449375
   8137,   6.10652018,          20.
   8138,  -5.75164652,   19.6650047
   8139,  -5.76139402,          20.
   8140,  -5.72243738,   19.3311424
   8141,  -5.67386532,   18.9995441
   8142,  -5.60609484,   18.6713314
   8143,  -5.51935482,   18.3476143
   8144,  -5.41393948,   18.0294876
   8145,  -5.29020452,    17.718029
   8146,  -5.14856958,   17.4142914
   8147,   -4.9895134,   17.1193027
   8148,  -4.81357431,   16.8340626
   8149,  -4.62134743,   16.5595341
   8150,  -4.41348362,    16.296648
   8151,  -4.19068623,   16.0462914
   8152,  -3.95370841,   15.8093138
   8153,  -3.70335269,   15.5865164
   8154,  -3.44046593,   15.3786526
   8155,  -3.16593766,   15.1864252
   8156,  -2.88069701,   15.0104866
   8157,  -2.58570886,   14.8514299
   8158,  -2.28197145,    14.709795
   8159,  -1.97051275,   14.5860605
   8160,  -1.65238643,   14.4806452
   8161,  -1.32866883,   14.3939056
   8162,   -1.0004555,   14.3261347
   8163, -0.668856978,   14.2775621
   8164,  -0.33499527,    14.248354
   8165,           0.,   14.2386065
   8166,   0.33499527,    14.248354
   8167,  0.668856978,   14.2775621
   8168,    1.0004555,   14.3261347
   8169,   1.32866883,   14.3939056
   8170,   1.65238643,   14.4806452
   8171,   1.97051275,   14.5860605
   8172,   2.28197145,    14.709795
   8173,   2.58570886,   14.8514299
   8174,   2.88069701,   15.0104866
   8175,   3.16593766,   15.1864252
   8176,   3.44046593,   15.3786526
   8177,   3.70335269,   15.5865164
   8178,   3.95370841,   15.8093138
   8179,   4.19068623,   16.0462914
   8180,   4.41348362,    16.296648
   8181,   4.62134743,   16.5595341
   8182,   4.81357431,   16.8340626
   8183,    4.9895134,   17.1193027
   8184,   5.14856958,   17.4142914
   8185,   5.29020452,    17.718029
   8186,   5.41393948,   18.0294876
   8187,   5.51935482,   18.3476143
   8188,   5.60609484,   18.6713314
   8189,   5.67386532,   18.9995441
   8190,   5.72243738,   19.3311424
   8191,   5.75164652,   19.6650047
   8192,   5.76139402,          20.
   8193,  -5.42657709,   19.6839371
   8194,  -5.43577337,          20.
   8195,  -5.39901876,   19.3689461
   8196,  -5.35319185,   19.0560875
   8197,  -5.28925133,   18.7464237
   8198,  -5.20741367,   18.4410019
   8199,  -5.10795593,   18.1408558
   8200,  -4.99121475,   17.8470001
   8201,  -4.85758448,   17.5604286
   8202,  -4.70751762,    17.282114
   8203,   -4.5415225,   17.0129929
   8204,  -4.36015987,   16.7539806
   8205,   -4.1640439,   16.5059528
   8206,  -3.95383835,   16.2697468
   8207,  -3.73025393,   16.0461617
   8208,  -3.49404764,   15.8359556
   8209,  -3.24601865,   15.6398401
   8210,  -2.98700619,    15.458478
   8211,  -2.71788669,   15.2924824
   8212,  -2.43957067,    15.142416
   8213,  -2.15299988,   15.0087852
   8214,  -1.85914397,   14.8920441
   8215,  -1.55899739,   14.7925863
   8216,  -1.25357556,   14.7107487
   8217, -0.943912148,   14.6468086
   8218, -0.631054759,   14.6009817
   8219, -0.316062123,   14.5734234
   8220,           0.,   14.5642271
   8221,  0.316062123,   14.5734234
   8222,  0.631054759,   14.6009817
   8223,  0.943912148,   14.6468086
   8224,   1.25357556,   14.7107487
   8225,   1.55899739,   14.7925863
   8226,   1.85914397,   14.8920441
   8227,   2.15299988,   15.0087852
   8228,   2.43957067,    15.142416
   8229,   2.71788669,   15.2924824
   8230,   2.98700619,    15.458478
   8231,   3.24601865,   15.6398401
   8232,   3.49404764,   15.8359556
   8233,   3.73025393,   16.0461617
   8234,   3.95383835,   16.2697468
   8235,    4.1640439,   16.5059528
   8236,   4.36015987,   16.7539806
   8237,    4.5415225,   17.0129929
   8238,   4.70751762,    17.282114
   8239,   4.85758448,   17.5604286
   8240,   4.99121475,   17.8470001
   8241,   5.10795593,   18.1408558
   8242,   5.20741367,   18.4410019
   8243,   5.28925133,   18.7464237
   8244,   5.35319185,   19.0560875
   8245,   5.39901876,   19.3689461
   8246,   5.42657709,   19.6839371
   8247,   5.43577337,          20.
   8248,  -5.11987925,   19.7018013
   8249,  -5.12855625,          20.
   8250,  -5.09387875,   19.4046116
   8251,  -5.05064201,    19.109436
   8252,  -4.99031496,   18.8172741
   8253,   -4.9131031,   18.5291138
   8254,  -4.81926632,   18.2459297
   8255,  -4.70912266,   17.9686832
   8256,  -4.58304501,   17.6983089
   8257,  -4.44145966,   17.4357224
   8258,  -4.28484631,   17.1818123
   8259,  -4.11373377,    16.937439
   8260,  -3.92870188,   16.7034283
   8261,  -3.73037648,   16.4805717
   8262,  -3.51942873,   16.2696228
   8263,  -3.29657221,   16.0712986
   8264,  -3.06256127,   15.8862658
   8265,  -2.81818771,   15.7151537
   8266,  -2.56427813,   15.5585403
   8267,  -2.30169177,    15.416955
   8268,  -2.03131723,   15.2908773
   8269,  -1.75406945,   15.1807337
   8270,  -1.47088647,   15.0868969
   8271,  -1.18272638,   15.0096846
   8272, -0.890564442,    14.949358
   8273, -0.595389009,   14.9061213
   8274, -0.298199028,   14.8801203
   8275,           0.,   14.8714437
   8276,  0.298199028,   14.8801203
   8277,  0.595389009,   14.9061213
   8278,  0.890564442,    14.949358
   8279,   1.18272638,   15.0096846
   8280,   1.47088647,   15.0868969
   8281,   1.75406945,   15.1807337
   8282,   2.03131723,   15.2908773
   8283,   2.30169177,    15.416955
   8284,   2.56427813,   15.5585403
   8285,   2.81818771,   15.7151537
   8286,   3.06256127,   15.8862658
   8287,   3.29657221,   16.0712986
   8288,   3.51942873,   16.2696228
   8289,   3.73037648,   16.4805717
   8290,   3.92870188,   16.7034283
   8291,   4.11373377,    16.937439
   8292,   4.28484631,   17.1818123
   8293,   4.44145966,   17.4357224
   8294,   4.58304501,   17.6983089
   8295,   4.70912266,   17.9686832
   8296,   4.81926632,   18.2459297
   8297,    4.9131031,   18.5291138
   8298,   4.99031496,   18.8172741
   8299,   5.05064201,    19.109436
   8300,   5.09387875,   19.4046116
   8301,   5.11987925,   19.7018013
   8302,   5.12855625,          20.
   8303,  -4.83051586,   19.7186546
   8304,   -4.8387022,          20.
   8305,   -4.8059845,    19.438261
   8306,  -4.76519108,   19.1597691
   8307,  -4.70827436,    18.884119
   8308,  -4.63542604,   18.6122456
   8309,  -4.54689264,   18.3450661
   8310,  -4.44297409,   18.0834885
   8311,  -4.32402229,   17.8283939
   8312,  -4.19043875,   17.5806484
   8313,  -4.04267645,   17.3410892
   8314,  -3.88123512,    17.110527
   8315,  -3.70666075,   16.8897419
   8316,  -3.51954436,   16.6794815
   8317,  -3.32051873,   16.4804554
   8318,  -3.11025763,   16.2933388
   8319,  -2.88947248,   16.1187649
   8320,  -2.65891027,   15.9573231
   8321,   -2.4193511,   15.8095608
   8322,  -2.17160559,   15.6759777
   8323,  -1.91651201,   15.5570259
   8324,  -1.65493357,   15.4531078
   8325,  -1.38775539,   15.3645744
   8326,  -1.11588144,   15.2917261
   8327, -0.840231776,   15.2348089
   8328, -0.561739028,   15.1940155
   8329, -0.281345516,   15.1694841
   8330,           0.,   15.1612978
   8331,  0.281345516,   15.1694841
   8332,  0.561739028,   15.1940155
   8333,  0.840231776,   15.2348089
   8334,   1.11588144,   15.2917261
   8335,   1.38775539,   15.3645744
   8336,   1.65493357,   15.4531078
   8337,   1.91651201,   15.5570259
   8338,   2.17160559,   15.6759777
   8339,    2.4193511,   15.8095608
   8340,   2.65891027,   15.9573231
   8341,   2.88947248,   16.1187649
   8342,   3.11025763,   16.2933388
   8343,   3.32051873,   16.4804554
   8344,   3.51954436,   16.6794815
   8345,   3.70666075,   16.8897419
   8346,   3.88123512,    17.110527
   8347,   4.04267645,   17.3410892
   8348,   4.19043875,   17.5806484
   8349,   4.32402229,   17.8283939
   8350,   4.44297409,   18.0834885
   8351,   4.54689264,   18.3450661
   8352,   4.63542604,   18.6122456
   8353,   4.70827436,    18.884119
   8354,   4.76519108,   19.1597691
   8355,    4.8059845,    19.438261
   8356,   4.83051586,   19.7186546
   8357,    4.8387022,          20.
   8358,  -4.55750608,   19.7345562
   8359,  -4.56522989,          20.
   8360,  -4.53436136,   19.4700089
   8361,  -4.49587393,   19.2072563
   8362,  -4.44217348,   18.9471855
   8363,  -4.37344217,   18.6906776
   8364,   -4.2899127,   18.4385986
   8365,  -4.19186783,   18.1918049
   8366,  -4.07963848,    17.951128
   8367,  -3.95360518,   17.7173843
   8368,  -3.81419396,   17.4913654
   8369,  -3.66187668,   17.2738342
   8370,  -3.49716902,    17.065527
   8371,  -3.32062793,   16.8671494
   8372,  -3.13285089,   16.6793728
   8373,  -2.93447328,   16.5028305
   8374,  -2.72616625,   16.3381233
   8375,  -2.50863481,   16.1858063
   8376,  -2.28261495,   16.0463943
   8377,  -2.04887152,   15.9203615
   8378,  -1.80819523,   15.8081322
   8379,  -1.56140053,   15.7100868
   8380,  -1.30932271,   15.6265574
   8381,  -1.05281448,    15.557826
   8382, -0.792743862,   15.5041265
   8383, -0.529990852,   15.4656382
   8384, -0.265444517,   15.4424934
   8385,           0.,   15.4347706
   8386,  0.265444517,   15.4424934
   8387,  0.529990852,   15.4656382
   8388,  0.792743862,   15.5041265
   8389,   1.05281448,    15.557826
   8390,   1.30932271,   15.6265574
   8391,   1.56140053,   15.7100868
   8392,   1.80819523,   15.8081322
   8393,   2.04887152,   15.9203615
   8394,   2.28261495,   16.0463943
   8395,   2.50863481,   16.1858063
   8396,   2.72616625,   16.3381233
   8397,   2.93447328,   16.5028305
   8398,   3.13285089,   16.6793728
   8399,   3.32062793,   16.8671494
   8400,   3.49716902,    17.065527
   8401,   3.66187668,   17.2738342
   8402,   3.81419396,   17.4913654
   8403,   3.95360518,   17.7173843
   8404,   4.07963848,    17.951128
   8405,   4.19186783,   18.1918049
   8406,    4.2899127,   18.4385986
   8407,   4.37344217,   18.6906776
   8408,   4.44217348,   18.9471855
   8409,   4.49587393,   19.2072563
   8410,   4.53436136,   19.4700089
   8411,   4.55750608,   19.7345562
   8412,   4.56522989,          20.
   8413,  -4.29992676,   19.7495575
   8414,  -3.83410478,          20.
   8415,     -4.27809,   19.4999638
   8416,  -3.77585602,   19.3342152
   8417,  -4.19111204,   19.0066891
   8418,  -4.12626553,    18.764677
   8419,  -3.60287976,   18.6886597
   8420,  -3.95495296,   18.2940006
   8421,  -3.84906673,    18.066927
   8422,  -3.32043195,   18.0829468
   8423,  -3.59862447,   17.6331482
   8424,    -3.454916,   17.4279099
   8425,  -2.93709469,   17.5354843
   8426,  -3.13295364,   17.0442104
   8427,  -2.95578933,   16.8670464
   8428,  -2.46451497,   17.0629063
   8429,  -2.57208967,    16.545084
   8430,  -2.36685252,   16.4013748
   8431,  -1.91705239,   16.6795673
   8432,    -1.933074,   16.1509323
   8433,  -1.70600021,   16.0450478
   8434,  -1.31134105,   16.3971195
   8435,  -1.23532283,   15.8737345
   8436, -0.993311822,   15.8088875
   8437, -0.665785313,    16.224144
   8438, -0.500037014,   15.7219105
   8439, -0.250442207,   15.7000732
   8440,           0.,   16.1658955
   8441,  0.250442207,   15.7000732
   8442,  0.500037014,   15.7219105
   8443,  0.665785313,    16.224144
   8444,  0.993311822,   15.8088875
   8445,   1.23532283,   15.8737345
   8446,   1.31134105,   16.3971195
   8447,   1.70600021,   16.0450478
   8448,     1.933074,   16.1509323
   8449,   1.91705239,   16.6795673
   8450,   2.36685252,   16.4013748
   8451,   2.57208967,    16.545084
   8452,   2.46451497,   17.0629063
   8453,   2.95578933,   16.8670464
   8454,   3.13295364,   17.0442104
   8455,   2.93709469,   17.5354843
   8456,     3.454916,   17.4279099
   8457,   3.59862447,   17.6331482
   8458,   3.32043195,   18.0829468
   8459,   3.84906673,    18.066927
   8460,   3.95495296,   18.2940006
   8461,   3.60287976,   18.6886597
   8462,   4.12626553,    18.764677
   8463,   4.19111204,   19.0066891
   8464,   3.77585602,   19.3342152
   8465,      4.27809,   19.4999638
   8466,   4.29992676,   19.7495575
   8467,   3.83410478,          20.
   8468,  -3.17114973,   19.4408417
   8469,  -3.22006965,          20.
   8470,  -3.02587581,   18.8986721
   8471,   -2.7886622,   18.3899651
   8472,  -2.46671653,   17.9301796
   8473,  -2.06982088,   17.5332832
   8474,  -1.61003482,    17.211338
   8475,  -1.10132873,   16.9741249
   8476, -0.559159219,   16.8288498
   8477,           0.,   16.7799301
   8478,  0.559159219,   16.8288498
   8479,   1.10132873,   16.9741249
   8480,   1.61003482,    17.211338
   8481,   2.06982088,   17.5332832
   8482,   2.46671653,   17.9301796
   8483,    2.7886622,   18.3899651
   8484,   3.02587581,   18.8986721
   8485,   3.17114973,   19.4408417
   8486,   3.22006965,          20.
   8487,   -2.6632874,   19.5303898
   8488,  -2.70437312,          20.
   8489,  -2.54127932,   19.0750504
   8490,   -2.3420558,   18.6478138
   8491,  -2.07166982,   18.2616634
   8492,  -1.73833752,   17.9283295
   8493,  -1.35218656,   17.6579437
   8494, -0.924950063,   17.4587212
   8495, -0.469609439,   17.3367119
   8496,           0.,   17.2956276
   8497,  0.469609439,   17.3367119
   8498,  0.924950063,   17.4587212
   8499,   1.35218656,   17.6579437
   8500,   1.73833752,   17.9283295
   8501,   2.07166982,   18.2616634
   8502,    2.3420558,   18.6478138
   8503,   2.54127932,   19.0750504
   8504,    2.6632874,   19.5303898
   8505,   2.70437312,          20.
   8506,   -2.2367599,   19.6055984
   8507,  -2.27126551,          20.
   8508,  -2.13429141,   19.2231808
   8509,  -1.96697366,   18.8643665
   8510,  -1.73989034,   18.5400581
   8511,  -1.45994139,   18.2601089
   8512,  -1.13563275,   18.0330257
   8513, -0.776818573,   17.8657093
   8514, -0.394401103,   17.7632408
   8515,           0.,    17.728735
   8516,  0.394401103,   17.7632408
   8517,  0.776818573,   17.8657093
   8518,   1.13563275,   18.0330257
   8519,   1.45994139,   18.2601089
   8520,   1.73989034,   18.5400581
   8521,   1.96697366,   18.8643665
   8522,   2.13429141,   19.2231808
   8523,    2.2367599,   19.6055984
   8524,   2.27126551,          20.
   8525,  -1.87854099,   19.6687622
   8526,  -1.90752053,          20.
   8527,  -1.79248297,   19.3475895
   8528,  -1.65196121,   19.0462399
   8529,  -1.46124554,   18.7738686
   8530,   -1.2261306,   18.5387554
   8531, -0.953760266,   18.3480396
   8532, -0.652410448,   18.2075176
   8533, -0.331237465,   18.1214581
   8534,           0.,   18.0924797
   8535,  0.331237465,   18.1214581
   8536,  0.652410448,   18.2075176
   8537,  0.953760266,   18.3480396
   8538,    1.2261306,   18.5387554
   8539,   1.46124554,   18.7738686
   8540,   1.65196121,   19.0462399
   8541,   1.79248297,   19.3475895
   8542,   1.87854099,   19.6687622
   8543,   1.90752053,          20.
   8544,   -1.5776912,   19.7218113
   8545,  -1.60202956,          20.
   8546,  -1.50541544,   19.4520741
   8547,  -1.38739836,   19.1989861
   8548,   -1.2272259,   18.9702358
   8549,  -1.02976477,   18.7727737
   8550, -0.801014781,   18.6126022
   8551, -0.547926366,    18.494585
   8552,  -0.27818951,    18.422308
   8553,           0.,   18.3979702
   8554,   0.27818951,    18.422308
   8555,  0.547926366,    18.494585
   8556,  0.801014781,   18.6126022
   8557,   1.02976477,   18.7727737
   8558,    1.2272259,   18.9702358
   8559,   1.38739836,   19.1989861
   8560,   1.50541544,   19.4520741
   8561,    1.5776912,   19.7218113
   8562,   1.60202956,          20.
   8563,   -1.3250227,   19.7663631
   8564,  -1.34546328,          20.
   8565,  -1.26432192,   19.5398235
   8566,  -1.16520536,   19.3272686
   8567,  -1.03068471,   19.1351528
   8568, -0.864847124,   18.9693146
   8569, -0.672731638,    18.834795
   8570, -0.460175544,   18.7356777
   8571, -0.233637244,   18.6749783
   8572,           0.,   18.6545372
   8573,  0.233637244,   18.6749783
   8574,  0.460175544,   18.7356777
   8575,  0.672731638,    18.834795
   8576,  0.864847124,   18.9693146
   8577,   1.03068471,   19.1351528
   8578,   1.16520536,   19.3272686
   8579,   1.26432192,   19.5398235
   8580,    1.3250227,   19.7663631
   8581,   1.34546328,          20.
   8582,  -1.11281919,   19.8037796
   8583, -0.797032058,          20.
   8584,   -1.0618397,   19.6135216
   8585, -0.690249979,   19.6014843
   8586, -0.865619719,   19.2736588
   8587, -0.726341188,   19.1343803
   8588, -0.398516029,   19.3097496
   8589, -0.386478066,   18.9381599
   8590, -0.196220055,   18.8871803
   8591,           0.,   19.2029686
   8592,  0.196220055,   18.8871803
   8593,  0.386478066,   18.9381599
   8594,  0.398516029,   19.3097496
   8595,  0.726341188,   19.1343803
   8596,  0.865619719,   19.2736588
   8597,  0.690249979,   19.6014843
   8598,    1.0618397,   19.6135216
   8599,   1.11281919,   19.8037796
   8600,  0.797032058,          20.
   8601,           0.,          20.
   8602, -0.398516029,          20.
   8603,  -0.34512499,   19.8007412
   8604, -0.199258015,   19.6548748
   8605,           0.,   19.6014843
   8606,  0.199258015,   19.6548748
   8607,   0.34512499,   19.8007412
   8608,  0.398516029,          20.
*Element, type=CPE4
   1,    1,    2,    3,    4
   2,    2,    5,    6,    3
   3,    5,    7,    8,    6
   4,    7,    9,   10,    8
   5,    9,   11,   12,   10
   6,   11,   13,   14,   12
   7,   13,   15,   16,   14
   8,   15,   17,   18,   16
   9,   17,   19,   20,   18
  10,   19,   21,   22,   20
  11,   21,   23,   24,   22
  12,   23,   25,   26,   24
  13,   25,   27,   28,   26
  14,   27,   29,   30,   28
  15,   29,   31,   32,   30
  16,   31,   33,   34,   32
  17,   33,   35,   36,   34
  18,   35,   37,   38,   36
  19,   37,   39,   40,   38
  20,   39,   41,   42,   40
  21,   41,   43,   44,   42
  22,   43,   45,   46,   44
  23,   45,   47,   48,   46
  24,   47,   49,   50,   48
  25,   49,   51,   52,   50
  26,   51,   53,   54,   52
  27,   53,   55,   56,   54
  28,   55,   57,   58,   56
  29,   57,   59,   60,   58
  30,   59,   61,   62,   60
  31,   61,   63,   64,   62
  32,   63,   65,   66,   64
  33,   65,   67,   68,   66
  34,   67,   69,   70,   68
  35,   69,   71,   72,   70
  36,   71,   73,   74,   72
  37,   73,   75,   76,   74
  38,   75,   77,   78,   76
  39,   77,   79,   80,   78
  40,   79,   81,   82,   80
  41,   81,   83,   84,   82
  42,   83,   85,   86,   84
  43,   85,   87,   88,   86
  44,   87,   89,   90,   88
  45,   89,   91,   92,   90
  46,   91,   93,   94,   92
  47,   93,   95,   96,   94
  48,   95,   97,   98,   96
  49,   97,   99,  100,   98
  50,   99,  101,  102,  100
  51,  101,  103,  104,  102
  52,  103,  105,  106,  104
  53,  105,  107,  108,  106
  54,  107,  109,  110,  108
  55,  109,  111,  112,  110
  56,  111,  113,  114,  112
  57,  113,  115,  116,  114
  58,  115,  117,  118,  116
  59,  117,  119,  120,  118
  60,  119,  121,  122,  120
  61,  121,  123,  124,  122
  62,  123,  125,  126,  124
  63,  125,  127,  128,  126
  64,  127,  129,  130,  128
  65,  129,  131,  132,  130
  66,  131,  133,  134,  132
  67,  133,  135,  136,  134
  68,  135,  137,  138,  136
  69,  137,  139,  140,  138
  70,  139,  141,  142,  140
  71,  141,  143,  144,  142
  72,  143,  145,  146,  144
  73,  145,  147,  148,  146
  74,  147,  149,  150,  148
  75,  149,  151,  152,  150
  76,  151,  153,  154,  152
  77,  153,  155,  156,  154
  78,  155,  157,  158,  156
  79,  157,  159,  160,  158
  80,  159,  161,  162,  160
  81,  161,  163,  164,  162
  82,  163,  165,  166,  164
  83,  165,  167,  168,  166
  84,  167,  169,  170,  168
  85,  169,  171,  172,  170
  86,  171,  173,  174,  172
  87,  173,  175,  176,  174
  88,  175,  177,  178,  176
  89,  177,  179,  180,  178
  90,  179,  181,  182,  180
  91,  181,  183,  184,  182
  92,  183,  185,  186,  184
  93,  185,  187,  188,  186
  94,  187,  189,  190,  188
  95,  189,  191,  192,  190
  96,  191,  193,  194,  192
  97,  193,  195,  196,  194
  98,  195,  197,  198,  196
  99,  197,  199,  200,  198
 100,  199,  201,  202,  200
 101,  201,  203,  204,  202
 102,  203,  205,  206,  204
 103,  205,  207,  208,  206
 104,  207,  209,  210,  208
 105,  209,  211,  212,  210
 106,  211,  213,  214,  212
 107,  213,  215,  216,  214
 108,  215,  217,  218,  216
 109,  217,  219,  220,  218
 110,  219,  221,  222,  220
 111,  221,  223,  224,  222
 112,  223,  225,  226,  224
 113,  225,  227,  228,  226
 114,  227,  229,  230,  228
 115,  229,  231,  232,  230
 116,  231,  233,  234,  232
 117,  233,  235,  236,  234
 118,  235,  237,  238,  236
 119,  237,  239,  240,  238
 120,  239,  241,  242,  240
 121,  241,  243,  244,  242
 122,  243,  245,  246,  244
 123,  245,  247,  248,  246
 124,  247,  249,  250,  248
 125,  249,  251,  252,  250
 126,  251,  253,  254,  252
 127,  253,  255,  256,  254
 128,  255,  257,  258,  256
 129,  257,  259,  260,  258
 130,  259,  261,  262,  260
 131,  261,  263,  264,  262
 132,  263,  265,  266,  264
 133,  265,  267,  268,  266
 134,  267,  269,  270,  268
 135,  269,  271,  272,  270
 136,  271,  273,  274,  272
 137,  273,  275,  276,  274
 138,  275,  277,  278,  276
 139,  277,  279,  280,  278
 140,  279,  281,  282,  280
 141,  281,  283,  284,  282
 142,  283,  285,  286,  284
 143,  285,  287,  288,  286
 144,  287,  289,  290,  288
 145,  289,  291,  292,  290
 146,  291,  293,  294,  292
 147,  293,  295,  296,  294
 148,  295,  297,  298,  296
 149,  297,  299,  300,  298
 150,  299,  301,  302,  300
 151,  301,  303,  304,  302
 152,  303,  305,  306,  304
 153,  305,  307,  308,  306
 154,  307,  309,  310,  308
 155,  309,  311,  312,  310
 156,  311,  313,  314,  312
 157,  313,  315,  316,  314
 158,  315,  317,  318,  316
 159,  317,  319,  320,  318
 160,  319,  321,  322,  320
 161,  321,  323,  324,  322
 162,  323,  325,  326,  324
 163,  325,  327,  328,  326
 164,  327,  329,  330,  328
 165,  329,  331,  332,  330
 166,  331,  333,  334,  332
 167,  333,  335,  336,  334
 168,  335,  337,  338,  336
 169,  337,  339,  340,  338
 170,  339,  341,  342,  340
 171,  341,  343,  344,  342
 172,  343,  345,  346,  344
 173,  345,  347,  348,  346
 174,  347,  349,  350,  348
 175,  349,  351,  352,  350
 176,  351,  353,  354,  352
 177,  353,  355,  356,  354
 178,  355,  357,  358,  356
 179,  357,  359,  360,  358
 180,  359,  361,  362,  360
 181,    4,    3,  363,  364
 182,    3,    6,  365,  363
 183,    6,    8,  366,  365
 184,    8,   10,  367,  366
 185,   10,   12,  368,  367
 186,   12,   14,  369,  368
 187,   14,   16,  370,  369
 188,   16,   18,  371,  370
 189,   18,   20,  372,  371
 190,   20,   22,  373,  372
 191,   22,   24,  374,  373
 192,   24,   26,  375,  374
 193,   26,   28,  376,  375
 194,   28,   30,  377,  376
 195,   30,   32,  378,  377
 196,   32,   34,  379,  378
 197,   34,   36,  380,  379
 198,   36,   38,  381,  380
 199,   38,   40,  382,  381
 200,   40,   42,  383,  382
 201,   42,   44,  384,  383
 202,   44,   46,  385,  384
 203,   46,   48,  386,  385
 204,   48,   50,  387,  386
 205,   50,   52,  388,  387
 206,   52,   54,  389,  388
 207,   54,   56,  390,  389
 208,   56,   58,  391,  390
 209,   58,   60,  392,  391
 210,   60,   62,  393,  392
 211,   62,   64,  394,  393
 212,   64,   66,  395,  394
 213,   66,   68,  396,  395
 214,   68,   70,  397,  396
 215,   70,   72,  398,  397
 216,   72,   74,  399,  398
 217,   74,   76,  400,  399
 218,   76,   78,  401,  400
 219,   78,   80,  402,  401
 220,   80,   82,  403,  402
 221,   82,   84,  404,  403
 222,   84,   86,  405,  404
 223,   86,   88,  406,  405
 224,   88,   90,  407,  406
 225,   90,   92,  408,  407
 226,   92,   94,  409,  408
 227,   94,   96,  410,  409
 228,   96,   98,  411,  410
 229,   98,  100,  412,  411
 230,  100,  102,  413,  412
 231,  102,  104,  414,  413
 232,  104,  106,  415,  414
 233,  106,  108,  416,  415
 234,  108,  110,  417,  416
 235,  110,  112,  418,  417
 236,  112,  114,  419,  418
 237,  114,  116,  420,  419
 238,  116,  118,  421,  420
 239,  118,  120,  422,  421
 240,  120,  122,  423,  422
 241,  122,  124,  424,  423
 242,  124,  126,  425,  424
 243,  126,  128,  426,  425
 244,  128,  130,  427,  426
 245,  130,  132,  428,  427
 246,  132,  134,  429,  428
 247,  134,  136,  430,  429
 248,  136,  138,  431,  430
 249,  138,  140,  432,  431
 250,  140,  142,  433,  432
 251,  142,  144,  434,  433
 252,  144,  146,  435,  434
 253,  146,  148,  436,  435
 254,  148,  150,  437,  436
 255,  150,  152,  438,  437
 256,  152,  154,  439,  438
 257,  154,  156,  440,  439
 258,  156,  158,  441,  440
 259,  158,  160,  442,  441
 260,  160,  162,  443,  442
 261,  162,  164,  444,  443
 262,  164,  166,  445,  444
 263,  166,  168,  446,  445
 264,  168,  170,  447,  446
 265,  170,  172,  448,  447
 266,  172,  174,  449,  448
 267,  174,  176,  450,  449
 268,  176,  178,  451,  450
 269,  178,  180,  452,  451
 270,  180,  182,  453,  452
 271,  182,  184,  454,  453
 272,  184,  186,  455,  454
 273,  186,  188,  456,  455
 274,  188,  190,  457,  456
 275,  190,  192,  458,  457
 276,  192,  194,  459,  458
 277,  194,  196,  460,  459
 278,  196,  198,  461,  460
 279,  198,  200,  462,  461
 280,  200,  202,  463,  462
 281,  202,  204,  464,  463
 282,  204,  206,  465,  464
 283,  206,  208,  466,  465
 284,  208,  210,  467,  466
 285,  210,  212,  468,  467
 286,  212,  214,  469,  468
 287,  214,  216,  470,  469
 288,  216,  218,  471,  470
 289,  218,  220,  472,  471
 290,  220,  222,  473,  472
 291,  222,  224,  474,  473
 292,  224,  226,  475,  474
 293,  226,  228,  476,  475
 294,  228,  230,  477,  476
 295,  230,  232,  478,  477
 296,  232,  234,  479,  478
 297,  234,  236,  480,  479
 298,  236,  238,  481,  480
 299,  238,  240,  482,  481
 300,  240,  242,  483,  482
 301,  242,  244,  484,  483
 302,  244,  246,  485,  484
 303,  246,  248,  486,  485
 304,  248,  250,  487,  486
 305,  250,  252,  488,  487
 306,  252,  254,  489,  488
 307,  254,  256,  490,  489
 308,  256,  258,  491,  490
 309,  258,  260,  492,  491
 310,  260,  262,  493,  492
 311,  262,  264,  494,  493
 312,  264,  266,  495,  494
 313,  266,  268,  496,  495
 314,  268,  270,  497,  496
 315,  270,  272,  498,  497
 316,  272,  274,  499,  498
 317,  274,  276,  500,  499
 318,  276,  278,  501,  500
 319,  278,  280,  502,  501
 320,  280,  282,  503,  502
 321,  282,  284,  504,  503
 322,  284,  286,  505,  504
 323,  286,  288,  506,  505
 324,  288,  290,  507,  506
 325,  290,  292,  508,  507
 326,  292,  294,  509,  508
 327,  294,  296,  510,  509
 328,  296,  298,  511,  510
 329,  298,  300,  512,  511
 330,  300,  302,  513,  512
 331,  302,  304,  514,  513
 332,  304,  306,  515,  514
 333,  306,  308,  516,  515
 334,  308,  310,  517,  516
 335,  310,  312,  518,  517
 336,  312,  314,  519,  518
 337,  314,  316,  520,  519
 338,  316,  318,  521,  520
 339,  318,  320,  522,  521
 340,  320,  322,  523,  522
 341,  322,  324,  524,  523
 342,  324,  326,  525,  524
 343,  326,  328,  526,  525
 344,  328,  330,  527,  526
 345,  330,  332,  528,  527
 346,  332,  334,  529,  528
 347,  334,  336,  530,  529
 348,  336,  338,  531,  530
 349,  338,  340,  532,  531
 350,  340,  342,  533,  532
 351,  342,  344,  534,  533
 352,  344,  346,  535,  534
 353,  346,  348,  536,  535
 354,  348,  350,  537,  536
 355,  350,  352,  538,  537
 356,  352,  354,  539,  538
 357,  354,  356,  540,  539
 358,  356,  358,  541,  540
 359,  358,  360,  542,  541
 360,  360,  362,  543,  542
 361,  364,  363,  544,  545
 362,  363,  365,  546,  544
 363,  365,  366,  547,  546
 364,  366,  367,  548,  547
 365,  367,  368,  549,  548
 366,  368,  369,  550,  549
 367,  369,  370,  551,  550
 368,  370,  371,  552,  551
 369,  371,  372,  553,  552
 370,  372,  373,  554,  553
 371,  373,  374,  555,  554
 372,  374,  375,  556,  555
 373,  375,  376,  557,  556
 374,  376,  377,  558,  557
 375,  377,  378,  559,  558
 376,  378,  379,  560,  559
 377,  379,  380,  561,  560
 378,  380,  381,  562,  561
 379,  381,  382,  563,  562
 380,  382,  383,  564,  563
 381,  383,  384,  565,  564
 382,  384,  385,  566,  565
 383,  385,  386,  567,  566
 384,  386,  387,  568,  567
 385,  387,  388,  569,  568
 386,  388,  389,  570,  569
 387,  389,  390,  571,  570
 388,  390,  391,  572,  571
 389,  391,  392,  573,  572
 390,  392,  393,  574,  573
 391,  393,  394,  575,  574
 392,  394,  395,  576,  575
 393,  395,  396,  577,  576
 394,  396,  397,  578,  577
 395,  397,  398,  579,  578
 396,  398,  399,  580,  579
 397,  399,  400,  581,  580
 398,  400,  401,  582,  581
 399,  401,  402,  583,  582
 400,  402,  403,  584,  583
 401,  403,  404,  585,  584
 402,  404,  405,  586,  585
 403,  405,  406,  587,  586
 404,  406,  407,  588,  587
 405,  407,  408,  589,  588
 406,  408,  409,  590,  589
 407,  409,  410,  591,  590
 408,  410,  411,  592,  591
 409,  411,  412,  593,  592
 410,  412,  413,  594,  593
 411,  413,  414,  595,  594
 412,  414,  415,  596,  595
 413,  415,  416,  597,  596
 414,  416,  417,  598,  597
 415,  417,  418,  599,  598
 416,  418,  419,  600,  599
 417,  419,  420,  601,  600
 418,  420,  421,  602,  601
 419,  421,  422,  603,  602
 420,  422,  423,  604,  603
 421,  423,  424,  605,  604
 422,  424,  425,  606,  605
 423,  425,  426,  607,  606
 424,  426,  427,  608,  607
 425,  427,  428,  609,  608
 426,  428,  429,  610,  609
 427,  429,  430,  611,  610
 428,  430,  431,  612,  611
 429,  431,  432,  613,  612
 430,  432,  433,  614,  613
 431,  433,  434,  615,  614
 432,  434,  435,  616,  615
 433,  435,  436,  617,  616
 434,  436,  437,  618,  617
 435,  437,  438,  619,  618
 436,  438,  439,  620,  619
 437,  439,  440,  621,  620
 438,  440,  441,  622,  621
 439,  441,  442,  623,  622
 440,  442,  443,  624,  623
 441,  443,  444,  625,  624
 442,  444,  445,  626,  625
 443,  445,  446,  627,  626
 444,  446,  447,  628,  627
 445,  447,  448,  629,  628
 446,  448,  449,  630,  629
 447,  449,  450,  631,  630
 448,  450,  451,  632,  631
 449,  451,  452,  633,  632
 450,  452,  453,  634,  633
 451,  453,  454,  635,  634
 452,  454,  455,  636,  635
 453,  455,  456,  637,  636
 454,  456,  457,  638,  637
 455,  457,  458,  639,  638
 456,  458,  459,  640,  639
 457,  459,  460,  641,  640
 458,  460,  461,  642,  641
 459,  461,  462,  643,  642
 460,  462,  463,  644,  643
 461,  463,  464,  645,  644
 462,  464,  465,  646,  645
 463,  465,  466,  647,  646
 464,  466,  467,  648,  647
 465,  467,  468,  649,  648
 466,  468,  469,  650,  649
 467,  469,  470,  651,  650
 468,  470,  471,  652,  651
 469,  471,  472,  653,  652
 470,  472,  473,  654,  653
 471,  473,  474,  655,  654
 472,  474,  475,  656,  655
 473,  475,  476,  657,  656
 474,  476,  477,  658,  657
 475,  477,  478,  659,  658
 476,  478,  479,  660,  659
 477,  479,  480,  661,  660
 478,  480,  481,  662,  661
 479,  481,  482,  663,  662
 480,  482,  483,  664,  663
 481,  483,  484,  665,  664
 482,  484,  485,  666,  665
 483,  485,  486,  667,  666
 484,  486,  487,  668,  667
 485,  487,  488,  669,  668
 486,  488,  489,  670,  669
 487,  489,  490,  671,  670
 488,  490,  491,  672,  671
 489,  491,  492,  673,  672
 490,  492,  493,  674,  673
 491,  493,  494,  675,  674
 492,  494,  495,  676,  675
 493,  495,  496,  677,  676
 494,  496,  497,  678,  677
 495,  497,  498,  679,  678
 496,  498,  499,  680,  679
 497,  499,  500,  681,  680
 498,  500,  501,  682,  681
 499,  501,  502,  683,  682
 500,  502,  503,  684,  683
 501,  503,  504,  685,  684
 502,  504,  505,  686,  685
 503,  505,  506,  687,  686
 504,  506,  507,  688,  687
 505,  507,  508,  689,  688
 506,  508,  509,  690,  689
 507,  509,  510,  691,  690
 508,  510,  511,  692,  691
 509,  511,  512,  693,  692
 510,  512,  513,  694,  693
 511,  513,  514,  695,  694
 512,  514,  515,  696,  695
 513,  515,  516,  697,  696
 514,  516,  517,  698,  697
 515,  517,  518,  699,  698
 516,  518,  519,  700,  699
 517,  519,  520,  701,  700
 518,  520,  521,  702,  701
 519,  521,  522,  703,  702
 520,  522,  523,  704,  703
 521,  523,  524,  705,  704
 522,  524,  525,  706,  705
 523,  525,  526,  707,  706
 524,  526,  527,  708,  707
 525,  527,  528,  709,  708
 526,  528,  529,  710,  709
 527,  529,  530,  711,  710
 528,  530,  531,  712,  711
 529,  531,  532,  713,  712
 530,  532,  533,  714,  713
 531,  533,  534,  715,  714
 532,  534,  535,  716,  715
 533,  535,  536,  717,  716
 534,  536,  537,  718,  717
 535,  537,  538,  719,  718
 536,  538,  539,  720,  719
 537,  539,  540,  721,  720
 538,  540,  541,  722,  721
 539,  541,  542,  723,  722
 540,  542,  543,  724,  723
 541,  545,  544,  725,  726
 542,  544,  546,  727,  725
 543,  546,  547,  728,  727
 544,  547,  548,  729,  728
 545,  548,  549,  730,  729
 546,  549,  550,  731,  730
 547,  550,  551,  732,  731
 548,  551,  552,  733,  732
 549,  552,  553,  734,  733
 550,  553,  554,  735,  734
 551,  554,  555,  736,  735
 552,  555,  556,  737,  736
 553,  556,  557,  738,  737
 554,  557,  558,  739,  738
 555,  558,  559,  740,  739
 556,  559,  560,  741,  740
 557,  560,  561,  742,  741
 558,  561,  562,  743,  742
 559,  562,  563,  744,  743
 560,  563,  564,  745,  744
 561,  564,  565,  746,  745
 562,  565,  566,  747,  746
 563,  566,  567,  748,  747
 564,  567,  568,  749,  748
 565,  568,  569,  750,  749
 566,  569,  570,  751,  750
 567,  570,  571,  752,  751
 568,  571,  572,  753,  752
 569,  572,  573,  754,  753
 570,  573,  574,  755,  754
 571,  574,  575,  756,  755
 572,  575,  576,  757,  756
 573,  576,  577,  758,  757
 574,  577,  578,  759,  758
 575,  578,  579,  760,  759
 576,  579,  580,  761,  760
 577,  580,  581,  762,  761
 578,  581,  582,  763,  762
 579,  582,  583,  764,  763
 580,  583,  584,  765,  764
 581,  584,  585,  766,  765
 582,  585,  586,  767,  766
 583,  586,  587,  768,  767
 584,  587,  588,  769,  768
 585,  588,  589,  770,  769
 586,  589,  590,  771,  770
 587,  590,  591,  772,  771
 588,  591,  592,  773,  772
 589,  592,  593,  774,  773
 590,  593,  594,  775,  774
 591,  594,  595,  776,  775
 592,  595,  596,  777,  776
 593,  596,  597,  778,  777
 594,  597,  598,  779,  778
 595,  598,  599,  780,  779
 596,  599,  600,  781,  780
 597,  600,  601,  782,  781
 598,  601,  602,  783,  782
 599,  602,  603,  784,  783
 600,  603,  604,  785,  784
 601,  604,  605,  786,  785
 602,  605,  606,  787,  786
 603,  606,  607,  788,  787
 604,  607,  608,  789,  788
 605,  608,  609,  790,  789
 606,  609,  610,  791,  790
 607,  610,  611,  792,  791
 608,  611,  612,  793,  792
 609,  612,  613,  794,  793
 610,  613,  614,  795,  794
 611,  614,  615,  796,  795
 612,  615,  616,  797,  796
 613,  616,  617,  798,  797
 614,  617,  618,  799,  798
 615,  618,  619,  800,  799
 616,  619,  620,  801,  800
 617,  620,  621,  802,  801
 618,  621,  622,  803,  802
 619,  622,  623,  804,  803
 620,  623,  624,  805,  804
 621,  624,  625,  806,  805
 622,  625,  626,  807,  806
 623,  626,  627,  808,  807
 624,  627,  628,  809,  808
 625,  628,  629,  810,  809
 626,  629,  630,  811,  810
 627,  630,  631,  812,  811
 628,  631,  632,  813,  812
 629,  632,  633,  814,  813
 630,  633,  634,  815,  814
 631,  634,  635,  816,  815
 632,  635,  636,  817,  816
 633,  636,  637,  818,  817
 634,  637,  638,  819,  818
 635,  638,  639,  820,  819
 636,  639,  640,  821,  820
 637,  640,  641,  822,  821
 638,  641,  642,  823,  822
 639,  642,  643,  824,  823
 640,  643,  644,  825,  824
 641,  644,  645,  826,  825
 642,  645,  646,  827,  826
 643,  646,  647,  828,  827
 644,  647,  648,  829,  828
 645,  648,  649,  830,  829
 646,  649,  650,  831,  830
 647,  650,  651,  832,  831
 648,  651,  652,  833,  832
 649,  652,  653,  834,  833
 650,  653,  654,  835,  834
 651,  654,  655,  836,  835
 652,  655,  656,  837,  836
 653,  656,  657,  838,  837
 654,  657,  658,  839,  838
 655,  658,  659,  840,  839
 656,  659,  660,  841,  840
 657,  660,  661,  842,  841
 658,  661,  662,  843,  842
 659,  662,  663,  844,  843
 660,  663,  664,  845,  844
 661,  664,  665,  846,  845
 662,  665,  666,  847,  846
 663,  666,  667,  848,  847
 664,  667,  668,  849,  848
 665,  668,  669,  850,  849
 666,  669,  670,  851,  850
 667,  670,  671,  852,  851
 668,  671,  672,  853,  852
 669,  672,  673,  854,  853
 670,  673,  674,  855,  854
 671,  674,  675,  856,  855
 672,  675,  676,  857,  856
 673,  676,  677,  858,  857
 674,  677,  678,  859,  858
 675,  678,  679,  860,  859
 676,  679,  680,  861,  860
 677,  680,  681,  862,  861
 678,  681,  682,  863,  862
 679,  682,  683,  864,  863
 680,  683,  684,  865,  864
 681,  684,  685,  866,  865
 682,  685,  686,  867,  866
 683,  686,  687,  868,  867
 684,  687,  688,  869,  868
 685,  688,  689,  870,  869
 686,  689,  690,  871,  870
 687,  690,  691,  872,  871
 688,  691,  692,  873,  872
 689,  692,  693,  874,  873
 690,  693,  694,  875,  874
 691,  694,  695,  876,  875
 692,  695,  696,  877,  876
 693,  696,  697,  878,  877
 694,  697,  698,  879,  878
 695,  698,  699,  880,  879
 696,  699,  700,  881,  880
 697,  700,  701,  882,  881
 698,  701,  702,  883,  882
 699,  702,  703,  884,  883
 700,  703,  704,  885,  884
 701,  704,  705,  886,  885
 702,  705,  706,  887,  886
 703,  706,  707,  888,  887
 704,  707,  708,  889,  888
 705,  708,  709,  890,  889
 706,  709,  710,  891,  890
 707,  710,  711,  892,  891
 708,  711,  712,  893,  892
 709,  712,  713,  894,  893
 710,  713,  714,  895,  894
 711,  714,  715,  896,  895
 712,  715,  716,  897,  896
 713,  716,  717,  898,  897
 714,  717,  718,  899,  898
 715,  718,  719,  900,  899
 716,  719,  720,  901,  900
 717,  720,  721,  902,  901
 718,  721,  722,  903,  902
 719,  722,  723,  904,  903
 720,  723,  724,  905,  904
 721,  726,  725,  906,  907
 722,  725,  727,  908,  906
 723,  727,  728,  909,  908
 724,  728,  729,  910,  909
 725,  729,  730,  911,  910
 726,  730,  731,  912,  911
 727,  731,  732,  913,  912
 728,  732,  733,  914,  913
 729,  733,  734,  915,  914
 730,  734,  735,  916,  915
 731,  735,  736,  917,  916
 732,  736,  737,  918,  917
 733,  737,  738,  919,  918
 734,  738,  739,  920,  919
 735,  739,  740,  921,  920
 736,  740,  741,  922,  921
 737,  741,  742,  923,  922
 738,  742,  743,  924,  923
 739,  743,  744,  925,  924
 740,  744,  745,  926,  925
 741,  745,  746,  927,  926
 742,  746,  747,  928,  927
 743,  747,  748,  929,  928
 744,  748,  749,  930,  929
 745,  749,  750,  931,  930
 746,  750,  751,  932,  931
 747,  751,  752,  933,  932
 748,  752,  753,  934,  933
 749,  753,  754,  935,  934
 750,  754,  755,  936,  935
 751,  755,  756,  937,  936
 752,  756,  757,  938,  937
 753,  757,  758,  939,  938
 754,  758,  759,  940,  939
 755,  759,  760,  941,  940
 756,  760,  761,  942,  941
 757,  761,  762,  943,  942
 758,  762,  763,  944,  943
 759,  763,  764,  945,  944
 760,  764,  765,  946,  945
 761,  765,  766,  947,  946
 762,  766,  767,  948,  947
 763,  767,  768,  949,  948
 764,  768,  769,  950,  949
 765,  769,  770,  951,  950
 766,  770,  771,  952,  951
 767,  771,  772,  953,  952
 768,  772,  773,  954,  953
 769,  773,  774,  955,  954
 770,  774,  775,  956,  955
 771,  775,  776,  957,  956
 772,  776,  777,  958,  957
 773,  777,  778,  959,  958
 774,  778,  779,  960,  959
 775,  779,  780,  961,  960
 776,  780,  781,  962,  961
 777,  781,  782,  963,  962
 778,  782,  783,  964,  963
 779,  783,  784,  965,  964
 780,  784,  785,  966,  965
 781,  785,  786,  967,  966
 782,  786,  787,  968,  967
 783,  787,  788,  969,  968
 784,  788,  789,  970,  969
 785,  789,  790,  971,  970
 786,  790,  791,  972,  971
 787,  791,  792,  973,  972
 788,  792,  793,  974,  973
 789,  793,  794,  975,  974
 790,  794,  795,  976,  975
 791,  795,  796,  977,  976
 792,  796,  797,  978,  977
 793,  797,  798,  979,  978
 794,  798,  799,  980,  979
 795,  799,  800,  981,  980
 796,  800,  801,  982,  981
 797,  801,  802,  983,  982
 798,  802,  803,  984,  983
 799,  803,  804,  985,  984
 800,  804,  805,  986,  985
 801,  805,  806,  987,  986
 802,  806,  807,  988,  987
 803,  807,  808,  989,  988
 804,  808,  809,  990,  989
 805,  809,  810,  991,  990
 806,  810,  811,  992,  991
 807,  811,  812,  993,  992
 808,  812,  813,  994,  993
 809,  813,  814,  995,  994
 810,  814,  815,  996,  995
 811,  815,  816,  997,  996
 812,  816,  817,  998,  997
 813,  817,  818,  999,  998
 814,  818,  819, 1000,  999
 815,  819,  820, 1001, 1000
 816,  820,  821, 1002, 1001
 817,  821,  822, 1003, 1002
 818,  822,  823, 1004, 1003
 819,  823,  824, 1005, 1004
 820,  824,  825, 1006, 1005
 821,  825,  826, 1007, 1006
 822,  826,  827, 1008, 1007
 823,  827,  828, 1009, 1008
 824,  828,  829, 1010, 1009
 825,  829,  830, 1011, 1010
 826,  830,  831, 1012, 1011
 827,  831,  832, 1013, 1012
 828,  832,  833, 1014, 1013
 829,  833,  834, 1015, 1014
 830,  834,  835, 1016, 1015
 831,  835,  836, 1017, 1016
 832,  836,  837, 1018, 1017
 833,  837,  838, 1019, 1018
 834,  838,  839, 1020, 1019
 835,  839,  840, 1021, 1020
 836,  840,  841, 1022, 1021
 837,  841,  842, 1023, 1022
 838,  842,  843, 1024, 1023
 839,  843,  844, 1025, 1024
 840,  844,  845, 1026, 1025
 841,  845,  846, 1027, 1026
 842,  846,  847, 1028, 1027
 843,  847,  848, 1029, 1028
 844,  848,  849, 1030, 1029
 845,  849,  850, 1031, 1030
 846,  850,  851, 1032, 1031
 847,  851,  852, 1033, 1032
 848,  852,  853, 1034, 1033
 849,  853,  854, 1035, 1034
 850,  854,  855, 1036, 1035
 851,  855,  856, 1037, 1036
 852,  856,  857, 1038, 1037
 853,  857,  858, 1039, 1038
 854,  858,  859, 1040, 1039
 855,  859,  860, 1041, 1040
 856,  860,  861, 1042, 1041
 857,  861,  862, 1043, 1042
 858,  862,  863, 1044, 1043
 859,  863,  864, 1045, 1044
 860,  864,  865, 1046, 1045
 861,  865,  866, 1047, 1046
 862,  866,  867, 1048, 1047
 863,  867,  868, 1049, 1048
 864,  868,  869, 1050, 1049
 865,  869,  870, 1051, 1050
 866,  870,  871, 1052, 1051
 867,  871,  872, 1053, 1052
 868,  872,  873, 1054, 1053
 869,  873,  874, 1055, 1054
 870,  874,  875, 1056, 1055
 871,  875,  876, 1057, 1056
 872,  876,  877, 1058, 1057
 873,  877,  878, 1059, 1058
 874,  878,  879, 1060, 1059
 875,  879,  880, 1061, 1060
 876,  880,  881, 1062, 1061
 877,  881,  882, 1063, 1062
 878,  882,  883, 1064, 1063
 879,  883,  884, 1065, 1064
 880,  884,  885, 1066, 1065
 881,  885,  886, 1067, 1066
 882,  886,  887, 1068, 1067
 883,  887,  888, 1069, 1068
 884,  888,  889, 1070, 1069
 885,  889,  890, 1071, 1070
 886,  890,  891, 1072, 1071
 887,  891,  892, 1073, 1072
 888,  892,  893, 1074, 1073
 889,  893,  894, 1075, 1074
 890,  894,  895, 1076, 1075
 891,  895,  896, 1077, 1076
 892,  896,  897, 1078, 1077
 893,  897,  898, 1079, 1078
 894,  898,  899, 1080, 1079
 895,  899,  900, 1081, 1080
 896,  900,  901, 1082, 1081
 897,  901,  902, 1083, 1082
 898,  902,  903, 1084, 1083
 899,  903,  904, 1085, 1084
 900,  904,  905, 1086, 1085
 901,  907,  906, 1087, 1088
 902,  906,  908, 1089, 1087
 903,  908,  909, 1090, 1089
 904,  909,  910, 1091, 1090
 905,  910,  911, 1092, 1091
 906,  911,  912, 1093, 1092
 907,  912,  913, 1094, 1093
 908,  913,  914, 1095, 1094
 909,  914,  915, 1096, 1095
 910,  915,  916, 1097, 1096
 911,  916,  917, 1098, 1097
 912,  917,  918, 1099, 1098
 913,  918,  919, 1100, 1099
 914,  919,  920, 1101, 1100
 915,  920,  921, 1102, 1101
 916,  921,  922, 1103, 1102
 917,  922,  923, 1104, 1103
 918,  923,  924, 1105, 1104
 919,  924,  925, 1106, 1105
 920,  925,  926, 1107, 1106
 921,  926,  927, 1108, 1107
 922,  927,  928, 1109, 1108
 923,  928,  929, 1110, 1109
 924,  929,  930, 1111, 1110
 925,  930,  931, 1112, 1111
 926,  931,  932, 1113, 1112
 927,  932,  933, 1114, 1113
 928,  933,  934, 1115, 1114
 929,  934,  935, 1116, 1115
 930,  935,  936, 1117, 1116
 931,  936,  937, 1118, 1117
 932,  937,  938, 1119, 1118
 933,  938,  939, 1120, 1119
 934,  939,  940, 1121, 1120
 935,  940,  941, 1122, 1121
 936,  941,  942, 1123, 1122
 937,  942,  943, 1124, 1123
 938,  943,  944, 1125, 1124
 939,  944,  945, 1126, 1125
 940,  945,  946, 1127, 1126
 941,  946,  947, 1128, 1127
 942,  947,  948, 1129, 1128
 943,  948,  949, 1130, 1129
 944,  949,  950, 1131, 1130
 945,  950,  951, 1132, 1131
 946,  951,  952, 1133, 1132
 947,  952,  953, 1134, 1133
 948,  953,  954, 1135, 1134
 949,  954,  955, 1136, 1135
 950,  955,  956, 1137, 1136
 951,  956,  957, 1138, 1137
 952,  957,  958, 1139, 1138
 953,  958,  959, 1140, 1139
 954,  959,  960, 1141, 1140
 955,  960,  961, 1142, 1141
 956,  961,  962, 1143, 1142
 957,  962,  963, 1144, 1143
 958,  963,  964, 1145, 1144
 959,  964,  965, 1146, 1145
 960,  965,  966, 1147, 1146
 961,  966,  967, 1148, 1147
 962,  967,  968, 1149, 1148
 963,  968,  969, 1150, 1149
 964,  969,  970, 1151, 1150
 965,  970,  971, 1152, 1151
 966,  971,  972, 1153, 1152
 967,  972,  973, 1154, 1153
 968,  973,  974, 1155, 1154
 969,  974,  975, 1156, 1155
 970,  975,  976, 1157, 1156
 971,  976,  977, 1158, 1157
 972,  977,  978, 1159, 1158
 973,  978,  979, 1160, 1159
 974,  979,  980, 1161, 1160
 975,  980,  981, 1162, 1161
 976,  981,  982, 1163, 1162
 977,  982,  983, 1164, 1163
 978,  983,  984, 1165, 1164
 979,  984,  985, 1166, 1165
 980,  985,  986, 1167, 1166
 981,  986,  987, 1168, 1167
 982,  987,  988, 1169, 1168
 983,  988,  989, 1170, 1169
 984,  989,  990, 1171, 1170
 985,  990,  991, 1172, 1171
 986,  991,  992, 1173, 1172
 987,  992,  993, 1174, 1173
 988,  993,  994, 1175, 1174
 989,  994,  995, 1176, 1175
 990,  995,  996, 1177, 1176
 991,  996,  997, 1178, 1177
 992,  997,  998, 1179, 1178
 993,  998,  999, 1180, 1179
 994,  999, 1000, 1181, 1180
 995, 1000, 1001, 1182, 1181
 996, 1001, 1002, 1183, 1182
 997, 1002, 1003, 1184, 1183
 998, 1003, 1004, 1185, 1184
 999, 1004, 1005, 1186, 1185
1000, 1005, 1006, 1187, 1186
1001, 1006, 1007, 1188, 1187
1002, 1007, 1008, 1189, 1188
1003, 1008, 1009, 1190, 1189
1004, 1009, 1010, 1191, 1190
1005, 1010, 1011, 1192, 1191
1006, 1011, 1012, 1193, 1192
1007, 1012, 1013, 1194, 1193
1008, 1013, 1014, 1195, 1194
1009, 1014, 1015, 1196, 1195
1010, 1015, 1016, 1197, 1196
1011, 1016, 1017, 1198, 1197
1012, 1017, 1018, 1199, 1198
1013, 1018, 1019, 1200, 1199
1014, 1019, 1020, 1201, 1200
1015, 1020, 1021, 1202, 1201
1016, 1021, 1022, 1203, 1202
1017, 1022, 1023, 1204, 1203
1018, 1023, 1024, 1205, 1204
1019, 1024, 1025, 1206, 1205
1020, 1025, 1026, 1207, 1206
1021, 1026, 1027, 1208, 1207
1022, 1027, 1028, 1209, 1208
1023, 1028, 1029, 1210, 1209
1024, 1029, 1030, 1211, 1210
1025, 1030, 1031, 1212, 1211
1026, 1031, 1032, 1213, 1212
1027, 1032, 1033, 1214, 1213
1028, 1033, 1034, 1215, 1214
1029, 1034, 1035, 1216, 1215
1030, 1035, 1036, 1217, 1216
1031, 1036, 1037, 1218, 1217
1032, 1037, 1038, 1219, 1218
1033, 1038, 1039, 1220, 1219
1034, 1039, 1040, 1221, 1220
1035, 1040, 1041, 1222, 1221
1036, 1041, 1042, 1223, 1222
1037, 1042, 1043, 1224, 1223
1038, 1043, 1044, 1225, 1224
1039, 1044, 1045, 1226, 1225
1040, 1045, 1046, 1227, 1226
1041, 1046, 1047, 1228, 1227
1042, 1047, 1048, 1229, 1228
1043, 1048, 1049, 1230, 1229
1044, 1049, 1050, 1231, 1230
1045, 1050, 1051, 1232, 1231
1046, 1051, 1052, 1233, 1232
1047, 1052, 1053, 1234, 1233
1048, 1053, 1054, 1235, 1234
1049, 1054, 1055, 1236, 1235
1050, 1055, 1056, 1237, 1236
1051, 1056, 1057, 1238, 1237
1052, 1057, 1058, 1239, 1238
1053, 1058, 1059, 1240, 1239
1054, 1059, 1060, 1241, 1240
1055, 1060, 1061, 1242, 1241
1056, 1061, 1062, 1243, 1242
1057, 1062, 1063, 1244, 1243
1058, 1063, 1064, 1245, 1244
1059, 1064, 1065, 1246, 1245
1060, 1065, 1066, 1247, 1246
1061, 1066, 1067, 1248, 1247
1062, 1067, 1068, 1249, 1248
1063, 1068, 1069, 1250, 1249
1064, 1069, 1070, 1251, 1250
1065, 1070, 1071, 1252, 1251
1066, 1071, 1072, 1253, 1252
1067, 1072, 1073, 1254, 1253
1068, 1073, 1074, 1255, 1254
1069, 1074, 1075, 1256, 1255
1070, 1075, 1076, 1257, 1256
1071, 1076, 1077, 1258, 1257
1072, 1077, 1078, 1259, 1258
1073, 1078, 1079, 1260, 1259
1074, 1079, 1080, 1261, 1260
1075, 1080, 1081, 1262, 1261
1076, 1081, 1082, 1263, 1262
1077, 1082, 1083, 1264, 1263
1078, 1083, 1084, 1265, 1264
1079, 1084, 1085, 1266, 1265
1080, 1085, 1086, 1267, 1266
1081, 1088, 1087, 1268, 1269
1082, 1087, 1089, 1270, 1268
1083, 1089, 1090, 1271, 1270
1084, 1090, 1091, 1272, 1271
1085, 1091, 1092, 1273, 1272
1086, 1092, 1093, 1274, 1273
1087, 1093, 1094, 1275, 1274
1088, 1094, 1095, 1276, 1275
1089, 1095, 1096, 1277, 1276
1090, 1096, 1097, 1278, 1277
1091, 1097, 1098, 1279, 1278
1092, 1098, 1099, 1280, 1279
1093, 1099, 1100, 1281, 1280
1094, 1100, 1101, 1282, 1281
1095, 1101, 1102, 1283, 1282
1096, 1102, 1103, 1284, 1283
1097, 1103, 1104, 1285, 1284
1098, 1104, 1105, 1286, 1285
1099, 1105, 1106, 1287, 1286
1100, 1106, 1107, 1288, 1287
1101, 1107, 1108, 1289, 1288
1102, 1108, 1109, 1290, 1289
1103, 1109, 1110, 1291, 1290
1104, 1110, 1111, 1292, 1291
1105, 1111, 1112, 1293, 1292
1106, 1112, 1113, 1294, 1293
1107, 1113, 1114, 1295, 1294
1108, 1114, 1115, 1296, 1295
1109, 1115, 1116, 1297, 1296
1110, 1116, 1117, 1298, 1297
1111, 1117, 1118, 1299, 1298
1112, 1118, 1119, 1300, 1299
1113, 1119, 1120, 1301, 1300
1114, 1120, 1121, 1302, 1301
1115, 1121, 1122, 1303, 1302
1116, 1122, 1123, 1304, 1303
1117, 1123, 1124, 1305, 1304
1118, 1124, 1125, 1306, 1305
1119, 1125, 1126, 1307, 1306
1120, 1126, 1127, 1308, 1307
1121, 1127, 1128, 1309, 1308
1122, 1128, 1129, 1310, 1309
1123, 1129, 1130, 1311, 1310
1124, 1130, 1131, 1312, 1311
1125, 1131, 1132, 1313, 1312
1126, 1132, 1133, 1314, 1313
1127, 1133, 1134, 1315, 1314
1128, 1134, 1135, 1316, 1315
1129, 1135, 1136, 1317, 1316
1130, 1136, 1137, 1318, 1317
1131, 1137, 1138, 1319, 1318
1132, 1138, 1139, 1320, 1319
1133, 1139, 1140, 1321, 1320
1134, 1140, 1141, 1322, 1321
1135, 1141, 1142, 1323, 1322
1136, 1142, 1143, 1324, 1323
1137, 1143, 1144, 1325, 1324
1138, 1144, 1145, 1326, 1325
1139, 1145, 1146, 1327, 1326
1140, 1146, 1147, 1328, 1327
1141, 1147, 1148, 1329, 1328
1142, 1148, 1149, 1330, 1329
1143, 1149, 1150, 1331, 1330
1144, 1150, 1151, 1332, 1331
1145, 1151, 1152, 1333, 1332
1146, 1152, 1153, 1334, 1333
1147, 1153, 1154, 1335, 1334
1148, 1154, 1155, 1336, 1335
1149, 1155, 1156, 1337, 1336
1150, 1156, 1157, 1338, 1337
1151, 1157, 1158, 1339, 1338
1152, 1158, 1159, 1340, 1339
1153, 1159, 1160, 1341, 1340
1154, 1160, 1161, 1342, 1341
1155, 1161, 1162, 1343, 1342
1156, 1162, 1163, 1344, 1343
1157, 1163, 1164, 1345, 1344
1158, 1164, 1165, 1346, 1345
1159, 1165, 1166, 1347, 1346
1160, 1166, 1167, 1348, 1347
1161, 1167, 1168, 1349, 1348
1162, 1168, 1169, 1350, 1349
1163, 1169, 1170, 1351, 1350
1164, 1170, 1171, 1352, 1351
1165, 1171, 1172, 1353, 1352
1166, 1172, 1173, 1354, 1353
1167, 1173, 1174, 1355, 1354
1168, 1174, 1175, 1356, 1355
1169, 1175, 1176, 1357, 1356
1170, 1176, 1177, 1358, 1357
1171, 1177, 1178, 1359, 1358
1172, 1178, 1179, 1360, 1359
1173, 1179, 1180, 1361, 1360
1174, 1180, 1181, 1362, 1361
1175, 1181, 1182, 1363, 1362
1176, 1182, 1183, 1364, 1363
1177, 1183, 1184, 1365, 1364
1178, 1184, 1185, 1366, 1365
1179, 1185, 1186, 1367, 1366
1180, 1186, 1187, 1368, 1367
1181, 1187, 1188, 1369, 1368
1182, 1188, 1189, 1370, 1369
1183, 1189, 1190, 1371, 1370
1184, 1190, 1191, 1372, 1371
1185, 1191, 1192, 1373, 1372
1186, 1192, 1193, 1374, 1373
1187, 1193, 1194, 1375, 1374
1188, 1194, 1195, 1376, 1375
1189, 1195, 1196, 1377, 1376
1190, 1196, 1197, 1378, 1377
1191, 1197, 1198, 1379, 1378
1192, 1198, 1199, 1380, 1379
1193, 1199, 1200, 1381, 1380
1194, 1200, 1201, 1382, 1381
1195, 1201, 1202, 1383, 1382
1196, 1202, 1203, 1384, 1383
1197, 1203, 1204, 1385, 1384
1198, 1204, 1205, 1386, 1385
1199, 1205, 1206, 1387, 1386
1200, 1206, 1207, 1388, 1387
1201, 1207, 1208, 1389, 1388
1202, 1208, 1209, 1390, 1389
1203, 1209, 1210, 1391, 1390
1204, 1210, 1211, 1392, 1391
1205, 1211, 1212, 1393, 1392
1206, 1212, 1213, 1394, 1393
1207, 1213, 1214, 1395, 1394
1208, 1214, 1215, 1396, 1395
1209, 1215, 1216, 1397, 1396
1210, 1216, 1217, 1398, 1397
1211, 1217, 1218, 1399, 1398
1212, 1218, 1219, 1400, 1399
1213, 1219, 1220, 1401, 1400
1214, 1220, 1221, 1402, 1401
1215, 1221, 1222, 1403, 1402
1216, 1222, 1223, 1404, 1403
1217, 1223, 1224, 1405, 1404
1218, 1224, 1225, 1406, 1405
1219, 1225, 1226, 1407, 1406
1220, 1226, 1227, 1408, 1407
1221, 1227, 1228, 1409, 1408
1222, 1228, 1229, 1410, 1409
1223, 1229, 1230, 1411, 1410
1224, 1230, 1231, 1412, 1411
1225, 1231, 1232, 1413, 1412
1226, 1232, 1233, 1414, 1413
1227, 1233, 1234, 1415, 1414
1228, 1234, 1235, 1416, 1415
1229, 1235, 1236, 1417, 1416
1230, 1236, 1237, 1418, 1417
1231, 1237, 1238, 1419, 1418
1232, 1238, 1239, 1420, 1419
1233, 1239, 1240, 1421, 1420
1234, 1240, 1241, 1422, 1421
1235, 1241, 1242, 1423, 1422
1236, 1242, 1243, 1424, 1423
1237, 1243, 1244, 1425, 1424
1238, 1244, 1245, 1426, 1425
1239, 1245, 1246, 1427, 1426
1240, 1246, 1247, 1428, 1427
1241, 1247, 1248, 1429, 1428
1242, 1248, 1249, 1430, 1429
1243, 1249, 1250, 1431, 1430
1244, 1250, 1251, 1432, 1431
1245, 1251, 1252, 1433, 1432
1246, 1252, 1253, 1434, 1433
1247, 1253, 1254, 1435, 1434
1248, 1254, 1255, 1436, 1435
1249, 1255, 1256, 1437, 1436
1250, 1256, 1257, 1438, 1437
1251, 1257, 1258, 1439, 1438
1252, 1258, 1259, 1440, 1439
1253, 1259, 1260, 1441, 1440
1254, 1260, 1261, 1442, 1441
1255, 1261, 1262, 1443, 1442
1256, 1262, 1263, 1444, 1443
1257, 1263, 1264, 1445, 1444
1258, 1264, 1265, 1446, 1445
1259, 1265, 1266, 1447, 1446
1260, 1266, 1267, 1448, 1447
1261, 1269, 1268, 1449, 1450
1262, 1268, 1270, 1451, 1449
1263, 1270, 1271, 1452, 1451
1264, 1271, 1272, 1453, 1452
1265, 1272, 1273, 1454, 1453
1266, 1273, 1274, 1455, 1454
1267, 1274, 1275, 1456, 1455
1268, 1275, 1276, 1457, 1456
1269, 1276, 1277, 1458, 1457
1270, 1277, 1278, 1459, 1458
1271, 1278, 1279, 1460, 1459
1272, 1279, 1280, 1461, 1460
1273, 1280, 1281, 1462, 1461
1274, 1281, 1282, 1463, 1462
1275, 1282, 1283, 1464, 1463
1276, 1283, 1284, 1465, 1464
1277, 1284, 1285, 1466, 1465
1278, 1285, 1286, 1467, 1466
1279, 1286, 1287, 1468, 1467
1280, 1287, 1288, 1469, 1468
1281, 1288, 1289, 1470, 1469
1282, 1289, 1290, 1471, 1470
1283, 1290, 1291, 1472, 1471
1284, 1291, 1292, 1473, 1472
1285, 1292, 1293, 1474, 1473
1286, 1293, 1294, 1475, 1474
1287, 1294, 1295, 1476, 1475
1288, 1295, 1296, 1477, 1476
1289, 1296, 1297, 1478, 1477
1290, 1297, 1298, 1479, 1478
1291, 1298, 1299, 1480, 1479
1292, 1299, 1300, 1481, 1480
1293, 1300, 1301, 1482, 1481
1294, 1301, 1302, 1483, 1482
1295, 1302, 1303, 1484, 1483
1296, 1303, 1304, 1485, 1484
1297, 1304, 1305, 1486, 1485
1298, 1305, 1306, 1487, 1486
1299, 1306, 1307, 1488, 1487
1300, 1307, 1308, 1489, 1488
1301, 1308, 1309, 1490, 1489
1302, 1309, 1310, 1491, 1490
1303, 1310, 1311, 1492, 1491
1304, 1311, 1312, 1493, 1492
1305, 1312, 1313, 1494, 1493
1306, 1313, 1314, 1495, 1494
1307, 1314, 1315, 1496, 1495
1308, 1315, 1316, 1497, 1496
1309, 1316, 1317, 1498, 1497
1310, 1317, 1318, 1499, 1498
1311, 1318, 1319, 1500, 1499
1312, 1319, 1320, 1501, 1500
1313, 1320, 1321, 1502, 1501
1314, 1321, 1322, 1503, 1502
1315, 1322, 1323, 1504, 1503
1316, 1323, 1324, 1505, 1504
1317, 1324, 1325, 1506, 1505
1318, 1325, 1326, 1507, 1506
1319, 1326, 1327, 1508, 1507
1320, 1327, 1328, 1509, 1508
1321, 1328, 1329, 1510, 1509
1322, 1329, 1330, 1511, 1510
1323, 1330, 1331, 1512, 1511
1324, 1331, 1332, 1513, 1512
1325, 1332, 1333, 1514, 1513
1326, 1333, 1334, 1515, 1514
1327, 1334, 1335, 1516, 1515
1328, 1335, 1336, 1517, 1516
1329, 1336, 1337, 1518, 1517
1330, 1337, 1338, 1519, 1518
1331, 1338, 1339, 1520, 1519
1332, 1339, 1340, 1521, 1520
1333, 1340, 1341, 1522, 1521
1334, 1341, 1342, 1523, 1522
1335, 1342, 1343, 1524, 1523
1336, 1343, 1344, 1525, 1524
1337, 1344, 1345, 1526, 1525
1338, 1345, 1346, 1527, 1526
1339, 1346, 1347, 1528, 1527
1340, 1347, 1348, 1529, 1528
1341, 1348, 1349, 1530, 1529
1342, 1349, 1350, 1531, 1530
1343, 1350, 1351, 1532, 1531
1344, 1351, 1352, 1533, 1532
1345, 1352, 1353, 1534, 1533
1346, 1353, 1354, 1535, 1534
1347, 1354, 1355, 1536, 1535
1348, 1355, 1356, 1537, 1536
1349, 1356, 1357, 1538, 1537
1350, 1357, 1358, 1539, 1538
1351, 1358, 1359, 1540, 1539
1352, 1359, 1360, 1541, 1540
1353, 1360, 1361, 1542, 1541
1354, 1361, 1362, 1543, 1542
1355, 1362, 1363, 1544, 1543
1356, 1363, 1364, 1545, 1544
1357, 1364, 1365, 1546, 1545
1358, 1365, 1366, 1547, 1546
1359, 1366, 1367, 1548, 1547
1360, 1367, 1368, 1549, 1548
1361, 1368, 1369, 1550, 1549
1362, 1369, 1370, 1551, 1550
1363, 1370, 1371, 1552, 1551
1364, 1371, 1372, 1553, 1552
1365, 1372, 1373, 1554, 1553
1366, 1373, 1374, 1555, 1554
1367, 1374, 1375, 1556, 1555
1368, 1375, 1376, 1557, 1556
1369, 1376, 1377, 1558, 1557
1370, 1377, 1378, 1559, 1558
1371, 1378, 1379, 1560, 1559
1372, 1379, 1380, 1561, 1560
1373, 1380, 1381, 1562, 1561
1374, 1381, 1382, 1563, 1562
1375, 1382, 1383, 1564, 1563
1376, 1383, 1384, 1565, 1564
1377, 1384, 1385, 1566, 1565
1378, 1385, 1386, 1567, 1566
1379, 1386, 1387, 1568, 1567
1380, 1387, 1388, 1569, 1568
1381, 1388, 1389, 1570, 1569
1382, 1389, 1390, 1571, 1570
1383, 1390, 1391, 1572, 1571
1384, 1391, 1392, 1573, 1572
1385, 1392, 1393, 1574, 1573
1386, 1393, 1394, 1575, 1574
1387, 1394, 1395, 1576, 1575
1388, 1395, 1396, 1577, 1576
1389, 1396, 1397, 1578, 1577
1390, 1397, 1398, 1579, 1578
1391, 1398, 1399, 1580, 1579
1392, 1399, 1400, 1581, 1580
1393, 1400, 1401, 1582, 1581
1394, 1401, 1402, 1583, 1582
1395, 1402, 1403, 1584, 1583
1396, 1403, 1404, 1585, 1584
1397, 1404, 1405, 1586, 1585
1398, 1405, 1406, 1587, 1586
1399, 1406, 1407, 1588, 1587
1400, 1407, 1408, 1589, 1588
1401, 1408, 1409, 1590, 1589
1402, 1409, 1410, 1591, 1590
1403, 1410, 1411, 1592, 1591
1404, 1411, 1412, 1593, 1592
1405, 1412, 1413, 1594, 1593
1406, 1413, 1414, 1595, 1594
1407, 1414, 1415, 1596, 1595
1408, 1415, 1416, 1597, 1596
1409, 1416, 1417, 1598, 1597
1410, 1417, 1418, 1599, 1598
1411, 1418, 1419, 1600, 1599
1412, 1419, 1420, 1601, 1600
1413, 1420, 1421, 1602, 1601
1414, 1421, 1422, 1603, 1602
1415, 1422, 1423, 1604, 1603
1416, 1423, 1424, 1605, 1604
1417, 1424, 1425, 1606, 1605
1418, 1425, 1426, 1607, 1606
1419, 1426, 1427, 1608, 1607
1420, 1427, 1428, 1609, 1608
1421, 1428, 1429, 1610, 1609
1422, 1429, 1430, 1611, 1610
1423, 1430, 1431, 1612, 1611
1424, 1431, 1432, 1613, 1612
1425, 1432, 1433, 1614, 1613
1426, 1433, 1434, 1615, 1614
1427, 1434, 1435, 1616, 1615
1428, 1435, 1436, 1617, 1616
1429, 1436, 1437, 1618, 1617
1430, 1437, 1438, 1619, 1618
1431, 1438, 1439, 1620, 1619
1432, 1439, 1440, 1621, 1620
1433, 1440, 1441, 1622, 1621
1434, 1441, 1442, 1623, 1622
1435, 1442, 1443, 1624, 1623
1436, 1443, 1444, 1625, 1624
1437, 1444, 1445, 1626, 1625
1438, 1445, 1446, 1627, 1626
1439, 1446, 1447, 1628, 1627
1440, 1447, 1448, 1629, 1628
1441, 1450, 1449, 1630, 1631
1442, 1449, 1451, 1632, 1630
1443, 1451, 1452, 1633, 1632
1444, 1452, 1453, 1634, 1633
1445, 1453, 1454, 1635, 1634
1446, 1454, 1455, 1636, 1635
1447, 1455, 1456, 1637, 1636
1448, 1456, 1457, 1638, 1637
1449, 1457, 1458, 1639, 1638
1450, 1458, 1459, 1640, 1639
1451, 1459, 1460, 1641, 1640
1452, 1460, 1461, 1642, 1641
1453, 1461, 1462, 1643, 1642
1454, 1462, 1463, 1644, 1643
1455, 1463, 1464, 1645, 1644
1456, 1464, 1465, 1646, 1645
1457, 1465, 1466, 1647, 1646
1458, 1466, 1467, 1648, 1647
1459, 1467, 1468, 1649, 1648
1460, 1468, 1469, 1650, 1649
1461, 1469, 1470, 1651, 1650
1462, 1470, 1471, 1652, 1651
1463, 1471, 1472, 1653, 1652
1464, 1472, 1473, 1654, 1653
1465, 1473, 1474, 1655, 1654
1466, 1474, 1475, 1656, 1655
1467, 1475, 1476, 1657, 1656
1468, 1476, 1477, 1658, 1657
1469, 1477, 1478, 1659, 1658
1470, 1478, 1479, 1660, 1659
1471, 1479, 1480, 1661, 1660
1472, 1480, 1481, 1662, 1661
1473, 1481, 1482, 1663, 1662
1474, 1482, 1483, 1664, 1663
1475, 1483, 1484, 1665, 1664
1476, 1484, 1485, 1666, 1665
1477, 1485, 1486, 1667, 1666
1478, 1486, 1487, 1668, 1667
1479, 1487, 1488, 1669, 1668
1480, 1488, 1489, 1670, 1669
1481, 1489, 1490, 1671, 1670
1482, 1490, 1491, 1672, 1671
1483, 1491, 1492, 1673, 1672
1484, 1492, 1493, 1674, 1673
1485, 1493, 1494, 1675, 1674
1486, 1494, 1495, 1676, 1675
1487, 1495, 1496, 1677, 1676
1488, 1496, 1497, 1678, 1677
1489, 1497, 1498, 1679, 1678
1490, 1498, 1499, 1680, 1679
1491, 1499, 1500, 1681, 1680
1492, 1500, 1501, 1682, 1681
1493, 1501, 1502, 1683, 1682
1494, 1502, 1503, 1684, 1683
1495, 1503, 1504, 1685, 1684
1496, 1504, 1505, 1686, 1685
1497, 1505, 1506, 1687, 1686
1498, 1506, 1507, 1688, 1687
1499, 1507, 1508, 1689, 1688
1500, 1508, 1509, 1690, 1689
1501, 1509, 1510, 1691, 1690
1502, 1510, 1511, 1692, 1691
1503, 1511, 1512, 1693, 1692
1504, 1512, 1513, 1694, 1693
1505, 1513, 1514, 1695, 1694
1506, 1514, 1515, 1696, 1695
1507, 1515, 1516, 1697, 1696
1508, 1516, 1517, 1698, 1697
1509, 1517, 1518, 1699, 1698
1510, 1518, 1519, 1700, 1699
1511, 1519, 1520, 1701, 1700
1512, 1520, 1521, 1702, 1701
1513, 1521, 1522, 1703, 1702
1514, 1522, 1523, 1704, 1703
1515, 1523, 1524, 1705, 1704
1516, 1524, 1525, 1706, 1705
1517, 1525, 1526, 1707, 1706
1518, 1526, 1527, 1708, 1707
1519, 1527, 1528, 1709, 1708
1520, 1528, 1529, 1710, 1709
1521, 1529, 1530, 1711, 1710
1522, 1530, 1531, 1712, 1711
1523, 1531, 1532, 1713, 1712
1524, 1532, 1533, 1714, 1713
1525, 1533, 1534, 1715, 1714
1526, 1534, 1535, 1716, 1715
1527, 1535, 1536, 1717, 1716
1528, 1536, 1537, 1718, 1717
1529, 1537, 1538, 1719, 1718
1530, 1538, 1539, 1720, 1719
1531, 1539, 1540, 1721, 1720
1532, 1540, 1541, 1722, 1721
1533, 1541, 1542, 1723, 1722
1534, 1542, 1543, 1724, 1723
1535, 1543, 1544, 1725, 1724
1536, 1544, 1545, 1726, 1725
1537, 1545, 1546, 1727, 1726
1538, 1546, 1547, 1728, 1727
1539, 1547, 1548, 1729, 1728
1540, 1548, 1549, 1730, 1729
1541, 1549, 1550, 1731, 1730
1542, 1550, 1551, 1732, 1731
1543, 1551, 1552, 1733, 1732
1544, 1552, 1553, 1734, 1733
1545, 1553, 1554, 1735, 1734
1546, 1554, 1555, 1736, 1735
1547, 1555, 1556, 1737, 1736
1548, 1556, 1557, 1738, 1737
1549, 1557, 1558, 1739, 1738
1550, 1558, 1559, 1740, 1739
1551, 1559, 1560, 1741, 1740
1552, 1560, 1561, 1742, 1741
1553, 1561, 1562, 1743, 1742
1554, 1562, 1563, 1744, 1743
1555, 1563, 1564, 1745, 1744
1556, 1564, 1565, 1746, 1745
1557, 1565, 1566, 1747, 1746
1558, 1566, 1567, 1748, 1747
1559, 1567, 1568, 1749, 1748
1560, 1568, 1569, 1750, 1749
1561, 1569, 1570, 1751, 1750
1562, 1570, 1571, 1752, 1751
1563, 1571, 1572, 1753, 1752
1564, 1572, 1573, 1754, 1753
1565, 1573, 1574, 1755, 1754
1566, 1574, 1575, 1756, 1755
1567, 1575, 1576, 1757, 1756
1568, 1576, 1577, 1758, 1757
1569, 1577, 1578, 1759, 1758
1570, 1578, 1579, 1760, 1759
1571, 1579, 1580, 1761, 1760
1572, 1580, 1581, 1762, 1761
1573, 1581, 1582, 1763, 1762
1574, 1582, 1583, 1764, 1763
1575, 1583, 1584, 1765, 1764
1576, 1584, 1585, 1766, 1765
1577, 1585, 1586, 1767, 1766
1578, 1586, 1587, 1768, 1767
1579, 1587, 1588, 1769, 1768
1580, 1588, 1589, 1770, 1769
1581, 1589, 1590, 1771, 1770
1582, 1590, 1591, 1772, 1771
1583, 1591, 1592, 1773, 1772
1584, 1592, 1593, 1774, 1773
1585, 1593, 1594, 1775, 1774
1586, 1594, 1595, 1776, 1775
1587, 1595, 1596, 1777, 1776
1588, 1596, 1597, 1778, 1777
1589, 1597, 1598, 1779, 1778
1590, 1598, 1599, 1780, 1779
1591, 1599, 1600, 1781, 1780
1592, 1600, 1601, 1782, 1781
1593, 1601, 1602, 1783, 1782
1594, 1602, 1603, 1784, 1783
1595, 1603, 1604, 1785, 1784
1596, 1604, 1605, 1786, 1785
1597, 1605, 1606, 1787, 1786
1598, 1606, 1607, 1788, 1787
1599, 1607, 1608, 1789, 1788
1600, 1608, 1609, 1790, 1789
1601, 1609, 1610, 1791, 1790
1602, 1610, 1611, 1792, 1791
1603, 1611, 1612, 1793, 1792
1604, 1612, 1613, 1794, 1793
1605, 1613, 1614, 1795, 1794
1606, 1614, 1615, 1796, 1795
1607, 1615, 1616, 1797, 1796
1608, 1616, 1617, 1798, 1797
1609, 1617, 1618, 1799, 1798
1610, 1618, 1619, 1800, 1799
1611, 1619, 1620, 1801, 1800
1612, 1620, 1621, 1802, 1801
1613, 1621, 1622, 1803, 1802
1614, 1622, 1623, 1804, 1803
1615, 1623, 1624, 1805, 1804
1616, 1624, 1625, 1806, 1805
1617, 1625, 1626, 1807, 1806
1618, 1626, 1627, 1808, 1807
1619, 1627, 1628, 1809, 1808
1620, 1628, 1629, 1810, 1809
1621, 1631, 1630, 1811, 1812
1622, 1630, 1632, 1813, 1811
1623, 1632, 1633, 1814, 1813
1624, 1633, 1634, 1815, 1814
1625, 1634, 1635, 1816, 1815
1626, 1635, 1636, 1817, 1816
1627, 1636, 1637, 1818, 1817
1628, 1637, 1638, 1819, 1818
1629, 1638, 1639, 1820, 1819
1630, 1639, 1640, 1821, 1820
1631, 1640, 1641, 1822, 1821
1632, 1641, 1642, 1823, 1822
1633, 1642, 1643, 1824, 1823
1634, 1643, 1644, 1825, 1824
1635, 1644, 1645, 1826, 1825
1636, 1645, 1646, 1827, 1826
1637, 1646, 1647, 1828, 1827
1638, 1647, 1648, 1829, 1828
1639, 1648, 1649, 1830, 1829
1640, 1649, 1650, 1831, 1830
1641, 1650, 1651, 1832, 1831
1642, 1651, 1652, 1833, 1832
1643, 1652, 1653, 1834, 1833
1644, 1653, 1654, 1835, 1834
1645, 1654, 1655, 1836, 1835
1646, 1655, 1656, 1837, 1836
1647, 1656, 1657, 1838, 1837
1648, 1657, 1658, 1839, 1838
1649, 1658, 1659, 1840, 1839
1650, 1659, 1660, 1841, 1840
1651, 1660, 1661, 1842, 1841
1652, 1661, 1662, 1843, 1842
1653, 1662, 1663, 1844, 1843
1654, 1663, 1664, 1845, 1844
1655, 1664, 1665, 1846, 1845
1656, 1665, 1666, 1847, 1846
1657, 1666, 1667, 1848, 1847
1658, 1667, 1668, 1849, 1848
1659, 1668, 1669, 1850, 1849
1660, 1669, 1670, 1851, 1850
1661, 1670, 1671, 1852, 1851
1662, 1671, 1672, 1853, 1852
1663, 1672, 1673, 1854, 1853
1664, 1673, 1674, 1855, 1854
1665, 1674, 1675, 1856, 1855
1666, 1675, 1676, 1857, 1856
1667, 1676, 1677, 1858, 1857
1668, 1677, 1678, 1859, 1858
1669, 1678, 1679, 1860, 1859
1670, 1679, 1680, 1861, 1860
1671, 1680, 1681, 1862, 1861
1672, 1681, 1682, 1863, 1862
1673, 1682, 1683, 1864, 1863
1674, 1683, 1684, 1865, 1864
1675, 1684, 1685, 1866, 1865
1676, 1685, 1686, 1867, 1866
1677, 1686, 1687, 1868, 1867
1678, 1687, 1688, 1869, 1868
1679, 1688, 1689, 1870, 1869
1680, 1689, 1690, 1871, 1870
1681, 1690, 1691, 1872, 1871
1682, 1691, 1692, 1873, 1872
1683, 1692, 1693, 1874, 1873
1684, 1693, 1694, 1875, 1874
1685, 1694, 1695, 1876, 1875
1686, 1695, 1696, 1877, 1876
1687, 1696, 1697, 1878, 1877
1688, 1697, 1698, 1879, 1878
1689, 1698, 1699, 1880, 1879
1690, 1699, 1700, 1881, 1880
1691, 1700, 1701, 1882, 1881
1692, 1701, 1702, 1883, 1882
1693, 1702, 1703, 1884, 1883
1694, 1703, 1704, 1885, 1884
1695, 1704, 1705, 1886, 1885
1696, 1705, 1706, 1887, 1886
1697, 1706, 1707, 1888, 1887
1698, 1707, 1708, 1889, 1888
1699, 1708, 1709, 1890, 1889
1700, 1709, 1710, 1891, 1890
1701, 1710, 1711, 1892, 1891
1702, 1711, 1712, 1893, 1892
1703, 1712, 1713, 1894, 1893
1704, 1713, 1714, 1895, 1894
1705, 1714, 1715, 1896, 1895
1706, 1715, 1716, 1897, 1896
1707, 1716, 1717, 1898, 1897
1708, 1717, 1718, 1899, 1898
1709, 1718, 1719, 1900, 1899
1710, 1719, 1720, 1901, 1900
1711, 1720, 1721, 1902, 1901
1712, 1721, 1722, 1903, 1902
1713, 1722, 1723, 1904, 1903
1714, 1723, 1724, 1905, 1904
1715, 1724, 1725, 1906, 1905
1716, 1725, 1726, 1907, 1906
1717, 1726, 1727, 1908, 1907
1718, 1727, 1728, 1909, 1908
1719, 1728, 1729, 1910, 1909
1720, 1729, 1730, 1911, 1910
1721, 1730, 1731, 1912, 1911
1722, 1731, 1732, 1913, 1912
1723, 1732, 1733, 1914, 1913
1724, 1733, 1734, 1915, 1914
1725, 1734, 1735, 1916, 1915
1726, 1735, 1736, 1917, 1916
1727, 1736, 1737, 1918, 1917
1728, 1737, 1738, 1919, 1918
1729, 1738, 1739, 1920, 1919
1730, 1739, 1740, 1921, 1920
1731, 1740, 1741, 1922, 1921
1732, 1741, 1742, 1923, 1922
1733, 1742, 1743, 1924, 1923
1734, 1743, 1744, 1925, 1924
1735, 1744, 1745, 1926, 1925
1736, 1745, 1746, 1927, 1926
1737, 1746, 1747, 1928, 1927
1738, 1747, 1748, 1929, 1928
1739, 1748, 1749, 1930, 1929
1740, 1749, 1750, 1931, 1930
1741, 1750, 1751, 1932, 1931
1742, 1751, 1752, 1933, 1932
1743, 1752, 1753, 1934, 1933
1744, 1753, 1754, 1935, 1934
1745, 1754, 1755, 1936, 1935
1746, 1755, 1756, 1937, 1936
1747, 1756, 1757, 1938, 1937
1748, 1757, 1758, 1939, 1938
1749, 1758, 1759, 1940, 1939
1750, 1759, 1760, 1941, 1940
1751, 1760, 1761, 1942, 1941
1752, 1761, 1762, 1943, 1942
1753, 1762, 1763, 1944, 1943
1754, 1763, 1764, 1945, 1944
1755, 1764, 1765, 1946, 1945
1756, 1765, 1766, 1947, 1946
1757, 1766, 1767, 1948, 1947
1758, 1767, 1768, 1949, 1948
1759, 1768, 1769, 1950, 1949
1760, 1769, 1770, 1951, 1950
1761, 1770, 1771, 1952, 1951
1762, 1771, 1772, 1953, 1952
1763, 1772, 1773, 1954, 1953
1764, 1773, 1774, 1955, 1954
1765, 1774, 1775, 1956, 1955
1766, 1775, 1776, 1957, 1956
1767, 1776, 1777, 1958, 1957
1768, 1777, 1778, 1959, 1958
1769, 1778, 1779, 1960, 1959
1770, 1779, 1780, 1961, 1960
1771, 1780, 1781, 1962, 1961
1772, 1781, 1782, 1963, 1962
1773, 1782, 1783, 1964, 1963
1774, 1783, 1784, 1965, 1964
1775, 1784, 1785, 1966, 1965
1776, 1785, 1786, 1967, 1966
1777, 1786, 1787, 1968, 1967
1778, 1787, 1788, 1969, 1968
1779, 1788, 1789, 1970, 1969
1780, 1789, 1790, 1971, 1970
1781, 1790, 1791, 1972, 1971
1782, 1791, 1792, 1973, 1972
1783, 1792, 1793, 1974, 1973
1784, 1793, 1794, 1975, 1974
1785, 1794, 1795, 1976, 1975
1786, 1795, 1796, 1977, 1976
1787, 1796, 1797, 1978, 1977
1788, 1797, 1798, 1979, 1978
1789, 1798, 1799, 1980, 1979
1790, 1799, 1800, 1981, 1980
1791, 1800, 1801, 1982, 1981
1792, 1801, 1802, 1983, 1982
1793, 1802, 1803, 1984, 1983
1794, 1803, 1804, 1985, 1984
1795, 1804, 1805, 1986, 1985
1796, 1805, 1806, 1987, 1986
1797, 1806, 1807, 1988, 1987
1798, 1807, 1808, 1989, 1988
1799, 1808, 1809, 1990, 1989
1800, 1809, 1810, 1991, 1990
1801, 1812, 1811, 1992, 1993
1802, 1811, 1813, 1994, 1992
1803, 1813, 1814, 1995, 1994
1804, 1814, 1815, 1996, 1995
1805, 1815, 1816, 1997, 1996
1806, 1816, 1817, 1998, 1997
1807, 1817, 1818, 1999, 1998
1808, 1818, 1819, 2000, 1999
1809, 1819, 1820, 2001, 2000
1810, 1820, 1821, 2002, 2001
1811, 1821, 1822, 2003, 2002
1812, 1822, 1823, 2004, 2003
1813, 1823, 1824, 2005, 2004
1814, 1824, 1825, 2006, 2005
1815, 1825, 1826, 2007, 2006
1816, 1826, 1827, 2008, 2007
1817, 1827, 1828, 2009, 2008
1818, 1828, 1829, 2010, 2009
1819, 1829, 1830, 2011, 2010
1820, 1830, 1831, 2012, 2011
1821, 1831, 1832, 2013, 2012
1822, 1832, 1833, 2014, 2013
1823, 1833, 1834, 2015, 2014
1824, 1834, 1835, 2016, 2015
1825, 1835, 1836, 2017, 2016
1826, 1836, 1837, 2018, 2017
1827, 1837, 1838, 2019, 2018
1828, 1838, 1839, 2020, 2019
1829, 1839, 1840, 2021, 2020
1830, 1840, 1841, 2022, 2021
1831, 1841, 1842, 2023, 2022
1832, 1842, 1843, 2024, 2023
1833, 1843, 1844, 2025, 2024
1834, 1844, 1845, 2026, 2025
1835, 1845, 1846, 2027, 2026
1836, 1846, 1847, 2028, 2027
1837, 1847, 1848, 2029, 2028
1838, 1848, 1849, 2030, 2029
1839, 1849, 1850, 2031, 2030
1840, 1850, 1851, 2032, 2031
1841, 1851, 1852, 2033, 2032
1842, 1852, 1853, 2034, 2033
1843, 1853, 1854, 2035, 2034
1844, 1854, 1855, 2036, 2035
1845, 1855, 1856, 2037, 2036
1846, 1856, 1857, 2038, 2037
1847, 1857, 1858, 2039, 2038
1848, 1858, 1859, 2040, 2039
1849, 1859, 1860, 2041, 2040
1850, 1860, 1861, 2042, 2041
1851, 1861, 1862, 2043, 2042
1852, 1862, 1863, 2044, 2043
1853, 1863, 1864, 2045, 2044
1854, 1864, 1865, 2046, 2045
1855, 1865, 1866, 2047, 2046
1856, 1866, 1867, 2048, 2047
1857, 1867, 1868, 2049, 2048
1858, 1868, 1869, 2050, 2049
1859, 1869, 1870, 2051, 2050
1860, 1870, 1871, 2052, 2051
1861, 1871, 1872, 2053, 2052
1862, 1872, 1873, 2054, 2053
1863, 1873, 1874, 2055, 2054
1864, 1874, 1875, 2056, 2055
1865, 1875, 1876, 2057, 2056
1866, 1876, 1877, 2058, 2057
1867, 1877, 1878, 2059, 2058
1868, 1878, 1879, 2060, 2059
1869, 1879, 1880, 2061, 2060
1870, 1880, 1881, 2062, 2061
1871, 1881, 1882, 2063, 2062
1872, 1882, 1883, 2064, 2063
1873, 1883, 1884, 2065, 2064
1874, 1884, 1885, 2066, 2065
1875, 1885, 1886, 2067, 2066
1876, 1886, 1887, 2068, 2067
1877, 1887, 1888, 2069, 2068
1878, 1888, 1889, 2070, 2069
1879, 1889, 1890, 2071, 2070
1880, 1890, 1891, 2072, 2071
1881, 1891, 1892, 2073, 2072
1882, 1892, 1893, 2074, 2073
1883, 1893, 1894, 2075, 2074
1884, 1894, 1895, 2076, 2075
1885, 1895, 1896, 2077, 2076
1886, 1896, 1897, 2078, 2077
1887, 1897, 1898, 2079, 2078
1888, 1898, 1899, 2080, 2079
1889, 1899, 1900, 2081, 2080
1890, 1900, 1901, 2082, 2081
1891, 1901, 1902, 2083, 2082
1892, 1902, 1903, 2084, 2083
1893, 1903, 1904, 2085, 2084
1894, 1904, 1905, 2086, 2085
1895, 1905, 1906, 2087, 2086
1896, 1906, 1907, 2088, 2087
1897, 1907, 1908, 2089, 2088
1898, 1908, 1909, 2090, 2089
1899, 1909, 1910, 2091, 2090
1900, 1910, 1911, 2092, 2091
1901, 1911, 1912, 2093, 2092
1902, 1912, 1913, 2094, 2093
1903, 1913, 1914, 2095, 2094
1904, 1914, 1915, 2096, 2095
1905, 1915, 1916, 2097, 2096
1906, 1916, 1917, 2098, 2097
1907, 1917, 1918, 2099, 2098
1908, 1918, 1919, 2100, 2099
1909, 1919, 1920, 2101, 2100
1910, 1920, 1921, 2102, 2101
1911, 1921, 1922, 2103, 2102
1912, 1922, 1923, 2104, 2103
1913, 1923, 1924, 2105, 2104
1914, 1924, 1925, 2106, 2105
1915, 1925, 1926, 2107, 2106
1916, 1926, 1927, 2108, 2107
1917, 1927, 1928, 2109, 2108
1918, 1928, 1929, 2110, 2109
1919, 1929, 1930, 2111, 2110
1920, 1930, 1931, 2112, 2111
1921, 1931, 1932, 2113, 2112
1922, 1932, 1933, 2114, 2113
1923, 1933, 1934, 2115, 2114
1924, 1934, 1935, 2116, 2115
1925, 1935, 1936, 2117, 2116
1926, 1936, 1937, 2118, 2117
1927, 1937, 1938, 2119, 2118
1928, 1938, 1939, 2120, 2119
1929, 1939, 1940, 2121, 2120
1930, 1940, 1941, 2122, 2121
1931, 1941, 1942, 2123, 2122
1932, 1942, 1943, 2124, 2123
1933, 1943, 1944, 2125, 2124
1934, 1944, 1945, 2126, 2125
1935, 1945, 1946, 2127, 2126
1936, 1946, 1947, 2128, 2127
1937, 1947, 1948, 2129, 2128
1938, 1948, 1949, 2130, 2129
1939, 1949, 1950, 2131, 2130
1940, 1950, 1951, 2132, 2131
1941, 1951, 1952, 2133, 2132
1942, 1952, 1953, 2134, 2133
1943, 1953, 1954, 2135, 2134
1944, 1954, 1955, 2136, 2135
1945, 1955, 1956, 2137, 2136
1946, 1956, 1957, 2138, 2137
1947, 1957, 1958, 2139, 2138
1948, 1958, 1959, 2140, 2139
1949, 1959, 1960, 2141, 2140
1950, 1960, 1961, 2142, 2141
1951, 1961, 1962, 2143, 2142
1952, 1962, 1963, 2144, 2143
1953, 1963, 1964, 2145, 2144
1954, 1964, 1965, 2146, 2145
1955, 1965, 1966, 2147, 2146
1956, 1966, 1967, 2148, 2147
1957, 1967, 1968, 2149, 2148
1958, 1968, 1969, 2150, 2149
1959, 1969, 1970, 2151, 2150
1960, 1970, 1971, 2152, 2151
1961, 1971, 1972, 2153, 2152
1962, 1972, 1973, 2154, 2153
1963, 1973, 1974, 2155, 2154
1964, 1974, 1975, 2156, 2155
1965, 1975, 1976, 2157, 2156
1966, 1976, 1977, 2158, 2157
1967, 1977, 1978, 2159, 2158
1968, 1978, 1979, 2160, 2159
1969, 1979, 1980, 2161, 2160
1970, 1980, 1981, 2162, 2161
1971, 1981, 1982, 2163, 2162
1972, 1982, 1983, 2164, 2163
1973, 1983, 1984, 2165, 2164
1974, 1984, 1985, 2166, 2165
1975, 1985, 1986, 2167, 2166
1976, 1986, 1987, 2168, 2167
1977, 1987, 1988, 2169, 2168
1978, 1988, 1989, 2170, 2169
1979, 1989, 1990, 2171, 2170
1980, 1990, 1991, 2172, 2171
1981, 1993, 1992, 2173, 2174
1982, 1992, 1994, 2175, 2173
1983, 1994, 1995, 2176, 2175
1984, 1995, 1996, 2177, 2176
1985, 1996, 1997, 2178, 2177
1986, 1997, 1998, 2179, 2178
1987, 1998, 1999, 2180, 2179
1988, 1999, 2000, 2181, 2180
1989, 2000, 2001, 2182, 2181
1990, 2001, 2002, 2183, 2182
1991, 2002, 2003, 2184, 2183
1992, 2003, 2004, 2185, 2184
1993, 2004, 2005, 2186, 2185
1994, 2005, 2006, 2187, 2186
1995, 2006, 2007, 2188, 2187
1996, 2007, 2008, 2189, 2188
1997, 2008, 2009, 2190, 2189
1998, 2009, 2010, 2191, 2190
1999, 2010, 2011, 2192, 2191
2000, 2011, 2012, 2193, 2192
2001, 2012, 2013, 2194, 2193
2002, 2013, 2014, 2195, 2194
2003, 2014, 2015, 2196, 2195
2004, 2015, 2016, 2197, 2196
2005, 2016, 2017, 2198, 2197
2006, 2017, 2018, 2199, 2198
2007, 2018, 2019, 2200, 2199
2008, 2019, 2020, 2201, 2200
2009, 2020, 2021, 2202, 2201
2010, 2021, 2022, 2203, 2202
2011, 2022, 2023, 2204, 2203
2012, 2023, 2024, 2205, 2204
2013, 2024, 2025, 2206, 2205
2014, 2025, 2026, 2207, 2206
2015, 2026, 2027, 2208, 2207
2016, 2027, 2028, 2209, 2208
2017, 2028, 2029, 2210, 2209
2018, 2029, 2030, 2211, 2210
2019, 2030, 2031, 2212, 2211
2020, 2031, 2032, 2213, 2212
2021, 2032, 2033, 2214, 2213
2022, 2033, 2034, 2215, 2214
2023, 2034, 2035, 2216, 2215
2024, 2035, 2036, 2217, 2216
2025, 2036, 2037, 2218, 2217
2026, 2037, 2038, 2219, 2218
2027, 2038, 2039, 2220, 2219
2028, 2039, 2040, 2221, 2220
2029, 2040, 2041, 2222, 2221
2030, 2041, 2042, 2223, 2222
2031, 2042, 2043, 2224, 2223
2032, 2043, 2044, 2225, 2224
2033, 2044, 2045, 2226, 2225
2034, 2045, 2046, 2227, 2226
2035, 2046, 2047, 2228, 2227
2036, 2047, 2048, 2229, 2228
2037, 2048, 2049, 2230, 2229
2038, 2049, 2050, 2231, 2230
2039, 2050, 2051, 2232, 2231
2040, 2051, 2052, 2233, 2232
2041, 2052, 2053, 2234, 2233
2042, 2053, 2054, 2235, 2234
2043, 2054, 2055, 2236, 2235
2044, 2055, 2056, 2237, 2236
2045, 2056, 2057, 2238, 2237
2046, 2057, 2058, 2239, 2238
2047, 2058, 2059, 2240, 2239
2048, 2059, 2060, 2241, 2240
2049, 2060, 2061, 2242, 2241
2050, 2061, 2062, 2243, 2242
2051, 2062, 2063, 2244, 2243
2052, 2063, 2064, 2245, 2244
2053, 2064, 2065, 2246, 2245
2054, 2065, 2066, 2247, 2246
2055, 2066, 2067, 2248, 2247
2056, 2067, 2068, 2249, 2248
2057, 2068, 2069, 2250, 2249
2058, 2069, 2070, 2251, 2250
2059, 2070, 2071, 2252, 2251
2060, 2071, 2072, 2253, 2252
2061, 2072, 2073, 2254, 2253
2062, 2073, 2074, 2255, 2254
2063, 2074, 2075, 2256, 2255
2064, 2075, 2076, 2257, 2256
2065, 2076, 2077, 2258, 2257
2066, 2077, 2078, 2259, 2258
2067, 2078, 2079, 2260, 2259
2068, 2079, 2080, 2261, 2260
2069, 2080, 2081, 2262, 2261
2070, 2081, 2082, 2263, 2262
2071, 2082, 2083, 2264, 2263
2072, 2083, 2084, 2265, 2264
2073, 2084, 2085, 2266, 2265
2074, 2085, 2086, 2267, 2266
2075, 2086, 2087, 2268, 2267
2076, 2087, 2088, 2269, 2268
2077, 2088, 2089, 2270, 2269
2078, 2089, 2090, 2271, 2270
2079, 2090, 2091, 2272, 2271
2080, 2091, 2092, 2273, 2272
2081, 2092, 2093, 2274, 2273
2082, 2093, 2094, 2275, 2274
2083, 2094, 2095, 2276, 2275
2084, 2095, 2096, 2277, 2276
2085, 2096, 2097, 2278, 2277
2086, 2097, 2098, 2279, 2278
2087, 2098, 2099, 2280, 2279
2088, 2099, 2100, 2281, 2280
2089, 2100, 2101, 2282, 2281
2090, 2101, 2102, 2283, 2282
2091, 2102, 2103, 2284, 2283
2092, 2103, 2104, 2285, 2284
2093, 2104, 2105, 2286, 2285
2094, 2105, 2106, 2287, 2286
2095, 2106, 2107, 2288, 2287
2096, 2107, 2108, 2289, 2288
2097, 2108, 2109, 2290, 2289
2098, 2109, 2110, 2291, 2290
2099, 2110, 2111, 2292, 2291
2100, 2111, 2112, 2293, 2292
2101, 2112, 2113, 2294, 2293
2102, 2113, 2114, 2295, 2294
2103, 2114, 2115, 2296, 2295
2104, 2115, 2116, 2297, 2296
2105, 2116, 2117, 2298, 2297
2106, 2117, 2118, 2299, 2298
2107, 2118, 2119, 2300, 2299
2108, 2119, 2120, 2301, 2300
2109, 2120, 2121, 2302, 2301
2110, 2121, 2122, 2303, 2302
2111, 2122, 2123, 2304, 2303
2112, 2123, 2124, 2305, 2304
2113, 2124, 2125, 2306, 2305
2114, 2125, 2126, 2307, 2306
2115, 2126, 2127, 2308, 2307
2116, 2127, 2128, 2309, 2308
2117, 2128, 2129, 2310, 2309
2118, 2129, 2130, 2311, 2310
2119, 2130, 2131, 2312, 2311
2120, 2131, 2132, 2313, 2312
2121, 2132, 2133, 2314, 2313
2122, 2133, 2134, 2315, 2314
2123, 2134, 2135, 2316, 2315
2124, 2135, 2136, 2317, 2316
2125, 2136, 2137, 2318, 2317
2126, 2137, 2138, 2319, 2318
2127, 2138, 2139, 2320, 2319
2128, 2139, 2140, 2321, 2320
2129, 2140, 2141, 2322, 2321
2130, 2141, 2142, 2323, 2322
2131, 2142, 2143, 2324, 2323
2132, 2143, 2144, 2325, 2324
2133, 2144, 2145, 2326, 2325
2134, 2145, 2146, 2327, 2326
2135, 2146, 2147, 2328, 2327
2136, 2147, 2148, 2329, 2328
2137, 2148, 2149, 2330, 2329
2138, 2149, 2150, 2331, 2330
2139, 2150, 2151, 2332, 2331
2140, 2151, 2152, 2333, 2332
2141, 2152, 2153, 2334, 2333
2142, 2153, 2154, 2335, 2334
2143, 2154, 2155, 2336, 2335
2144, 2155, 2156, 2337, 2336
2145, 2156, 2157, 2338, 2337
2146, 2157, 2158, 2339, 2338
2147, 2158, 2159, 2340, 2339
2148, 2159, 2160, 2341, 2340
2149, 2160, 2161, 2342, 2341
2150, 2161, 2162, 2343, 2342
2151, 2162, 2163, 2344, 2343
2152, 2163, 2164, 2345, 2344
2153, 2164, 2165, 2346, 2345
2154, 2165, 2166, 2347, 2346
2155, 2166, 2167, 2348, 2347
2156, 2167, 2168, 2349, 2348
2157, 2168, 2169, 2350, 2349
2158, 2169, 2170, 2351, 2350
2159, 2170, 2171, 2352, 2351
2160, 2171, 2172, 2353, 2352
2161, 2174, 2173, 2354, 2355
2162, 2173, 2175, 2356, 2354
2163, 2175, 2176, 2357, 2356
2164, 2176, 2177, 2358, 2357
2165, 2177, 2178, 2359, 2358
2166, 2178, 2179, 2360, 2359
2167, 2179, 2180, 2361, 2360
2168, 2180, 2181, 2362, 2361
2169, 2181, 2182, 2363, 2362
2170, 2182, 2183, 2364, 2363
2171, 2183, 2184, 2365, 2364
2172, 2184, 2185, 2366, 2365
2173, 2185, 2186, 2367, 2366
2174, 2186, 2187, 2368, 2367
2175, 2187, 2188, 2369, 2368
2176, 2188, 2189, 2370, 2369
2177, 2189, 2190, 2371, 2370
2178, 2190, 2191, 2372, 2371
2179, 2191, 2192, 2373, 2372
2180, 2192, 2193, 2374, 2373
2181, 2193, 2194, 2375, 2374
2182, 2194, 2195, 2376, 2375
2183, 2195, 2196, 2377, 2376
2184, 2196, 2197, 2378, 2377
2185, 2197, 2198, 2379, 2378
2186, 2198, 2199, 2380, 2379
2187, 2199, 2200, 2381, 2380
2188, 2200, 2201, 2382, 2381
2189, 2201, 2202, 2383, 2382
2190, 2202, 2203, 2384, 2383
2191, 2203, 2204, 2385, 2384
2192, 2204, 2205, 2386, 2385
2193, 2205, 2206, 2387, 2386
2194, 2206, 2207, 2388, 2387
2195, 2207, 2208, 2389, 2388
2196, 2208, 2209, 2390, 2389
2197, 2209, 2210, 2391, 2390
2198, 2210, 2211, 2392, 2391
2199, 2211, 2212, 2393, 2392
2200, 2212, 2213, 2394, 2393
2201, 2213, 2214, 2395, 2394
2202, 2214, 2215, 2396, 2395
2203, 2215, 2216, 2397, 2396
2204, 2216, 2217, 2398, 2397
2205, 2217, 2218, 2399, 2398
2206, 2218, 2219, 2400, 2399
2207, 2219, 2220, 2401, 2400
2208, 2220, 2221, 2402, 2401
2209, 2221, 2222, 2403, 2402
2210, 2222, 2223, 2404, 2403
2211, 2223, 2224, 2405, 2404
2212, 2224, 2225, 2406, 2405
2213, 2225, 2226, 2407, 2406
2214, 2226, 2227, 2408, 2407
2215, 2227, 2228, 2409, 2408
2216, 2228, 2229, 2410, 2409
2217, 2229, 2230, 2411, 2410
2218, 2230, 2231, 2412, 2411
2219, 2231, 2232, 2413, 2412
2220, 2232, 2233, 2414, 2413
2221, 2233, 2234, 2415, 2414
2222, 2234, 2235, 2416, 2415
2223, 2235, 2236, 2417, 2416
2224, 2236, 2237, 2418, 2417
2225, 2237, 2238, 2419, 2418
2226, 2238, 2239, 2420, 2419
2227, 2239, 2240, 2421, 2420
2228, 2240, 2241, 2422, 2421
2229, 2241, 2242, 2423, 2422
2230, 2242, 2243, 2424, 2423
2231, 2243, 2244, 2425, 2424
2232, 2244, 2245, 2426, 2425
2233, 2245, 2246, 2427, 2426
2234, 2246, 2247, 2428, 2427
2235, 2247, 2248, 2429, 2428
2236, 2248, 2249, 2430, 2429
2237, 2249, 2250, 2431, 2430
2238, 2250, 2251, 2432, 2431
2239, 2251, 2252, 2433, 2432
2240, 2252, 2253, 2434, 2433
2241, 2253, 2254, 2435, 2434
2242, 2254, 2255, 2436, 2435
2243, 2255, 2256, 2437, 2436
2244, 2256, 2257, 2438, 2437
2245, 2257, 2258, 2439, 2438
2246, 2258, 2259, 2440, 2439
2247, 2259, 2260, 2441, 2440
2248, 2260, 2261, 2442, 2441
2249, 2261, 2262, 2443, 2442
2250, 2262, 2263, 2444, 2443
2251, 2263, 2264, 2445, 2444
2252, 2264, 2265, 2446, 2445
2253, 2265, 2266, 2447, 2446
2254, 2266, 2267, 2448, 2447
2255, 2267, 2268, 2449, 2448
2256, 2268, 2269, 2450, 2449
2257, 2269, 2270, 2451, 2450
2258, 2270, 2271, 2452, 2451
2259, 2271, 2272, 2453, 2452
2260, 2272, 2273, 2454, 2453
2261, 2273, 2274, 2455, 2454
2262, 2274, 2275, 2456, 2455
2263, 2275, 2276, 2457, 2456
2264, 2276, 2277, 2458, 2457
2265, 2277, 2278, 2459, 2458
2266, 2278, 2279, 2460, 2459
2267, 2279, 2280, 2461, 2460
2268, 2280, 2281, 2462, 2461
2269, 2281, 2282, 2463, 2462
2270, 2282, 2283, 2464, 2463
2271, 2283, 2284, 2465, 2464
2272, 2284, 2285, 2466, 2465
2273, 2285, 2286, 2467, 2466
2274, 2286, 2287, 2468, 2467
2275, 2287, 2288, 2469, 2468
2276, 2288, 2289, 2470, 2469
2277, 2289, 2290, 2471, 2470
2278, 2290, 2291, 2472, 2471
2279, 2291, 2292, 2473, 2472
2280, 2292, 2293, 2474, 2473
2281, 2293, 2294, 2475, 2474
2282, 2294, 2295, 2476, 2475
2283, 2295, 2296, 2477, 2476
2284, 2296, 2297, 2478, 2477
2285, 2297, 2298, 2479, 2478
2286, 2298, 2299, 2480, 2479
2287, 2299, 2300, 2481, 2480
2288, 2300, 2301, 2482, 2481
2289, 2301, 2302, 2483, 2482
2290, 2302, 2303, 2484, 2483
2291, 2303, 2304, 2485, 2484
2292, 2304, 2305, 2486, 2485
2293, 2305, 2306, 2487, 2486
2294, 2306, 2307, 2488, 2487
2295, 2307, 2308, 2489, 2488
2296, 2308, 2309, 2490, 2489
2297, 2309, 2310, 2491, 2490
2298, 2310, 2311, 2492, 2491
2299, 2311, 2312, 2493, 2492
2300, 2312, 2313, 2494, 2493
2301, 2313, 2314, 2495, 2494
2302, 2314, 2315, 2496, 2495
2303, 2315, 2316, 2497, 2496
2304, 2316, 2317, 2498, 2497
2305, 2317, 2318, 2499, 2498
2306, 2318, 2319, 2500, 2499
2307, 2319, 2320, 2501, 2500
2308, 2320, 2321, 2502, 2501
2309, 2321, 2322, 2503, 2502
2310, 2322, 2323, 2504, 2503
2311, 2323, 2324, 2505, 2504
2312, 2324, 2325, 2506, 2505
2313, 2325, 2326, 2507, 2506
2314, 2326, 2327, 2508, 2507
2315, 2327, 2328, 2509, 2508
2316, 2328, 2329, 2510, 2509
2317, 2329, 2330, 2511, 2510
2318, 2330, 2331, 2512, 2511
2319, 2331, 2332, 2513, 2512
2320, 2332, 2333, 2514, 2513
2321, 2333, 2334, 2515, 2514
2322, 2334, 2335, 2516, 2515
2323, 2335, 2336, 2517, 2516
2324, 2336, 2337, 2518, 2517
2325, 2337, 2338, 2519, 2518
2326, 2338, 2339, 2520, 2519
2327, 2339, 2340, 2521, 2520
2328, 2340, 2341, 2522, 2521
2329, 2341, 2342, 2523, 2522
2330, 2342, 2343, 2524, 2523
2331, 2343, 2344, 2525, 2524
2332, 2344, 2345, 2526, 2525
2333, 2345, 2346, 2527, 2526
2334, 2346, 2347, 2528, 2527
2335, 2347, 2348, 2529, 2528
2336, 2348, 2349, 2530, 2529
2337, 2349, 2350, 2531, 2530
2338, 2350, 2351, 2532, 2531
2339, 2351, 2352, 2533, 2532
2340, 2352, 2353, 2534, 2533
2341, 2355, 2354, 2535, 2536
2342, 2354, 2356, 2537, 2535
2343, 2356, 2357, 2538, 2537
2344, 2357, 2358, 2539, 2538
2345, 2358, 2359, 2540, 2539
2346, 2359, 2360, 2541, 2540
2347, 2360, 2361, 2542, 2541
2348, 2361, 2362, 2543, 2542
2349, 2362, 2363, 2544, 2543
2350, 2363, 2364, 2545, 2544
2351, 2364, 2365, 2546, 2545
2352, 2365, 2366, 2547, 2546
2353, 2366, 2367, 2548, 2547
2354, 2367, 2368, 2549, 2548
2355, 2368, 2369, 2550, 2549
2356, 2369, 2370, 2551, 2550
2357, 2370, 2371, 2552, 2551
2358, 2371, 2372, 2553, 2552
2359, 2372, 2373, 2554, 2553
2360, 2373, 2374, 2555, 2554
2361, 2374, 2375, 2556, 2555
2362, 2375, 2376, 2557, 2556
2363, 2376, 2377, 2558, 2557
2364, 2377, 2378, 2559, 2558
2365, 2378, 2379, 2560, 2559
2366, 2379, 2380, 2561, 2560
2367, 2380, 2381, 2562, 2561
2368, 2381, 2382, 2563, 2562
2369, 2382, 2383, 2564, 2563
2370, 2383, 2384, 2565, 2564
2371, 2384, 2385, 2566, 2565
2372, 2385, 2386, 2567, 2566
2373, 2386, 2387, 2568, 2567
2374, 2387, 2388, 2569, 2568
2375, 2388, 2389, 2570, 2569
2376, 2389, 2390, 2571, 2570
2377, 2390, 2391, 2572, 2571
2378, 2391, 2392, 2573, 2572
2379, 2392, 2393, 2574, 2573
2380, 2393, 2394, 2575, 2574
2381, 2394, 2395, 2576, 2575
2382, 2395, 2396, 2577, 2576
2383, 2396, 2397, 2578, 2577
2384, 2397, 2398, 2579, 2578
2385, 2398, 2399, 2580, 2579
2386, 2399, 2400, 2581, 2580
2387, 2400, 2401, 2582, 2581
2388, 2401, 2402, 2583, 2582
2389, 2402, 2403, 2584, 2583
2390, 2403, 2404, 2585, 2584
2391, 2404, 2405, 2586, 2585
2392, 2405, 2406, 2587, 2586
2393, 2406, 2407, 2588, 2587
2394, 2407, 2408, 2589, 2588
2395, 2408, 2409, 2590, 2589
2396, 2409, 2410, 2591, 2590
2397, 2410, 2411, 2592, 2591
2398, 2411, 2412, 2593, 2592
2399, 2412, 2413, 2594, 2593
2400, 2413, 2414, 2595, 2594
2401, 2414, 2415, 2596, 2595
2402, 2415, 2416, 2597, 2596
2403, 2416, 2417, 2598, 2597
2404, 2417, 2418, 2599, 2598
2405, 2418, 2419, 2600, 2599
2406, 2419, 2420, 2601, 2600
2407, 2420, 2421, 2602, 2601
2408, 2421, 2422, 2603, 2602
2409, 2422, 2423, 2604, 2603
2410, 2423, 2424, 2605, 2604
2411, 2424, 2425, 2606, 2605
2412, 2425, 2426, 2607, 2606
2413, 2426, 2427, 2608, 2607
2414, 2427, 2428, 2609, 2608
2415, 2428, 2429, 2610, 2609
2416, 2429, 2430, 2611, 2610
2417, 2430, 2431, 2612, 2611
2418, 2431, 2432, 2613, 2612
2419, 2432, 2433, 2614, 2613
2420, 2433, 2434, 2615, 2614
2421, 2434, 2435, 2616, 2615
2422, 2435, 2436, 2617, 2616
2423, 2436, 2437, 2618, 2617
2424, 2437, 2438, 2619, 2618
2425, 2438, 2439, 2620, 2619
2426, 2439, 2440, 2621, 2620
2427, 2440, 2441, 2622, 2621
2428, 2441, 2442, 2623, 2622
2429, 2442, 2443, 2624, 2623
2430, 2443, 2444, 2625, 2624
2431, 2444, 2445, 2626, 2625
2432, 2445, 2446, 2627, 2626
2433, 2446, 2447, 2628, 2627
2434, 2447, 2448, 2629, 2628
2435, 2448, 2449, 2630, 2629
2436, 2449, 2450, 2631, 2630
2437, 2450, 2451, 2632, 2631
2438, 2451, 2452, 2633, 2632
2439, 2452, 2453, 2634, 2633
2440, 2453, 2454, 2635, 2634
2441, 2454, 2455, 2636, 2635
2442, 2455, 2456, 2637, 2636
2443, 2456, 2457, 2638, 2637
2444, 2457, 2458, 2639, 2638
2445, 2458, 2459, 2640, 2639
2446, 2459, 2460, 2641, 2640
2447, 2460, 2461, 2642, 2641
2448, 2461, 2462, 2643, 2642
2449, 2462, 2463, 2644, 2643
2450, 2463, 2464, 2645, 2644
2451, 2464, 2465, 2646, 2645
2452, 2465, 2466, 2647, 2646
2453, 2466, 2467, 2648, 2647
2454, 2467, 2468, 2649, 2648
2455, 2468, 2469, 2650, 2649
2456, 2469, 2470, 2651, 2650
2457, 2470, 2471, 2652, 2651
2458, 2471, 2472, 2653, 2652
2459, 2472, 2473, 2654, 2653
2460, 2473, 2474, 2655, 2654
2461, 2474, 2475, 2656, 2655
2462, 2475, 2476, 2657, 2656
2463, 2476, 2477, 2658, 2657
2464, 2477, 2478, 2659, 2658
2465, 2478, 2479, 2660, 2659
2466, 2479, 2480, 2661, 2660
2467, 2480, 2481, 2662, 2661
2468, 2481, 2482, 2663, 2662
2469, 2482, 2483, 2664, 2663
2470, 2483, 2484, 2665, 2664
2471, 2484, 2485, 2666, 2665
2472, 2485, 2486, 2667, 2666
2473, 2486, 2487, 2668, 2667
2474, 2487, 2488, 2669, 2668
2475, 2488, 2489, 2670, 2669
2476, 2489, 2490, 2671, 2670
2477, 2490, 2491, 2672, 2671
2478, 2491, 2492, 2673, 2672
2479, 2492, 2493, 2674, 2673
2480, 2493, 2494, 2675, 2674
2481, 2494, 2495, 2676, 2675
2482, 2495, 2496, 2677, 2676
2483, 2496, 2497, 2678, 2677
2484, 2497, 2498, 2679, 2678
2485, 2498, 2499, 2680, 2679
2486, 2499, 2500, 2681, 2680
2487, 2500, 2501, 2682, 2681
2488, 2501, 2502, 2683, 2682
2489, 2502, 2503, 2684, 2683
2490, 2503, 2504, 2685, 2684
2491, 2504, 2505, 2686, 2685
2492, 2505, 2506, 2687, 2686
2493, 2506, 2507, 2688, 2687
2494, 2507, 2508, 2689, 2688
2495, 2508, 2509, 2690, 2689
2496, 2509, 2510, 2691, 2690
2497, 2510, 2511, 2692, 2691
2498, 2511, 2512, 2693, 2692
2499, 2512, 2513, 2694, 2693
2500, 2513, 2514, 2695, 2694
2501, 2514, 2515, 2696, 2695
2502, 2515, 2516, 2697, 2696
2503, 2516, 2517, 2698, 2697
2504, 2517, 2518, 2699, 2698
2505, 2518, 2519, 2700, 2699
2506, 2519, 2520, 2701, 2700
2507, 2520, 2521, 2702, 2701
2508, 2521, 2522, 2703, 2702
2509, 2522, 2523, 2704, 2703
2510, 2523, 2524, 2705, 2704
2511, 2524, 2525, 2706, 2705
2512, 2525, 2526, 2707, 2706
2513, 2526, 2527, 2708, 2707
2514, 2527, 2528, 2709, 2708
2515, 2528, 2529, 2710, 2709
2516, 2529, 2530, 2711, 2710
2517, 2530, 2531, 2712, 2711
2518, 2531, 2532, 2713, 2712
2519, 2532, 2533, 2714, 2713
2520, 2533, 2534, 2715, 2714
2521, 2536, 2535, 2716, 2717
2522, 2535, 2537, 2718, 2716
2523, 2537, 2538, 2719, 2718
2524, 2538, 2539, 2720, 2719
2525, 2539, 2540, 2721, 2720
2526, 2540, 2541, 2722, 2721
2527, 2541, 2542, 2723, 2722
2528, 2542, 2543, 2724, 2723
2529, 2543, 2544, 2725, 2724
2530, 2544, 2545, 2726, 2725
2531, 2545, 2546, 2727, 2726
2532, 2546, 2547, 2728, 2727
2533, 2547, 2548, 2729, 2728
2534, 2548, 2549, 2730, 2729
2535, 2549, 2550, 2731, 2730
2536, 2550, 2551, 2732, 2731
2537, 2551, 2552, 2733, 2732
2538, 2552, 2553, 2734, 2733
2539, 2553, 2554, 2735, 2734
2540, 2554, 2555, 2736, 2735
2541, 2555, 2556, 2737, 2736
2542, 2556, 2557, 2738, 2737
2543, 2557, 2558, 2739, 2738
2544, 2558, 2559, 2740, 2739
2545, 2559, 2560, 2741, 2740
2546, 2560, 2561, 2742, 2741
2547, 2561, 2562, 2743, 2742
2548, 2562, 2563, 2744, 2743
2549, 2563, 2564, 2745, 2744
2550, 2564, 2565, 2746, 2745
2551, 2565, 2566, 2747, 2746
2552, 2566, 2567, 2748, 2747
2553, 2567, 2568, 2749, 2748
2554, 2568, 2569, 2750, 2749
2555, 2569, 2570, 2751, 2750
2556, 2570, 2571, 2752, 2751
2557, 2571, 2572, 2753, 2752
2558, 2572, 2573, 2754, 2753
2559, 2573, 2574, 2755, 2754
2560, 2574, 2575, 2756, 2755
2561, 2575, 2576, 2757, 2756
2562, 2576, 2577, 2758, 2757
2563, 2577, 2578, 2759, 2758
2564, 2578, 2579, 2760, 2759
2565, 2579, 2580, 2761, 2760
2566, 2580, 2581, 2762, 2761
2567, 2581, 2582, 2763, 2762
2568, 2582, 2583, 2764, 2763
2569, 2583, 2584, 2765, 2764
2570, 2584, 2585, 2766, 2765
2571, 2585, 2586, 2767, 2766
2572, 2586, 2587, 2768, 2767
2573, 2587, 2588, 2769, 2768
2574, 2588, 2589, 2770, 2769
2575, 2589, 2590, 2771, 2770
2576, 2590, 2591, 2772, 2771
2577, 2591, 2592, 2773, 2772
2578, 2592, 2593, 2774, 2773
2579, 2593, 2594, 2775, 2774
2580, 2594, 2595, 2776, 2775
2581, 2595, 2596, 2777, 2776
2582, 2596, 2597, 2778, 2777
2583, 2597, 2598, 2779, 2778
2584, 2598, 2599, 2780, 2779
2585, 2599, 2600, 2781, 2780
2586, 2600, 2601, 2782, 2781
2587, 2601, 2602, 2783, 2782
2588, 2602, 2603, 2784, 2783
2589, 2603, 2604, 2785, 2784
2590, 2604, 2605, 2786, 2785
2591, 2605, 2606, 2787, 2786
2592, 2606, 2607, 2788, 2787
2593, 2607, 2608, 2789, 2788
2594, 2608, 2609, 2790, 2789
2595, 2609, 2610, 2791, 2790
2596, 2610, 2611, 2792, 2791
2597, 2611, 2612, 2793, 2792
2598, 2612, 2613, 2794, 2793
2599, 2613, 2614, 2795, 2794
2600, 2614, 2615, 2796, 2795
2601, 2615, 2616, 2797, 2796
2602, 2616, 2617, 2798, 2797
2603, 2617, 2618, 2799, 2798
2604, 2618, 2619, 2800, 2799
2605, 2619, 2620, 2801, 2800
2606, 2620, 2621, 2802, 2801
2607, 2621, 2622, 2803, 2802
2608, 2622, 2623, 2804, 2803
2609, 2623, 2624, 2805, 2804
2610, 2624, 2625, 2806, 2805
2611, 2625, 2626, 2807, 2806
2612, 2626, 2627, 2808, 2807
2613, 2627, 2628, 2809, 2808
2614, 2628, 2629, 2810, 2809
2615, 2629, 2630, 2811, 2810
2616, 2630, 2631, 2812, 2811
2617, 2631, 2632, 2813, 2812
2618, 2632, 2633, 2814, 2813
2619, 2633, 2634, 2815, 2814
2620, 2634, 2635, 2816, 2815
2621, 2635, 2636, 2817, 2816
2622, 2636, 2637, 2818, 2817
2623, 2637, 2638, 2819, 2818
2624, 2638, 2639, 2820, 2819
2625, 2639, 2640, 2821, 2820
2626, 2640, 2641, 2822, 2821
2627, 2641, 2642, 2823, 2822
2628, 2642, 2643, 2824, 2823
2629, 2643, 2644, 2825, 2824
2630, 2644, 2645, 2826, 2825
2631, 2645, 2646, 2827, 2826
2632, 2646, 2647, 2828, 2827
2633, 2647, 2648, 2829, 2828
2634, 2648, 2649, 2830, 2829
2635, 2649, 2650, 2831, 2830
2636, 2650, 2651, 2832, 2831
2637, 2651, 2652, 2833, 2832
2638, 2652, 2653, 2834, 2833
2639, 2653, 2654, 2835, 2834
2640, 2654, 2655, 2836, 2835
2641, 2655, 2656, 2837, 2836
2642, 2656, 2657, 2838, 2837
2643, 2657, 2658, 2839, 2838
2644, 2658, 2659, 2840, 2839
2645, 2659, 2660, 2841, 2840
2646, 2660, 2661, 2842, 2841
2647, 2661, 2662, 2843, 2842
2648, 2662, 2663, 2844, 2843
2649, 2663, 2664, 2845, 2844
2650, 2664, 2665, 2846, 2845
2651, 2665, 2666, 2847, 2846
2652, 2666, 2667, 2848, 2847
2653, 2667, 2668, 2849, 2848
2654, 2668, 2669, 2850, 2849
2655, 2669, 2670, 2851, 2850
2656, 2670, 2671, 2852, 2851
2657, 2671, 2672, 2853, 2852
2658, 2672, 2673, 2854, 2853
2659, 2673, 2674, 2855, 2854
2660, 2674, 2675, 2856, 2855
2661, 2675, 2676, 2857, 2856
2662, 2676, 2677, 2858, 2857
2663, 2677, 2678, 2859, 2858
2664, 2678, 2679, 2860, 2859
2665, 2679, 2680, 2861, 2860
2666, 2680, 2681, 2862, 2861
2667, 2681, 2682, 2863, 2862
2668, 2682, 2683, 2864, 2863
2669, 2683, 2684, 2865, 2864
2670, 2684, 2685, 2866, 2865
2671, 2685, 2686, 2867, 2866
2672, 2686, 2687, 2868, 2867
2673, 2687, 2688, 2869, 2868
2674, 2688, 2689, 2870, 2869
2675, 2689, 2690, 2871, 2870
2676, 2690, 2691, 2872, 2871
2677, 2691, 2692, 2873, 2872
2678, 2692, 2693, 2874, 2873
2679, 2693, 2694, 2875, 2874
2680, 2694, 2695, 2876, 2875
2681, 2695, 2696, 2877, 2876
2682, 2696, 2697, 2878, 2877
2683, 2697, 2698, 2879, 2878
2684, 2698, 2699, 2880, 2879
2685, 2699, 2700, 2881, 2880
2686, 2700, 2701, 2882, 2881
2687, 2701, 2702, 2883, 2882
2688, 2702, 2703, 2884, 2883
2689, 2703, 2704, 2885, 2884
2690, 2704, 2705, 2886, 2885
2691, 2705, 2706, 2887, 2886
2692, 2706, 2707, 2888, 2887
2693, 2707, 2708, 2889, 2888
2694, 2708, 2709, 2890, 2889
2695, 2709, 2710, 2891, 2890
2696, 2710, 2711, 2892, 2891
2697, 2711, 2712, 2893, 2892
2698, 2712, 2713, 2894, 2893
2699, 2713, 2714, 2895, 2894
2700, 2714, 2715, 2896, 2895
2701, 2897, 2898, 2899, 2900
2702, 2898, 2901, 2902, 2899
2703, 2901,    1,    4, 2902
2704,  361, 2903, 2904,  362
2705, 2903, 2905, 2906, 2904
2706, 2905, 2907, 2908, 2906
2707, 2900, 2899, 2909, 2910
2708, 2899, 2902, 2911, 2909
2709, 2902,    4,  364, 2911
2710,  362, 2904, 2912,  543
2711, 2904, 2906, 2913, 2912
2712, 2906, 2908, 2914, 2913
2713, 2910, 2909, 2915, 2916
2714, 2909, 2911, 2917, 2915
2715, 2911,  364,  545, 2917
2716,  543, 2912, 2918,  724
2717, 2912, 2913, 2919, 2918
2718, 2913, 2914, 2920, 2919
2719, 2916, 2915, 2921, 2922
2720, 2915, 2917, 2923, 2921
2721, 2917,  545,  726, 2923
2722,  724, 2918, 2924,  905
2723, 2918, 2919, 2925, 2924
2724, 2919, 2920, 2926, 2925
2725, 2922, 2921, 2927, 2928
2726, 2921, 2923, 2929, 2927
2727, 2923,  726,  907, 2929
2728,  905, 2924, 2930, 1086
2729, 2924, 2925, 2931, 2930
2730, 2925, 2926, 2932, 2931
2731, 2928, 2927, 2933, 2934
2732, 2927, 2929, 2935, 2933
2733, 2929,  907, 1088, 2935
2734, 1086, 2930, 2936, 1267
2735, 2930, 2931, 2937, 2936
2736, 2931, 2932, 2938, 2937
2737, 2934, 2933, 2939, 2940
2738, 2933, 2935, 2941, 2939
2739, 2935, 1088, 1269, 2941
2740, 1267, 2936, 2942, 1448
2741, 2936, 2937, 2943, 2942
2742, 2937, 2938, 2944, 2943
2743, 2940, 2939, 2945, 2946
2744, 2939, 2941, 2947, 2945
2745, 2941, 1269, 1450, 2947
2746, 1448, 2942, 2948, 1629
2747, 2942, 2943, 2949, 2948
2748, 2943, 2944, 2950, 2949
2749, 2946, 2945, 2951, 2952
2750, 2945, 2947, 2953, 2951
2751, 2947, 1450, 1631, 2953
2752, 1629, 2948, 2954, 1810
2753, 2948, 2949, 2955, 2954
2754, 2949, 2950, 2956, 2955
2755, 2952, 2951, 2957, 2958
2756, 2951, 2953, 2959, 2957
2757, 2953, 1631, 1812, 2959
2758, 1810, 2954, 2960, 1991
2759, 2954, 2955, 2961, 2960
2760, 2955, 2956, 2962, 2961
2761, 2958, 2957, 2963, 2964
2762, 2957, 2959, 2965, 2963
2763, 2959, 1812, 1993, 2965
2764, 1991, 2960, 2966, 2172
2765, 2960, 2961, 2967, 2966
2766, 2961, 2962, 2968, 2967
2767, 2964, 2963, 2969, 2970
2768, 2963, 2965, 2971, 2969
2769, 2965, 1993, 2174, 2971
2770, 2172, 2966, 2972, 2353
2771, 2966, 2967, 2973, 2972
2772, 2967, 2968, 2974, 2973
2773, 2970, 2969, 2975, 2976
2774, 2969, 2971, 2977, 2975
2775, 2971, 2174, 2355, 2977
2776, 2353, 2972, 2978, 2534
2777, 2972, 2973, 2979, 2978
2778, 2973, 2974, 2980, 2979
2779, 2976, 2975, 2981, 2982
2780, 2975, 2977, 2983, 2981
2781, 2977, 2355, 2536, 2983
2782, 2534, 2978, 2984, 2715
2783, 2978, 2979, 2985, 2984
2784, 2979, 2980, 2986, 2985
2785, 2982, 2981, 2987, 2988
2786, 2981, 2983, 2989, 2987
2787, 2983, 2536, 2717, 2989
2788, 2715, 2984, 2990, 2896
2789, 2984, 2985, 2991, 2990
2790, 2985, 2986, 2992, 2991
2791, 2988, 2987, 2993, 2994
2792, 2987, 2989, 2995, 2993
2793, 2989, 2717, 2996, 2995
2794, 2717, 2716, 2997, 2996
2795, 2716, 2718, 2998, 2997
2796, 2718, 2719, 2999, 2998
2797, 2719, 2720, 3000, 2999
2798, 2720, 2721, 3001, 3000
2799, 2721, 2722, 3002, 3001
2800, 2722, 2723, 3003, 3002
2801, 2723, 2724, 3004, 3003
2802, 2724, 2725, 3005, 3004
2803, 2725, 2726, 3006, 3005
2804, 2726, 2727, 3007, 3006
2805, 2727, 2728, 3008, 3007
2806, 2728, 2729, 3009, 3008
2807, 2729, 2730, 3010, 3009
2808, 2730, 2731, 3011, 3010
2809, 2731, 2732, 3012, 3011
2810, 2732, 2733, 3013, 3012
2811, 2733, 2734, 3014, 3013
2812, 2734, 2735, 3015, 3014
2813, 2735, 2736, 3016, 3015
2814, 2736, 2737, 3017, 3016
2815, 2737, 2738, 3018, 3017
2816, 2738, 2739, 3019, 3018
2817, 2739, 2740, 3020, 3019
2818, 2740, 2741, 3021, 3020
2819, 2741, 2742, 3022, 3021
2820, 2742, 2743, 3023, 3022
2821, 2743, 2744, 3024, 3023
2822, 2744, 2745, 3025, 3024
2823, 2745, 2746, 3026, 3025
2824, 2746, 2747, 3027, 3026
2825, 2747, 2748, 3028, 3027
2826, 2748, 2749, 3029, 3028
2827, 2749, 2750, 3030, 3029
2828, 2750, 2751, 3031, 3030
2829, 2751, 2752, 3032, 3031
2830, 2752, 2753, 3033, 3032
2831, 2753, 2754, 3034, 3033
2832, 2754, 2755, 3035, 3034
2833, 2755, 2756, 3036, 3035
2834, 2756, 2757, 3037, 3036
2835, 2757, 2758, 3038, 3037
2836, 2758, 2759, 3039, 3038
2837, 2759, 2760, 3040, 3039
2838, 2760, 2761, 3041, 3040
2839, 2761, 2762, 3042, 3041
2840, 2762, 2763, 3043, 3042
2841, 2763, 2764, 3044, 3043
2842, 2764, 2765, 3045, 3044
2843, 2765, 2766, 3046, 3045
2844, 2766, 2767, 3047, 3046
2845, 2767, 2768, 3048, 3047
2846, 2768, 2769, 3049, 3048
2847, 2769, 2770, 3050, 3049
2848, 2770, 2771, 3051, 3050
2849, 2771, 2772, 3052, 3051
2850, 2772, 2773, 3053, 3052
2851, 2773, 2774, 3054, 3053
2852, 2774, 2775, 3055, 3054
2853, 2775, 2776, 3056, 3055
2854, 2776, 2777, 3057, 3056
2855, 2777, 2778, 3058, 3057
2856, 2778, 2779, 3059, 3058
2857, 2779, 2780, 3060, 3059
2858, 2780, 2781, 3061, 3060
2859, 2781, 2782, 3062, 3061
2860, 2782, 2783, 3063, 3062
2861, 2783, 2784, 3064, 3063
2862, 2784, 2785, 3065, 3064
2863, 2785, 2786, 3066, 3065
2864, 2786, 2787, 3067, 3066
2865, 2787, 2788, 3068, 3067
2866, 2788, 2789, 3069, 3068
2867, 2789, 2790, 3070, 3069
2868, 2790, 2791, 3071, 3070
2869, 2791, 2792, 3072, 3071
2870, 2792, 2793, 3073, 3072
2871, 2793, 2794, 3074, 3073
2872, 2794, 2795, 3075, 3074
2873, 2795, 2796, 3076, 3075
2874, 2796, 2797, 3077, 3076
2875, 2797, 2798, 3078, 3077
2876, 2798, 2799, 3079, 3078
2877, 2799, 2800, 3080, 3079
2878, 2800, 2801, 3081, 3080
2879, 2801, 2802, 3082, 3081
2880, 2802, 2803, 3083, 3082
2881, 2803, 2804, 3084, 3083
2882, 2804, 2805, 3085, 3084
2883, 2805, 2806, 3086, 3085
2884, 2806, 2807, 3087, 3086
2885, 2807, 2808, 3088, 3087
2886, 2808, 2809, 3089, 3088
2887, 2809, 2810, 3090, 3089
2888, 2810, 2811, 3091, 3090
2889, 2811, 2812, 3092, 3091
2890, 2812, 2813, 3093, 3092
2891, 2813, 2814, 3094, 3093
2892, 2814, 2815, 3095, 3094
2893, 2815, 2816, 3096, 3095
2894, 2816, 2817, 3097, 3096
2895, 2817, 2818, 3098, 3097
2896, 2818, 2819, 3099, 3098
2897, 2819, 2820, 3100, 3099
2898, 2820, 2821, 3101, 3100
2899, 2821, 2822, 3102, 3101
2900, 2822, 2823, 3103, 3102
2901, 2823, 2824, 3104, 3103
2902, 2824, 2825, 3105, 3104
2903, 2825, 2826, 3106, 3105
2904, 2826, 2827, 3107, 3106
2905, 2827, 2828, 3108, 3107
2906, 2828, 2829, 3109, 3108
2907, 2829, 2830, 3110, 3109
2908, 2830, 2831, 3111, 3110
2909, 2831, 2832, 3112, 3111
2910, 2832, 2833, 3113, 3112
2911, 2833, 2834, 3114, 3113
2912, 2834, 2835, 3115, 3114
2913, 2835, 2836, 3116, 3115
2914, 2836, 2837, 3117, 3116
2915, 2837, 2838, 3118, 3117
2916, 2838, 2839, 3119, 3118
2917, 2839, 2840, 3120, 3119
2918, 2840, 2841, 3121, 3120
2919, 2841, 2842, 3122, 3121
2920, 2842, 2843, 3123, 3122
2921, 2843, 2844, 3124, 3123
2922, 2844, 2845, 3125, 3124
2923, 2845, 2846, 3126, 3125
2924, 2846, 2847, 3127, 3126
2925, 2847, 2848, 3128, 3127
2926, 2848, 2849, 3129, 3128
2927, 2849, 2850, 3130, 3129
2928, 2850, 2851, 3131, 3130
2929, 2851, 2852, 3132, 3131
2930, 2852, 2853, 3133, 3132
2931, 2853, 2854, 3134, 3133
2932, 2854, 2855, 3135, 3134
2933, 2855, 2856, 3136, 3135
2934, 2856, 2857, 3137, 3136
2935, 2857, 2858, 3138, 3137
2936, 2858, 2859, 3139, 3138
2937, 2859, 2860, 3140, 3139
2938, 2860, 2861, 3141, 3140
2939, 2861, 2862, 3142, 3141
2940, 2862, 2863, 3143, 3142
2941, 2863, 2864, 3144, 3143
2942, 2864, 2865, 3145, 3144
2943, 2865, 2866, 3146, 3145
2944, 2866, 2867, 3147, 3146
2945, 2867, 2868, 3148, 3147
2946, 2868, 2869, 3149, 3148
2947, 2869, 2870, 3150, 3149
2948, 2870, 2871, 3151, 3150
2949, 2871, 2872, 3152, 3151
2950, 2872, 2873, 3153, 3152
2951, 2873, 2874, 3154, 3153
2952, 2874, 2875, 3155, 3154
2953, 2875, 2876, 3156, 3155
2954, 2876, 2877, 3157, 3156
2955, 2877, 2878, 3158, 3157
2956, 2878, 2879, 3159, 3158
2957, 2879, 2880, 3160, 3159
2958, 2880, 2881, 3161, 3160
2959, 2881, 2882, 3162, 3161
2960, 2882, 2883, 3163, 3162
2961, 2883, 2884, 3164, 3163
2962, 2884, 2885, 3165, 3164
2963, 2885, 2886, 3166, 3165
2964, 2886, 2887, 3167, 3166
2965, 2887, 2888, 3168, 3167
2966, 2888, 2889, 3169, 3168
2967, 2889, 2890, 3170, 3169
2968, 2890, 2891, 3171, 3170
2969, 2891, 2892, 3172, 3171
2970, 2892, 2893, 3173, 3172
2971, 2893, 2894, 3174, 3173
2972, 2894, 2895, 3175, 3174
2973, 2895, 2896, 3176, 3175
2974, 2896, 2990, 3177, 3176
2975, 2990, 2991, 3178, 3177
2976, 2991, 2992, 3179, 3178
2977, 2994, 2993, 3180, 3181
2978, 2993, 2995, 3182, 3180
2979, 2995, 2996, 3183, 3182
2980, 2996, 2997, 3184, 3183
2981, 2997, 2998, 3185, 3184
2982, 2998, 2999, 3186, 3185
2983, 2999, 3000, 3187, 3186
2984, 3000, 3001, 3188, 3187
2985, 3001, 3002, 3189, 3188
2986, 3002, 3003, 3190, 3189
2987, 3003, 3004, 3191, 3190
2988, 3004, 3005, 3192, 3191
2989, 3005, 3006, 3193, 3192
2990, 3006, 3007, 3194, 3193
2991, 3007, 3008, 3195, 3194
2992, 3008, 3009, 3196, 3195
2993, 3009, 3010, 3197, 3196
2994, 3010, 3011, 3198, 3197
2995, 3011, 3012, 3199, 3198
2996, 3012, 3013, 3200, 3199
2997, 3013, 3014, 3201, 3200
2998, 3014, 3015, 3202, 3201
2999, 3015, 3016, 3203, 3202
3000, 3016, 3017, 3204, 3203
3001, 3017, 3018, 3205, 3204
3002, 3018, 3019, 3206, 3205
3003, 3019, 3020, 3207, 3206
3004, 3020, 3021, 3208, 3207
3005, 3021, 3022, 3209, 3208
3006, 3022, 3023, 3210, 3209
3007, 3023, 3024, 3211, 3210
3008, 3024, 3025, 3212, 3211
3009, 3025, 3026, 3213, 3212
3010, 3026, 3027, 3214, 3213
3011, 3027, 3028, 3215, 3214
3012, 3028, 3029, 3216, 3215
3013, 3029, 3030, 3217, 3216
3014, 3030, 3031, 3218, 3217
3015, 3031, 3032, 3219, 3218
3016, 3032, 3033, 3220, 3219
3017, 3033, 3034, 3221, 3220
3018, 3034, 3035, 3222, 3221
3019, 3035, 3036, 3223, 3222
3020, 3036, 3037, 3224, 3223
3021, 3037, 3038, 3225, 3224
3022, 3038, 3039, 3226, 3225
3023, 3039, 3040, 3227, 3226
3024, 3040, 3041, 3228, 3227
3025, 3041, 3042, 3229, 3228
3026, 3042, 3043, 3230, 3229
3027, 3043, 3044, 3231, 3230
3028, 3044, 3045, 3232, 3231
3029, 3045, 3046, 3233, 3232
3030, 3046, 3047, 3234, 3233
3031, 3047, 3048, 3235, 3234
3032, 3048, 3049, 3236, 3235
3033, 3049, 3050, 3237, 3236
3034, 3050, 3051, 3238, 3237
3035, 3051, 3052, 3239, 3238
3036, 3052, 3053, 3240, 3239
3037, 3053, 3054, 3241, 3240
3038, 3054, 3055, 3242, 3241
3039, 3055, 3056, 3243, 3242
3040, 3056, 3057, 3244, 3243
3041, 3057, 3058, 3245, 3244
3042, 3058, 3059, 3246, 3245
3043, 3059, 3060, 3247, 3246
3044, 3060, 3061, 3248, 3247
3045, 3061, 3062, 3249, 3248
3046, 3062, 3063, 3250, 3249
3047, 3063, 3064, 3251, 3250
3048, 3064, 3065, 3252, 3251
3049, 3065, 3066, 3253, 3252
3050, 3066, 3067, 3254, 3253
3051, 3067, 3068, 3255, 3254
3052, 3068, 3069, 3256, 3255
3053, 3069, 3070, 3257, 3256
3054, 3070, 3071, 3258, 3257
3055, 3071, 3072, 3259, 3258
3056, 3072, 3073, 3260, 3259
3057, 3073, 3074, 3261, 3260
3058, 3074, 3075, 3262, 3261
3059, 3075, 3076, 3263, 3262
3060, 3076, 3077, 3264, 3263
3061, 3077, 3078, 3265, 3264
3062, 3078, 3079, 3266, 3265
3063, 3079, 3080, 3267, 3266
3064, 3080, 3081, 3268, 3267
3065, 3081, 3082, 3269, 3268
3066, 3082, 3083, 3270, 3269
3067, 3083, 3084, 3271, 3270
3068, 3084, 3085, 3272, 3271
3069, 3085, 3086, 3273, 3272
3070, 3086, 3087, 3274, 3273
3071, 3087, 3088, 3275, 3274
3072, 3088, 3089, 3276, 3275
3073, 3089, 3090, 3277, 3276
3074, 3090, 3091, 3278, 3277
3075, 3091, 3092, 3279, 3278
3076, 3092, 3093, 3280, 3279
3077, 3093, 3094, 3281, 3280
3078, 3094, 3095, 3282, 3281
3079, 3095, 3096, 3283, 3282
3080, 3096, 3097, 3284, 3283
3081, 3097, 3098, 3285, 3284
3082, 3098, 3099, 3286, 3285
3083, 3099, 3100, 3287, 3286
3084, 3100, 3101, 3288, 3287
3085, 3101, 3102, 3289, 3288
3086, 3102, 3103, 3290, 3289
3087, 3103, 3104, 3291, 3290
3088, 3104, 3105, 3292, 3291
3089, 3105, 3106, 3293, 3292
3090, 3106, 3107, 3294, 3293
3091, 3107, 3108, 3295, 3294
3092, 3108, 3109, 3296, 3295
3093, 3109, 3110, 3297, 3296
3094, 3110, 3111, 3298, 3297
3095, 3111, 3112, 3299, 3298
3096, 3112, 3113, 3300, 3299
3097, 3113, 3114, 3301, 3300
3098, 3114, 3115, 3302, 3301
3099, 3115, 3116, 3303, 3302
3100, 3116, 3117, 3304, 3303
3101, 3117, 3118, 3305, 3304
3102, 3118, 3119, 3306, 3305
3103, 3119, 3120, 3307, 3306
3104, 3120, 3121, 3308, 3307
3105, 3121, 3122, 3309, 3308
3106, 3122, 3123, 3310, 3309
3107, 3123, 3124, 3311, 3310
3108, 3124, 3125, 3312, 3311
3109, 3125, 3126, 3313, 3312
3110, 3126, 3127, 3314, 3313
3111, 3127, 3128, 3315, 3314
3112, 3128, 3129, 3316, 3315
3113, 3129, 3130, 3317, 3316
3114, 3130, 3131, 3318, 3317
3115, 3131, 3132, 3319, 3318
3116, 3132, 3133, 3320, 3319
3117, 3133, 3134, 3321, 3320
3118, 3134, 3135, 3322, 3321
3119, 3135, 3136, 3323, 3322
3120, 3136, 3137, 3324, 3323
3121, 3137, 3138, 3325, 3324
3122, 3138, 3139, 3326, 3325
3123, 3139, 3140, 3327, 3326
3124, 3140, 3141, 3328, 3327
3125, 3141, 3142, 3329, 3328
3126, 3142, 3143, 3330, 3329
3127, 3143, 3144, 3331, 3330
3128, 3144, 3145, 3332, 3331
3129, 3145, 3146, 3333, 3332
3130, 3146, 3147, 3334, 3333
3131, 3147, 3148, 3335, 3334
3132, 3148, 3149, 3336, 3335
3133, 3149, 3150, 3337, 3336
3134, 3150, 3151, 3338, 3337
3135, 3151, 3152, 3339, 3338
3136, 3152, 3153, 3340, 3339
3137, 3153, 3154, 3341, 3340
3138, 3154, 3155, 3342, 3341
3139, 3155, 3156, 3343, 3342
3140, 3156, 3157, 3344, 3343
3141, 3157, 3158, 3345, 3344
3142, 3158, 3159, 3346, 3345
3143, 3159, 3160, 3347, 3346
3144, 3160, 3161, 3348, 3347
3145, 3161, 3162, 3349, 3348
3146, 3162, 3163, 3350, 3349
3147, 3163, 3164, 3351, 3350
3148, 3164, 3165, 3352, 3351
3149, 3165, 3166, 3353, 3352
3150, 3166, 3167, 3354, 3353
3151, 3167, 3168, 3355, 3354
3152, 3168, 3169, 3356, 3355
3153, 3169, 3170, 3357, 3356
3154, 3170, 3171, 3358, 3357
3155, 3171, 3172, 3359, 3358
3156, 3172, 3173, 3360, 3359
3157, 3173, 3174, 3361, 3360
3158, 3174, 3175, 3362, 3361
3159, 3175, 3176, 3363, 3362
3160, 3176, 3177, 3364, 3363
3161, 3177, 3178, 3365, 3364
3162, 3178, 3179, 3366, 3365
3163, 3181, 3180, 3367, 3368
3164, 3180, 3182, 3369, 3367
3165, 3182, 3183, 3370, 3369
3166, 3183, 3184, 3371, 3370
3167, 3184, 3185, 3372, 3371
3168, 3185, 3186, 3373, 3372
3169, 3186, 3187, 3374, 3373
3170, 3187, 3188, 3375, 3374
3171, 3188, 3189, 3376, 3375
3172, 3189, 3190, 3377, 3376
3173, 3190, 3191, 3378, 3377
3174, 3191, 3192, 3379, 3378
3175, 3192, 3193, 3380, 3379
3176, 3193, 3194, 3381, 3380
3177, 3194, 3195, 3382, 3381
3178, 3195, 3196, 3383, 3382
3179, 3196, 3197, 3384, 3383
3180, 3197, 3198, 3385, 3384
3181, 3198, 3199, 3386, 3385
3182, 3199, 3200, 3387, 3386
3183, 3200, 3201, 3388, 3387
3184, 3201, 3202, 3389, 3388
3185, 3202, 3203, 3390, 3389
3186, 3203, 3204, 3391, 3390
3187, 3204, 3205, 3392, 3391
3188, 3205, 3206, 3393, 3392
3189, 3206, 3207, 3394, 3393
3190, 3207, 3208, 3395, 3394
3191, 3208, 3209, 3396, 3395
3192, 3209, 3210, 3397, 3396
3193, 3210, 3211, 3398, 3397
3194, 3211, 3212, 3399, 3398
3195, 3212, 3213, 3400, 3399
3196, 3213, 3214, 3401, 3400
3197, 3214, 3215, 3402, 3401
3198, 3215, 3216, 3403, 3402
3199, 3216, 3217, 3404, 3403
3200, 3217, 3218, 3405, 3404
3201, 3218, 3219, 3406, 3405
3202, 3219, 3220, 3407, 3406
3203, 3220, 3221, 3408, 3407
3204, 3221, 3222, 3409, 3408
3205, 3222, 3223, 3410, 3409
3206, 3223, 3224, 3411, 3410
3207, 3224, 3225, 3412, 3411
3208, 3225, 3226, 3413, 3412
3209, 3226, 3227, 3414, 3413
3210, 3227, 3228, 3415, 3414
3211, 3228, 3229, 3416, 3415
3212, 3229, 3230, 3417, 3416
3213, 3230, 3231, 3418, 3417
3214, 3231, 3232, 3419, 3418
3215, 3232, 3233, 3420, 3419
3216, 3233, 3234, 3421, 3420
3217, 3234, 3235, 3422, 3421
3218, 3235, 3236, 3423, 3422
3219, 3236, 3237, 3424, 3423
3220, 3237, 3238, 3425, 3424
3221, 3238, 3239, 3426, 3425
3222, 3239, 3240, 3427, 3426
3223, 3240, 3241, 3428, 3427
3224, 3241, 3242, 3429, 3428
3225, 3242, 3243, 3430, 3429
3226, 3243, 3244, 3431, 3430
3227, 3244, 3245, 3432, 3431
3228, 3245, 3246, 3433, 3432
3229, 3246, 3247, 3434, 3433
3230, 3247, 3248, 3435, 3434
3231, 3248, 3249, 3436, 3435
3232, 3249, 3250, 3437, 3436
3233, 3250, 3251, 3438, 3437
3234, 3251, 3252, 3439, 3438
3235, 3252, 3253, 3440, 3439
3236, 3253, 3254, 3441, 3440
3237, 3254, 3255, 3442, 3441
3238, 3255, 3256, 3443, 3442
3239, 3256, 3257, 3444, 3443
3240, 3257, 3258, 3445, 3444
3241, 3258, 3259, 3446, 3445
3242, 3259, 3260, 3447, 3446
3243, 3260, 3261, 3448, 3447
3244, 3261, 3262, 3449, 3448
3245, 3262, 3263, 3450, 3449
3246, 3263, 3264, 3451, 3450
3247, 3264, 3265, 3452, 3451
3248, 3265, 3266, 3453, 3452
3249, 3266, 3267, 3454, 3453
3250, 3267, 3268, 3455, 3454
3251, 3268, 3269, 3456, 3455
3252, 3269, 3270, 3457, 3456
3253, 3270, 3271, 3458, 3457
3254, 3271, 3272, 3459, 3458
3255, 3272, 3273, 3460, 3459
3256, 3273, 3274, 3461, 3460
3257, 3274, 3275, 3462, 3461
3258, 3275, 3276, 3463, 3462
3259, 3276, 3277, 3464, 3463
3260, 3277, 3278, 3465, 3464
3261, 3278, 3279, 3466, 3465
3262, 3279, 3280, 3467, 3466
3263, 3280, 3281, 3468, 3467
3264, 3281, 3282, 3469, 3468
3265, 3282, 3283, 3470, 3469
3266, 3283, 3284, 3471, 3470
3267, 3284, 3285, 3472, 3471
3268, 3285, 3286, 3473, 3472
3269, 3286, 3287, 3474, 3473
3270, 3287, 3288, 3475, 3474
3271, 3288, 3289, 3476, 3475
3272, 3289, 3290, 3477, 3476
3273, 3290, 3291, 3478, 3477
3274, 3291, 3292, 3479, 3478
3275, 3292, 3293, 3480, 3479
3276, 3293, 3294, 3481, 3480
3277, 3294, 3295, 3482, 3481
3278, 3295, 3296, 3483, 3482
3279, 3296, 3297, 3484, 3483
3280, 3297, 3298, 3485, 3484
3281, 3298, 3299, 3486, 3485
3282, 3299, 3300, 3487, 3486
3283, 3300, 3301, 3488, 3487
3284, 3301, 3302, 3489, 3488
3285, 3302, 3303, 3490, 3489
3286, 3303, 3304, 3491, 3490
3287, 3304, 3305, 3492, 3491
3288, 3305, 3306, 3493, 3492
3289, 3306, 3307, 3494, 3493
3290, 3307, 3308, 3495, 3494
3291, 3308, 3309, 3496, 3495
3292, 3309, 3310, 3497, 3496
3293, 3310, 3311, 3498, 3497
3294, 3311, 3312, 3499, 3498
3295, 3312, 3313, 3500, 3499
3296, 3313, 3314, 3501, 3500
3297, 3314, 3315, 3502, 3501
3298, 3315, 3316, 3503, 3502
3299, 3316, 3317, 3504, 3503
3300, 3317, 3318, 3505, 3504
3301, 3318, 3319, 3506, 3505
3302, 3319, 3320, 3507, 3506
3303, 3320, 3321, 3508, 3507
3304, 3321, 3322, 3509, 3508
3305, 3322, 3323, 3510, 3509
3306, 3323, 3324, 3511, 3510
3307, 3324, 3325, 3512, 3511
3308, 3325, 3326, 3513, 3512
3309, 3326, 3327, 3514, 3513
3310, 3327, 3328, 3515, 3514
3311, 3328, 3329, 3516, 3515
3312, 3329, 3330, 3517, 3516
3313, 3330, 3331, 3518, 3517
3314, 3331, 3332, 3519, 3518
3315, 3332, 3333, 3520, 3519
3316, 3333, 3334, 3521, 3520
3317, 3334, 3335, 3522, 3521
3318, 3335, 3336, 3523, 3522
3319, 3336, 3337, 3524, 3523
3320, 3337, 3338, 3525, 3524
3321, 3338, 3339, 3526, 3525
3322, 3339, 3340, 3527, 3526
3323, 3340, 3341, 3528, 3527
3324, 3341, 3342, 3529, 3528
3325, 3342, 3343, 3530, 3529
3326, 3343, 3344, 3531, 3530
3327, 3344, 3345, 3532, 3531
3328, 3345, 3346, 3533, 3532
3329, 3346, 3347, 3534, 3533
3330, 3347, 3348, 3535, 3534
3331, 3348, 3349, 3536, 3535
3332, 3349, 3350, 3537, 3536
3333, 3350, 3351, 3538, 3537
3334, 3351, 3352, 3539, 3538
3335, 3352, 3353, 3540, 3539
3336, 3353, 3354, 3541, 3540
3337, 3354, 3355, 3542, 3541
3338, 3355, 3356, 3543, 3542
3339, 3356, 3357, 3544, 3543
3340, 3357, 3358, 3545, 3544
3341, 3358, 3359, 3546, 3545
3342, 3359, 3360, 3547, 3546
3343, 3360, 3361, 3548, 3547
3344, 3361, 3362, 3549, 3548
3345, 3362, 3363, 3550, 3549
3346, 3363, 3364, 3551, 3550
3347, 3364, 3365, 3552, 3551
3348, 3365, 3366, 3553, 3552
3349, 3368, 3367, 3554, 3555
3350, 3367, 3369, 3556, 3554
3351, 3369, 3370, 3557, 3556
3352, 3554, 3556, 3557, 3555
3353, 3370, 3371, 3558, 3557
3354, 3371, 3372, 3559, 3558
3355, 3372, 3373, 3560, 3559
3356, 3558, 3559, 3560, 3557
3357, 3373, 3374, 3561, 3560
3358, 3374, 3375, 3562, 3561
3359, 3375, 3376, 3563, 3562
3360, 3561, 3562, 3563, 3560
3361, 3376, 3377, 3564, 3563
3362, 3377, 3378, 3565, 3564
3363, 3378, 3379, 3566, 3565
3364, 3564, 3565, 3566, 3563
3365, 3379, 3380, 3567, 3566
3366, 3380, 3381, 3568, 3567
3367, 3381, 3382, 3569, 3568
3368, 3567, 3568, 3569, 3566
3369, 3382, 3383, 3570, 3569
3370, 3383, 3384, 3571, 3570
3371, 3384, 3385, 3572, 3571
3372, 3570, 3571, 3572, 3569
3373, 3385, 3386, 3573, 3572
3374, 3386, 3387, 3574, 3573
3375, 3387, 3388, 3575, 3574
3376, 3573, 3574, 3575, 3572
3377, 3388, 3389, 3576, 3575
3378, 3389, 3390, 3577, 3576
3379, 3390, 3391, 3578, 3577
3380, 3576, 3577, 3578, 3575
3381, 3391, 3392, 3579, 3578
3382, 3392, 3393, 3580, 3579
3383, 3393, 3394, 3581, 3580
3384, 3579, 3580, 3581, 3578
3385, 3394, 3395, 3582, 3581
3386, 3395, 3396, 3583, 3582
3387, 3396, 3397, 3584, 3583
3388, 3582, 3583, 3584, 3581
3389, 3397, 3398, 3585, 3584
3390, 3398, 3399, 3586, 3585
3391, 3399, 3400, 3587, 3586
3392, 3585, 3586, 3587, 3584
3393, 3400, 3401, 3588, 3587
3394, 3401, 3402, 3589, 3588
3395, 3402, 3403, 3590, 3589
3396, 3588, 3589, 3590, 3587
3397, 3403, 3404, 3591, 3590
3398, 3404, 3405, 3592, 3591
3399, 3405, 3406, 3593, 3592
3400, 3591, 3592, 3593, 3590
3401, 3406, 3407, 3594, 3593
3402, 3407, 3408, 3595, 3594
3403, 3408, 3409, 3596, 3595
3404, 3594, 3595, 3596, 3593
3405, 3409, 3410, 3597, 3596
3406, 3410, 3411, 3598, 3597
3407, 3411, 3412, 3599, 3598
3408, 3597, 3598, 3599, 3596
3409, 3412, 3413, 3600, 3599
3410, 3413, 3414, 3601, 3600
3411, 3414, 3415, 3602, 3601
3412, 3600, 3601, 3602, 3599
3413, 3415, 3416, 3603, 3602
3414, 3416, 3417, 3604, 3603
3415, 3417, 3418, 3605, 3604
3416, 3603, 3604, 3605, 3602
3417, 3418, 3419, 3606, 3605
3418, 3419, 3420, 3607, 3606
3419, 3420, 3421, 3608, 3607
3420, 3606, 3607, 3608, 3605
3421, 3421, 3422, 3609, 3608
3422, 3422, 3423, 3610, 3609
3423, 3423, 3424, 3611, 3610
3424, 3609, 3610, 3611, 3608
3425, 3424, 3425, 3612, 3611
3426, 3425, 3426, 3613, 3612
3427, 3426, 3427, 3614, 3613
3428, 3612, 3613, 3614, 3611
3429, 3427, 3428, 3615, 3614
3430, 3428, 3429, 3616, 3615
3431, 3429, 3430, 3617, 3616
3432, 3615, 3616, 3617, 3614
3433, 3430, 3431, 3618, 3617
3434, 3431, 3432, 3619, 3618
3435, 3432, 3433, 3620, 3619
3436, 3618, 3619, 3620, 3617
3437, 3433, 3434, 3621, 3620
3438, 3434, 3435, 3622, 3621
3439, 3435, 3436, 3623, 3622
3440, 3621, 3622, 3623, 3620
3441, 3436, 3437, 3624, 3623
3442, 3437, 3438, 3625, 3624
3443, 3438, 3439, 3626, 3625
3444, 3624, 3625, 3626, 3623
3445, 3439, 3440, 3627, 3626
3446, 3440, 3441, 3628, 3627
3447, 3441, 3442, 3629, 3628
3448, 3627, 3628, 3629, 3626
3449, 3442, 3443, 3630, 3629
3450, 3443, 3444, 3631, 3630
3451, 3444, 3445, 3632, 3631
3452, 3630, 3631, 3632, 3629
3453, 3445, 3446, 3633, 3632
3454, 3446, 3447, 3634, 3633
3455, 3447, 3448, 3635, 3634
3456, 3633, 3634, 3635, 3632
3457, 3448, 3449, 3636, 3635
3458, 3449, 3450, 3637, 3636
3459, 3450, 3451, 3638, 3637
3460, 3636, 3637, 3638, 3635
3461, 3451, 3452, 3639, 3638
3462, 3452, 3453, 3640, 3639
3463, 3453, 3454, 3641, 3640
3464, 3639, 3640, 3641, 3638
3465, 3454, 3455, 3642, 3641
3466, 3455, 3456, 3643, 3642
3467, 3456, 3457, 3644, 3643
3468, 3642, 3643, 3644, 3641
3469, 3457, 3458, 3645, 3644
3470, 3458, 3459, 3646, 3645
3471, 3459, 3460, 3647, 3646
3472, 3645, 3646, 3647, 3644
3473, 3460, 3461, 3648, 3647
3474, 3461, 3462, 3649, 3648
3475, 3462, 3463, 3650, 3649
3476, 3648, 3649, 3650, 3647
3477, 3463, 3464, 3651, 3650
3478, 3464, 3465, 3652, 3651
3479, 3465, 3466, 3653, 3652
3480, 3651, 3652, 3653, 3650
3481, 3466, 3467, 3654, 3653
3482, 3467, 3468, 3655, 3654
3483, 3468, 3469, 3656, 3655
3484, 3654, 3655, 3656, 3653
3485, 3469, 3470, 3657, 3656
3486, 3470, 3471, 3658, 3657
3487, 3471, 3472, 3659, 3658
3488, 3657, 3658, 3659, 3656
3489, 3472, 3473, 3660, 3659
3490, 3473, 3474, 3661, 3660
3491, 3474, 3475, 3662, 3661
3492, 3660, 3661, 3662, 3659
3493, 3475, 3476, 3663, 3662
3494, 3476, 3477, 3664, 3663
3495, 3477, 3478, 3665, 3664
3496, 3663, 3664, 3665, 3662
3497, 3478, 3479, 3666, 3665
3498, 3479, 3480, 3667, 3666
3499, 3480, 3481, 3668, 3667
3500, 3666, 3667, 3668, 3665
3501, 3481, 3482, 3669, 3668
3502, 3482, 3483, 3670, 3669
3503, 3483, 3484, 3671, 3670
3504, 3669, 3670, 3671, 3668
3505, 3484, 3485, 3672, 3671
3506, 3485, 3486, 3673, 3672
3507, 3486, 3487, 3674, 3673
3508, 3672, 3673, 3674, 3671
3509, 3487, 3488, 3675, 3674
3510, 3488, 3489, 3676, 3675
3511, 3489, 3490, 3677, 3676
3512, 3675, 3676, 3677, 3674
3513, 3490, 3491, 3678, 3677
3514, 3491, 3492, 3679, 3678
3515, 3492, 3493, 3680, 3679
3516, 3678, 3679, 3680, 3677
3517, 3493, 3494, 3681, 3680
3518, 3494, 3495, 3682, 3681
3519, 3495, 3496, 3683, 3682
3520, 3681, 3682, 3683, 3680
3521, 3496, 3497, 3684, 3683
3522, 3497, 3498, 3685, 3684
3523, 3498, 3499, 3686, 3685
3524, 3684, 3685, 3686, 3683
3525, 3499, 3500, 3687, 3686
3526, 3500, 3501, 3688, 3687
3527, 3501, 3502, 3689, 3688
3528, 3687, 3688, 3689, 3686
3529, 3502, 3503, 3690, 3689
3530, 3503, 3504, 3691, 3690
3531, 3504, 3505, 3692, 3691
3532, 3690, 3691, 3692, 3689
3533, 3505, 3506, 3693, 3692
3534, 3506, 3507, 3694, 3693
3535, 3507, 3508, 3695, 3694
3536, 3693, 3694, 3695, 3692
3537, 3508, 3509, 3696, 3695
3538, 3509, 3510, 3697, 3696
3539, 3510, 3511, 3698, 3697
3540, 3696, 3697, 3698, 3695
3541, 3511, 3512, 3699, 3698
3542, 3512, 3513, 3700, 3699
3543, 3513, 3514, 3701, 3700
3544, 3699, 3700, 3701, 3698
3545, 3514, 3515, 3702, 3701
3546, 3515, 3516, 3703, 3702
3547, 3516, 3517, 3704, 3703
3548, 3702, 3703, 3704, 3701
3549, 3517, 3518, 3705, 3704
3550, 3518, 3519, 3706, 3705
3551, 3519, 3520, 3707, 3706
3552, 3705, 3706, 3707, 3704
3553, 3520, 3521, 3708, 3707
3554, 3521, 3522, 3709, 3708
3555, 3522, 3523, 3710, 3709
3556, 3708, 3709, 3710, 3707
3557, 3523, 3524, 3711, 3710
3558, 3524, 3525, 3712, 3711
3559, 3525, 3526, 3713, 3712
3560, 3711, 3712, 3713, 3710
3561, 3526, 3527, 3714, 3713
3562, 3527, 3528, 3715, 3714
3563, 3528, 3529, 3716, 3715
3564, 3714, 3715, 3716, 3713
3565, 3529, 3530, 3717, 3716
3566, 3530, 3531, 3718, 3717
3567, 3531, 3532, 3719, 3718
3568, 3717, 3718, 3719, 3716
3569, 3532, 3533, 3720, 3719
3570, 3533, 3534, 3721, 3720
3571, 3534, 3535, 3722, 3721
3572, 3720, 3721, 3722, 3719
3573, 3535, 3536, 3723, 3722
3574, 3536, 3537, 3724, 3723
3575, 3537, 3538, 3725, 3724
3576, 3723, 3724, 3725, 3722
3577, 3538, 3539, 3726, 3725
3578, 3539, 3540, 3727, 3726
3579, 3540, 3541, 3728, 3727
3580, 3726, 3727, 3728, 3725
3581, 3541, 3542, 3729, 3728
3582, 3542, 3543, 3730, 3729
3583, 3543, 3544, 3731, 3730
3584, 3729, 3730, 3731, 3728
3585, 3544, 3545, 3732, 3731
3586, 3545, 3546, 3733, 3732
3587, 3546, 3547, 3734, 3733
3588, 3732, 3733, 3734, 3731
3589, 3547, 3548, 3735, 3734
3590, 3548, 3549, 3736, 3735
3591, 3549, 3550, 3737, 3736
3592, 3735, 3736, 3737, 3734
3593, 3550, 3551, 3738, 3737
3594, 3551, 3552, 3739, 3738
3595, 3552, 3553, 3740, 3739
3596, 3738, 3739, 3740, 3737
3597, 2897, 2900, 3741, 3742
3598, 2900, 2910, 3743, 3741
3599, 2910, 2916, 3744, 3743
3600, 3741, 3743, 3744, 3742
3601, 2907, 3746, 3745, 2908
3602, 2908, 3745, 3747, 2914
3603, 2914, 3747, 3748, 2920
3604, 3745, 3746, 3748, 3747
3605, 2916, 2922, 3749, 3744
3606, 2922, 2928, 3750, 3749
3607, 2928, 2934, 3751, 3750
3608, 3749, 3750, 3751, 3744
3609, 2920, 3748, 3752, 2926
3610, 2926, 3752, 3753, 2932
3611, 2932, 3753, 3754, 2938
3612, 3752, 3748, 3754, 3753
3613, 2934, 2940, 3755, 3751
3614, 2940, 2946, 3756, 3755
3615, 2946, 2952, 3757, 3756
3616, 3755, 3756, 3757, 3751
3617, 2938, 3754, 3758, 2944
3618, 2944, 3758, 3759, 2950
3619, 2950, 3759, 3760, 2956
3620, 3758, 3754, 3760, 3759
3621, 2952, 2958, 3761, 3757
3622, 2958, 2964, 3762, 3761
3623, 2964, 2970, 3763, 3762
3624, 3761, 3762, 3763, 3757
3625, 2956, 3760, 3764, 2962
3626, 2962, 3764, 3765, 2968
3627, 2968, 3765, 3766, 2974
3628, 3764, 3760, 3766, 3765
3629, 2970, 2976, 3767, 3763
3630, 2976, 2982, 3768, 3767
3631, 2982, 2988, 3769, 3768
3632, 3767, 3768, 3769, 3763
3633, 2974, 3766, 3770, 2980
3634, 2980, 3770, 3771, 2986
3635, 2986, 3771, 3772, 2992
3636, 3770, 3766, 3772, 3771
3637, 2988, 2994, 3773, 3769
3638, 2994, 3181, 3774, 3773
3639, 3181, 3368, 3775, 3774
3640, 3773, 3774, 3775, 3769
3641, 2992, 3772, 3776, 3179
3642, 3179, 3776, 3777, 3366
3643, 3366, 3777, 3778, 3553
3644, 3776, 3772, 3778, 3777
3645, 3368, 3555, 3779, 3775
3646, 3553, 3778, 3780, 3740
3647, 3781, 3782, 3783, 3784
3648, 3782, 3785, 3786, 3783
3649, 3785, 3787, 3788, 3786
3650, 3787, 3742, 3744, 3788
3651, 3746, 3789, 3790, 3748
3652, 3789, 3791, 3792, 3790
3653, 3791, 3793, 3794, 3792
3654, 3793, 3795, 3796, 3794
3655, 3784, 3783, 3797, 3798
3656, 3783, 3786, 3799, 3797
3657, 3786, 3788, 3800, 3799
3658, 3788, 3744, 3751, 3800
3659, 3748, 3790, 3801, 3754
3660, 3790, 3792, 3802, 3801
3661, 3792, 3794, 3803, 3802
3662, 3794, 3796, 3804, 3803
3663, 3798, 3797, 3805, 3806
3664, 3797, 3799, 3807, 3805
3665, 3799, 3800, 3808, 3807
3666, 3800, 3751, 3757, 3808
3667, 3754, 3801, 3809, 3760
3668, 3801, 3802, 3810, 3809
3669, 3802, 3803, 3811, 3810
3670, 3803, 3804, 3812, 3811
3671, 3806, 3805, 3813, 3814
3672, 3805, 3807, 3815, 3813
3673, 3807, 3808, 3816, 3815
3674, 3808, 3757, 3763, 3816
3675, 3760, 3809, 3817, 3766
3676, 3809, 3810, 3818, 3817
3677, 3810, 3811, 3819, 3818
3678, 3811, 3812, 3820, 3819
3679, 3814, 3813, 3821, 3822
3680, 3813, 3815, 3823, 3821
3681, 3815, 3816, 3824, 3823
3682, 3816, 3763, 3769, 3824
3683, 3766, 3817, 3825, 3772
3684, 3817, 3818, 3826, 3825
3685, 3818, 3819, 3827, 3826
3686, 3819, 3820, 3828, 3827
3687, 3822, 3821, 3829, 3830
3688, 3821, 3823, 3831, 3829
3689, 3823, 3824, 3832, 3831
3690, 3824, 3769, 3775, 3832
3691, 3772, 3825, 3833, 3778
3692, 3825, 3826, 3834, 3833
3693, 3826, 3827, 3835, 3834
3694, 3827, 3828, 3836, 3835
3695, 3830, 3829, 3837, 3838
3696, 3829, 3831, 3839, 3837
3697, 3831, 3832, 3840, 3839
3698, 3832, 3775, 3779, 3840
3699, 3778, 3833, 3841, 3780
3700, 3833, 3834, 3842, 3841
3701, 3834, 3835, 3843, 3842
3702, 3835, 3836, 3844, 3843
3703, 3838, 3837, 3845, 3846
3704, 3837, 3839, 3847, 3845
3705, 3839, 3840, 3848, 3847
3706, 3840, 3779, 3849, 3848
3707, 3779, 3555, 3850, 3849
3708, 3555, 3557, 3851, 3850
3709, 3557, 3560, 3852, 3851
3710, 3560, 3563, 3853, 3852
3711, 3563, 3566, 3854, 3853
3712, 3566, 3569, 3855, 3854
3713, 3569, 3572, 3856, 3855
3714, 3572, 3575, 3857, 3856
3715, 3575, 3578, 3858, 3857
3716, 3578, 3581, 3859, 3858
3717, 3581, 3584, 3860, 3859
3718, 3584, 3587, 3861, 3860
3719, 3587, 3590, 3862, 3861
3720, 3590, 3593, 3863, 3862
3721, 3593, 3596, 3864, 3863
3722, 3596, 3599, 3865, 3864
3723, 3599, 3602, 3866, 3865
3724, 3602, 3605, 3867, 3866
3725, 3605, 3608, 3868, 3867
3726, 3608, 3611, 3869, 3868
3727, 3611, 3614, 3870, 3869
3728, 3614, 3617, 3871, 3870
3729, 3617, 3620, 3872, 3871
3730, 3620, 3623, 3873, 3872
3731, 3623, 3626, 3874, 3873
3732, 3626, 3629, 3875, 3874
3733, 3629, 3632, 3876, 3875
3734, 3632, 3635, 3877, 3876
3735, 3635, 3638, 3878, 3877
3736, 3638, 3641, 3879, 3878
3737, 3641, 3644, 3880, 3879
3738, 3644, 3647, 3881, 3880
3739, 3647, 3650, 3882, 3881
3740, 3650, 3653, 3883, 3882
3741, 3653, 3656, 3884, 3883
3742, 3656, 3659, 3885, 3884
3743, 3659, 3662, 3886, 3885
3744, 3662, 3665, 3887, 3886
3745, 3665, 3668, 3888, 3887
3746, 3668, 3671, 3889, 3888
3747, 3671, 3674, 3890, 3889
3748, 3674, 3677, 3891, 3890
3749, 3677, 3680, 3892, 3891
3750, 3680, 3683, 3893, 3892
3751, 3683, 3686, 3894, 3893
3752, 3686, 3689, 3895, 3894
3753, 3689, 3692, 3896, 3895
3754, 3692, 3695, 3897, 3896
3755, 3695, 3698, 3898, 3897
3756, 3698, 3701, 3899, 3898
3757, 3701, 3704, 3900, 3899
3758, 3704, 3707, 3901, 3900
3759, 3707, 3710, 3902, 3901
3760, 3710, 3713, 3903, 3902
3761, 3713, 3716, 3904, 3903
3762, 3716, 3719, 3905, 3904
3763, 3719, 3722, 3906, 3905
3764, 3722, 3725, 3907, 3906
3765, 3725, 3728, 3908, 3907
3766, 3728, 3731, 3909, 3908
3767, 3731, 3734, 3910, 3909
3768, 3734, 3737, 3911, 3910
3769, 3737, 3740, 3912, 3911
3770, 3740, 3780, 3913, 3912
3771, 3780, 3841, 3914, 3913
3772, 3841, 3842, 3915, 3914
3773, 3842, 3843, 3916, 3915
3774, 3843, 3844, 3917, 3916
3775, 3846, 3845, 3918, 3919
3776, 3845, 3847, 3920, 3918
3777, 3847, 3848, 3921, 3920
3778, 3848, 3849, 3922, 3921
3779, 3849, 3850, 3923, 3922
3780, 3850, 3851, 3924, 3923
3781, 3851, 3852, 3925, 3924
3782, 3852, 3853, 3926, 3925
3783, 3853, 3854, 3927, 3926
3784, 3854, 3855, 3928, 3927
3785, 3855, 3856, 3929, 3928
3786, 3856, 3857, 3930, 3929
3787, 3857, 3858, 3931, 3930
3788, 3858, 3859, 3932, 3931
3789, 3859, 3860, 3933, 3932
3790, 3860, 3861, 3934, 3933
3791, 3861, 3862, 3935, 3934
3792, 3862, 3863, 3936, 3935
3793, 3863, 3864, 3937, 3936
3794, 3864, 3865, 3938, 3937
3795, 3865, 3866, 3939, 3938
3796, 3866, 3867, 3940, 3939
3797, 3867, 3868, 3941, 3940
3798, 3868, 3869, 3942, 3941
3799, 3869, 3870, 3943, 3942
3800, 3870, 3871, 3944, 3943
3801, 3871, 3872, 3945, 3944
3802, 3872, 3873, 3946, 3945
3803, 3873, 3874, 3947, 3946
3804, 3874, 3875, 3948, 3947
3805, 3875, 3876, 3949, 3948
3806, 3876, 3877, 3950, 3949
3807, 3877, 3878, 3951, 3950
3808, 3878, 3879, 3952, 3951
3809, 3879, 3880, 3953, 3952
3810, 3880, 3881, 3954, 3953
3811, 3881, 3882, 3955, 3954
3812, 3882, 3883, 3956, 3955
3813, 3883, 3884, 3957, 3956
3814, 3884, 3885, 3958, 3957
3815, 3885, 3886, 3959, 3958
3816, 3886, 3887, 3960, 3959
3817, 3887, 3888, 3961, 3960
3818, 3888, 3889, 3962, 3961
3819, 3889, 3890, 3963, 3962
3820, 3890, 3891, 3964, 3963
3821, 3891, 3892, 3965, 3964
3822, 3892, 3893, 3966, 3965
3823, 3893, 3894, 3967, 3966
3824, 3894, 3895, 3968, 3967
3825, 3895, 3896, 3969, 3968
3826, 3896, 3897, 3970, 3969
3827, 3897, 3898, 3971, 3970
3828, 3898, 3899, 3972, 3971
3829, 3899, 3900, 3973, 3972
3830, 3900, 3901, 3974, 3973
3831, 3901, 3902, 3975, 3974
3832, 3902, 3903, 3976, 3975
3833, 3903, 3904, 3977, 3976
3834, 3904, 3905, 3978, 3977
3835, 3905, 3906, 3979, 3978
3836, 3906, 3907, 3980, 3979
3837, 3907, 3908, 3981, 3980
3838, 3908, 3909, 3982, 3981
3839, 3909, 3910, 3983, 3982
3840, 3910, 3911, 3984, 3983
3841, 3911, 3912, 3985, 3984
3842, 3912, 3913, 3986, 3985
3843, 3913, 3914, 3987, 3986
3844, 3914, 3915, 3988, 3987
3845, 3915, 3916, 3989, 3988
3846, 3916, 3917, 3990, 3989
3847, 3919, 3918, 3991, 3992
3848, 3918, 3920, 3993, 3991
3849, 3920, 3921, 3994, 3993
3850, 3991, 3993, 3994, 3992
3851, 3921, 3922, 3995, 3994
3852, 3922, 3923, 3996, 3995
3853, 3923, 3924, 3997, 3996
3854, 3995, 3996, 3997, 3994
3855, 3924, 3925, 3998, 3997
3856, 3925, 3926, 3999, 3998
3857, 3926, 3927, 4000, 3999
3858, 3998, 3999, 4000, 3997
3859, 3927, 3928, 4001, 4000
3860, 3928, 3929, 4002, 4001
3861, 3929, 3930, 4003, 4002
3862, 4001, 4002, 4003, 4000
3863, 3930, 3931, 4004, 4003
3864, 3931, 3932, 4005, 4004
3865, 3932, 3933, 4006, 4005
3866, 4004, 4005, 4006, 4003
3867, 3933, 3934, 4007, 4006
3868, 3934, 3935, 4008, 4007
3869, 3935, 3936, 4009, 4008
3870, 4007, 4008, 4009, 4006
3871, 3936, 3937, 4010, 4009
3872, 3937, 3938, 4011, 4010
3873, 3938, 3939, 4012, 4011
3874, 4010, 4011, 4012, 4009
3875, 3939, 3940, 4013, 4012
3876, 3940, 3941, 4014, 4013
3877, 3941, 3942, 4015, 4014
3878, 4013, 4014, 4015, 4012
3879, 3942, 3943, 4016, 4015
3880, 3943, 3944, 4017, 4016
3881, 3944, 3945, 4018, 4017
3882, 4016, 4017, 4018, 4015
3883, 3945, 3946, 4019, 4018
3884, 3946, 3947, 4020, 4019
3885, 3947, 3948, 4021, 4020
3886, 4019, 4020, 4021, 4018
3887, 3948, 3949, 4022, 4021
3888, 3949, 3950, 4023, 4022
3889, 3950, 3951, 4024, 4023
3890, 4022, 4023, 4024, 4021
3891, 3951, 3952, 4025, 4024
3892, 3952, 3953, 4026, 4025
3893, 3953, 3954, 4027, 4026
3894, 4025, 4026, 4027, 4024
3895, 3954, 3955, 4028, 4027
3896, 3955, 3956, 4029, 4028
3897, 3956, 3957, 4030, 4029
3898, 4028, 4029, 4030, 4027
3899, 3957, 3958, 4031, 4030
3900, 3958, 3959, 4032, 4031
3901, 3959, 3960, 4033, 4032
3902, 4031, 4032, 4033, 4030
3903, 3960, 3961, 4034, 4033
3904, 3961, 3962, 4035, 4034
3905, 3962, 3963, 4036, 4035
3906, 4034, 4035, 4036, 4033
3907, 3963, 3964, 4037, 4036
3908, 3964, 3965, 4038, 4037
3909, 3965, 3966, 4039, 4038
3910, 4037, 4038, 4039, 4036
3911, 3966, 3967, 4040, 4039
3912, 3967, 3968, 4041, 4040
3913, 3968, 3969, 4042, 4041
3914, 4040, 4041, 4042, 4039
3915, 3969, 3970, 4043, 4042
3916, 3970, 3971, 4044, 4043
3917, 3971, 3972, 4045, 4044
3918, 4043, 4044, 4045, 4042
3919, 3972, 3973, 4046, 4045
3920, 3973, 3974, 4047, 4046
3921, 3974, 3975, 4048, 4047
3922, 4046, 4047, 4048, 4045
3923, 3975, 3976, 4049, 4048
3924, 3976, 3977, 4050, 4049
3925, 3977, 3978, 4051, 4050
3926, 4049, 4050, 4051, 4048
3927, 3978, 3979, 4052, 4051
3928, 3979, 3980, 4053, 4052
3929, 3980, 3981, 4054, 4053
3930, 4052, 4053, 4054, 4051
3931, 3981, 3982, 4055, 4054
3932, 3982, 3983, 4056, 4055
3933, 3983, 3984, 4057, 4056
3934, 4055, 4056, 4057, 4054
3935, 3984, 3985, 4058, 4057
3936, 3985, 3986, 4059, 4058
3937, 3986, 3987, 4060, 4059
3938, 4058, 4059, 4060, 4057
3939, 3987, 3988, 4061, 4060
3940, 3988, 3989, 4062, 4061
3941, 3989, 3990, 4063, 4062
3942, 4061, 4062, 4063, 4060
3943, 3781, 3784, 4064, 4065
3944, 3784, 3798, 4066, 4064
3945, 3798, 3806, 4067, 4066
3946, 4064, 4066, 4067, 4065
3947, 3795, 4069, 4068, 3796
3948, 3796, 4068, 4070, 3804
3949, 3804, 4070, 4071, 3812
3950, 4068, 4069, 4071, 4070
3951, 3806, 3814, 4072, 4067
3952, 3814, 3822, 4073, 4072
3953, 3822, 3830, 4074, 4073
3954, 4072, 4073, 4074, 4067
3955, 3812, 4071, 4075, 3820
3956, 3820, 4075, 4076, 3828
3957, 3828, 4076, 4077, 3836
3958, 4075, 4071, 4077, 4076
3959, 3830, 3838, 4078, 4074
3960, 3838, 3846, 4079, 4078
3961, 3846, 3919, 4080, 4079
3962, 4078, 4079, 4080, 4074
3963, 3836, 4077, 4081, 3844
3964, 3844, 4081, 4082, 3917
3965, 3917, 4082, 4083, 3990
3966, 4081, 4077, 4083, 4082
3967, 3919, 3992, 4084, 4080
3968, 3990, 4083, 4085, 4063
3969, 4086, 4087, 4088, 4089
3970, 4087, 4065, 4067, 4088
3971, 4069, 4090, 4091, 4071
3972, 4090, 4092, 4093, 4091
3973, 4089, 4088, 4094, 4095
3974, 4088, 4067, 4074, 4094
3975, 4071, 4091, 4096, 4077
3976, 4091, 4093, 4097, 4096
3977, 4095, 4094, 4098, 4099
3978, 4094, 4074, 4080, 4098
3979, 4077, 4096, 4100, 4083
3980, 4096, 4097, 4101, 4100
3981, 4099, 4098, 4102, 4103
3982, 4098, 4080, 4084, 4102
3983, 4083, 4100, 4104, 4085
3984, 4100, 4101, 4105, 4104
3985, 4103, 4102, 4106, 4107
3986, 4102, 4084, 4108, 4106
3987, 4084, 3992, 4109, 4108
3988, 3992, 3994, 4110, 4109
3989, 3994, 3997, 4111, 4110
3990, 3997, 4000, 4112, 4111
3991, 4000, 4003, 4113, 4112
3992, 4003, 4006, 4114, 4113
3993, 4006, 4009, 4115, 4114
3994, 4009, 4012, 4116, 4115
3995, 4012, 4015, 4117, 4116
3996, 4015, 4018, 4118, 4117
3997, 4018, 4021, 4119, 4118
3998, 4021, 4024, 4120, 4119
3999, 4024, 4027, 4121, 4120
4000, 4027, 4030, 4122, 4121
4001, 4030, 4033, 4123, 4122
4002, 4033, 4036, 4124, 4123
4003, 4036, 4039, 4125, 4124
4004, 4039, 4042, 4126, 4125
4005, 4042, 4045, 4127, 4126
4006, 4045, 4048, 4128, 4127
4007, 4048, 4051, 4129, 4128
4008, 4051, 4054, 4130, 4129
4009, 4054, 4057, 4131, 4130
4010, 4057, 4060, 4132, 4131
4011, 4060, 4063, 4133, 4132
4012, 4063, 4085, 4134, 4133
4013, 4085, 4104, 4135, 4134
4014, 4104, 4105, 4136, 4135
4015, 4107, 4106, 4137, 4138
4016, 4106, 4108, 4139, 4137
4017, 4108, 4109, 4140, 4139
4018, 4109, 4110, 4141, 4140
4019, 4110, 4111, 4142, 4141
4020, 4111, 4112, 4143, 4142
4021, 4112, 4113, 4144, 4143
4022, 4113, 4114, 4145, 4144
4023, 4114, 4115, 4146, 4145
4024, 4115, 4116, 4147, 4146
4025, 4116, 4117, 4148, 4147
4026, 4117, 4118, 4149, 4148
4027, 4118, 4119, 4150, 4149
4028, 4119, 4120, 4151, 4150
4029, 4120, 4121, 4152, 4151
4030, 4121, 4122, 4153, 4152
4031, 4122, 4123, 4154, 4153
4032, 4123, 4124, 4155, 4154
4033, 4124, 4125, 4156, 4155
4034, 4125, 4126, 4157, 4156
4035, 4126, 4127, 4158, 4157
4036, 4127, 4128, 4159, 4158
4037, 4128, 4129, 4160, 4159
4038, 4129, 4130, 4161, 4160
4039, 4130, 4131, 4162, 4161
4040, 4131, 4132, 4163, 4162
4041, 4132, 4133, 4164, 4163
4042, 4133, 4134, 4165, 4164
4043, 4134, 4135, 4166, 4165
4044, 4135, 4136, 4167, 4166
4045, 4138, 4137, 4168, 4169
4046, 4137, 4139, 4170, 4168
4047, 4139, 4140, 4171, 4170
4048, 4168, 4170, 4171, 4169
4049, 4140, 4141, 4172, 4171
4050, 4141, 4142, 4173, 4172
4051, 4142, 4143, 4174, 4173
4052, 4172, 4173, 4174, 4171
4053, 4143, 4144, 4175, 4174
4054, 4144, 4145, 4176, 4175
4055, 4145, 4146, 4177, 4176
4056, 4175, 4176, 4177, 4174
4057, 4146, 4147, 4178, 4177
4058, 4147, 4148, 4179, 4178
4059, 4148, 4149, 4180, 4179
4060, 4178, 4179, 4180, 4177
4061, 4149, 4150, 4181, 4180
4062, 4150, 4151, 4182, 4181
4063, 4151, 4152, 4183, 4182
4064, 4181, 4182, 4183, 4180
4065, 4152, 4153, 4184, 4183
4066, 4153, 4154, 4185, 4184
4067, 4154, 4155, 4186, 4185
4068, 4184, 4185, 4186, 4183
4069, 4155, 4156, 4187, 4186
4070, 4156, 4157, 4188, 4187
4071, 4157, 4158, 4189, 4188
4072, 4187, 4188, 4189, 4186
4073, 4158, 4159, 4190, 4189
4074, 4159, 4160, 4191, 4190
4075, 4160, 4161, 4192, 4191
4076, 4190, 4191, 4192, 4189
4077, 4161, 4162, 4193, 4192
4078, 4162, 4163, 4194, 4193
4079, 4163, 4164, 4195, 4194
4080, 4193, 4194, 4195, 4192
4081, 4164, 4165, 4196, 4195
4082, 4165, 4166, 4197, 4196
4083, 4166, 4167, 4198, 4197
4084, 4196, 4197, 4198, 4195
4085, 4086, 4089, 4199, 4200
4086, 4089, 4095, 4201, 4199
4087, 4095, 4099, 4202, 4201
4088, 4199, 4201, 4202, 4200
4089, 4092, 4204, 4203, 4093
4090, 4093, 4203, 4205, 4097
4091, 4097, 4205, 4206, 4101
4092, 4203, 4204, 4206, 4205
4093, 4099, 4103, 4207, 4202
4094, 4103, 4107, 4208, 4207
4095, 4107, 4138, 4209, 4208
4096, 4207, 4208, 4209, 4202
4097, 4101, 4206, 4210, 4105
4098, 4105, 4210, 4211, 4136
4099, 4136, 4211, 4212, 4167
4100, 4210, 4206, 4212, 4211
4101, 4138, 4169, 4213, 4209
4102, 4167, 4212, 4214, 4198
4103, 4215, 4216, 4217, 4218
4104, 4216, 4219, 4220, 4217
4105, 4219, 4221, 4222, 4220
4106, 4221, 4223, 4224, 4222
4107, 4223, 4225, 4226, 4224
4108, 4225, 4227, 4228, 4226
4109, 4227, 4229, 4230, 4228
4110, 4229, 4231, 4232, 4230
4111, 4231, 4233, 4234, 4232
4112, 4233, 4235, 4236, 4234
4113, 4235, 4237, 4238, 4236
4114, 4237, 4239, 4240, 4238
4115, 4239, 4241, 4242, 4240
4116, 4241, 4243, 4244, 4242
4117, 4243, 4245, 4246, 4244
4118, 4245, 4247, 4248, 4246
4119, 4247, 4249, 4250, 4248
4120, 4249, 4251, 4252, 4250
4121, 4251, 4253, 4254, 4252
4122, 4253, 4255, 4256, 4254
4123, 4255, 4257, 4258, 4256
4124, 4257, 4259, 4260, 4258
4125, 4259, 4261, 4262, 4260
4126, 4261, 4263, 4264, 4262
4127, 4263, 4265, 4266, 4264
4128, 4265, 4267, 4268, 4266
4129, 4267, 4269, 4270, 4268
4130, 4269, 4271, 4272, 4270
4131, 4271, 4273, 4274, 4272
4132, 4273, 4275, 4276, 4274
4133, 4275, 4277, 4278, 4276
4134, 4277, 4279, 4280, 4278
4135, 4279, 4281, 4282, 4280
4136, 4281, 4283, 4284, 4282
4137, 4283, 4285, 4286, 4284
4138, 4285, 4287, 4288, 4286
4139, 4287, 4289, 4290, 4288
4140, 4289, 4291, 4292, 4290
4141, 4291, 4293, 4294, 4292
4142, 4293, 4295, 4296, 4294
4143, 4295, 4297, 4298, 4296
4144, 4297, 4299, 4300, 4298
4145, 4299, 4301, 4302, 4300
4146, 4301, 4303, 4304, 4302
4147, 4303, 4305, 4306, 4304
4148, 4305, 4307, 4308, 4306
4149, 4307, 4309, 4310, 4308
4150, 4309, 4311, 4312, 4310
4151, 4311, 4313, 4314, 4312
4152, 4313, 4315, 4316, 4314
4153, 4315, 4317, 4318, 4316
4154, 4317, 4319, 4320, 4318
4155, 4319, 4321, 4322, 4320
4156, 4321, 4323, 4324, 4322
4157, 4323, 4325, 4326, 4324
4158, 4325, 4327, 4328, 4326
4159, 4327, 4329, 4330, 4328
4160, 4329, 4331, 4332, 4330
4161, 4331, 4333, 4334, 4332
4162, 4333, 4335, 4336, 4334
4163, 4335, 4337, 4338, 4336
4164, 4337, 4339, 4340, 4338
4165, 4339, 4341, 4342, 4340
4166, 4341, 4343, 4344, 4342
4167, 4343, 4345, 4346, 4344
4168, 4345, 4347, 4348, 4346
4169, 4347, 4349, 4350, 4348
4170, 4349, 4351, 4352, 4350
4171, 4351, 4353, 4354, 4352
4172, 4353, 4355, 4356, 4354
4173, 4355, 4357, 4358, 4356
4174, 4357, 4359, 4360, 4358
4175, 4359, 4361, 4362, 4360
4176, 4361, 4363, 4364, 4362
4177, 4363, 4200, 4202, 4364
4178, 4218, 4217, 4365, 4366
4179, 4217, 4220, 4367, 4365
4180, 4220, 4222, 4368, 4367
4181, 4222, 4224, 4369, 4368
4182, 4224, 4226, 4370, 4369
4183, 4226, 4228, 4371, 4370
4184, 4228, 4230, 4372, 4371
4185, 4230, 4232, 4373, 4372
4186, 4232, 4234, 4374, 4373
4187, 4234, 4236, 4375, 4374
4188, 4236, 4238, 4376, 4375
4189, 4238, 4240, 4377, 4376
4190, 4240, 4242, 4378, 4377
4191, 4242, 4244, 4379, 4378
4192, 4244, 4246, 4380, 4379
4193, 4246, 4248, 4381, 4380
4194, 4248, 4250, 4382, 4381
4195, 4250, 4252, 4383, 4382
4196, 4252, 4254, 4384, 4383
4197, 4254, 4256, 4385, 4384
4198, 4256, 4258, 4386, 4385
4199, 4258, 4260, 4387, 4386
4200, 4260, 4262, 4388, 4387
4201, 4262, 4264, 4389, 4388
4202, 4264, 4266, 4390, 4389
4203, 4266, 4268, 4391, 4390
4204, 4268, 4270, 4392, 4391
4205, 4270, 4272, 4393, 4392
4206, 4272, 4274, 4394, 4393
4207, 4274, 4276, 4395, 4394
4208, 4276, 4278, 4396, 4395
4209, 4278, 4280, 4397, 4396
4210, 4280, 4282, 4398, 4397
4211, 4282, 4284, 4399, 4398
4212, 4284, 4286, 4400, 4399
4213, 4286, 4288, 4401, 4400
4214, 4288, 4290, 4402, 4401
4215, 4290, 4292, 4403, 4402
4216, 4292, 4294, 4404, 4403
4217, 4294, 4296, 4405, 4404
4218, 4296, 4298, 4406, 4405
4219, 4298, 4300, 4407, 4406
4220, 4300, 4302, 4408, 4407
4221, 4302, 4304, 4409, 4408
4222, 4304, 4306, 4410, 4409
4223, 4306, 4308, 4411, 4410
4224, 4308, 4310, 4412, 4411
4225, 4310, 4312, 4413, 4412
4226, 4312, 4314, 4414, 4413
4227, 4314, 4316, 4415, 4414
4228, 4316, 4318, 4416, 4415
4229, 4318, 4320, 4417, 4416
4230, 4320, 4322, 4418, 4417
4231, 4322, 4324, 4419, 4418
4232, 4324, 4326, 4420, 4419
4233, 4326, 4328, 4421, 4420
4234, 4328, 4330, 4422, 4421
4235, 4330, 4332, 4423, 4422
4236, 4332, 4334, 4424, 4423
4237, 4334, 4336, 4425, 4424
4238, 4336, 4338, 4426, 4425
4239, 4338, 4340, 4427, 4426
4240, 4340, 4342, 4428, 4427
4241, 4342, 4344, 4429, 4428
4242, 4344, 4346, 4430, 4429
4243, 4346, 4348, 4431, 4430
4244, 4348, 4350, 4432, 4431
4245, 4350, 4352, 4433, 4432
4246, 4352, 4354, 4434, 4433
4247, 4354, 4356, 4435, 4434
4248, 4356, 4358, 4436, 4435
4249, 4358, 4360, 4437, 4436
4250, 4360, 4362, 4438, 4437
4251, 4362, 4364, 4439, 4438
4252, 4364, 4202, 4209, 4439
4253, 4366, 4365, 4440, 4441
4254, 4365, 4367, 4442, 4440
4255, 4367, 4368, 4443, 4442
4256, 4368, 4369, 4444, 4443
4257, 4369, 4370, 4445, 4444
4258, 4370, 4371, 4446, 4445
4259, 4371, 4372, 4447, 4446
4260, 4372, 4373, 4448, 4447
4261, 4373, 4374, 4449, 4448
4262, 4374, 4375, 4450, 4449
4263, 4375, 4376, 4451, 4450
4264, 4376, 4377, 4452, 4451
4265, 4377, 4378, 4453, 4452
4266, 4378, 4379, 4454, 4453
4267, 4379, 4380, 4455, 4454
4268, 4380, 4381, 4456, 4455
4269, 4381, 4382, 4457, 4456
4270, 4382, 4383, 4458, 4457
4271, 4383, 4384, 4459, 4458
4272, 4384, 4385, 4460, 4459
4273, 4385, 4386, 4461, 4460
4274, 4386, 4387, 4462, 4461
4275, 4387, 4388, 4463, 4462
4276, 4388, 4389, 4464, 4463
4277, 4389, 4390, 4465, 4464
4278, 4390, 4391, 4466, 4465
4279, 4391, 4392, 4467, 4466
4280, 4392, 4393, 4468, 4467
4281, 4393, 4394, 4469, 4468
4282, 4394, 4395, 4470, 4469
4283, 4395, 4396, 4471, 4470
4284, 4396, 4397, 4472, 4471
4285, 4397, 4398, 4473, 4472
4286, 4398, 4399, 4474, 4473
4287, 4399, 4400, 4475, 4474
4288, 4400, 4401, 4476, 4475
4289, 4401, 4402, 4477, 4476
4290, 4402, 4403, 4478, 4477
4291, 4403, 4404, 4479, 4478
4292, 4404, 4405, 4480, 4479
4293, 4405, 4406, 4481, 4480
4294, 4406, 4407, 4482, 4481
4295, 4407, 4408, 4483, 4482
4296, 4408, 4409, 4484, 4483
4297, 4409, 4410, 4485, 4484
4298, 4410, 4411, 4486, 4485
4299, 4411, 4412, 4487, 4486
4300, 4412, 4413, 4488, 4487
4301, 4413, 4414, 4489, 4488
4302, 4414, 4415, 4490, 4489
4303, 4415, 4416, 4491, 4490
4304, 4416, 4417, 4492, 4491
4305, 4417, 4418, 4493, 4492
4306, 4418, 4419, 4494, 4493
4307, 4419, 4420, 4495, 4494
4308, 4420, 4421, 4496, 4495
4309, 4421, 4422, 4497, 4496
4310, 4422, 4423, 4498, 4497
4311, 4423, 4424, 4499, 4498
4312, 4424, 4425, 4500, 4499
4313, 4425, 4426, 4501, 4500
4314, 4426, 4427, 4502, 4501
4315, 4427, 4428, 4503, 4502
4316, 4428, 4429, 4504, 4503
4317, 4429, 4430, 4505, 4504
4318, 4430, 4431, 4506, 4505
4319, 4431, 4432, 4507, 4506
4320, 4432, 4433, 4508, 4507
4321, 4433, 4434, 4509, 4508
4322, 4434, 4435, 4510, 4509
4323, 4435, 4436, 4511, 4510
4324, 4436, 4437, 4512, 4511
4325, 4437, 4438, 4513, 4512
4326, 4438, 4439, 4514, 4513
4327, 4439, 4209, 4213, 4514
4328, 4204, 4515, 4516, 4206
4329, 4515, 4517, 4518, 4516
4330, 4517, 4519, 4520, 4518
4331, 4519, 4521, 4522, 4520
4332, 4521, 4523, 4524, 4522
4333, 4523, 4525, 4526, 4524
4334, 4525, 4527, 4528, 4526
4335, 4527, 4529, 4530, 4528
4336, 4529, 4531, 4532, 4530
4337, 4531, 4533, 4534, 4532
4338, 4533, 4535, 4536, 4534
4339, 4535, 4537, 4538, 4536
4340, 4537, 4539, 4540, 4538
4341, 4539, 4541, 4542, 4540
4342, 4541, 4543, 4544, 4542
4343, 4543, 4545, 4546, 4544
4344, 4545, 4547, 4548, 4546
4345, 4547, 4549, 4550, 4548
4346, 4549, 4551, 4552, 4550
4347, 4551, 4553, 4554, 4552
4348, 4553, 4555, 4556, 4554
4349, 4555, 4557, 4558, 4556
4350, 4557, 4559, 4560, 4558
4351, 4559, 4561, 4562, 4560
4352, 4561, 4563, 4564, 4562
4353, 4563, 4565, 4566, 4564
4354, 4565, 4567, 4568, 4566
4355, 4567, 4569, 4570, 4568
4356, 4569, 4571, 4572, 4570
4357, 4571, 4573, 4574, 4572
4358, 4573, 4575, 4576, 4574
4359, 4575, 4577, 4578, 4576
4360, 4577, 4579, 4580, 4578
4361, 4579, 4581, 4582, 4580
4362, 4581, 4583, 4584, 4582
4363, 4583, 4585, 4586, 4584
4364, 4585, 4587, 4588, 4586
4365, 4587, 4589, 4590, 4588
4366, 4589, 4591, 4592, 4590
4367, 4591, 4593, 4594, 4592
4368, 4593, 4595, 4596, 4594
4369, 4595, 4597, 4598, 4596
4370, 4597, 4599, 4600, 4598
4371, 4599, 4601, 4602, 4600
4372, 4601, 4603, 4604, 4602
4373, 4603, 4605, 4606, 4604
4374, 4605, 4607, 4608, 4606
4375, 4607, 4609, 4610, 4608
4376, 4609, 4611, 4612, 4610
4377, 4611, 4613, 4614, 4612
4378, 4613, 4615, 4616, 4614
4379, 4615, 4617, 4618, 4616
4380, 4617, 4619, 4620, 4618
4381, 4619, 4621, 4622, 4620
4382, 4621, 4623, 4624, 4622
4383, 4623, 4625, 4626, 4624
4384, 4625, 4627, 4628, 4626
4385, 4627, 4629, 4630, 4628
4386, 4629, 4631, 4632, 4630
4387, 4631, 4633, 4634, 4632
4388, 4633, 4635, 4636, 4634
4389, 4635, 4637, 4638, 4636
4390, 4637, 4639, 4640, 4638
4391, 4639, 4641, 4642, 4640
4392, 4641, 4643, 4644, 4642
4393, 4643, 4645, 4646, 4644
4394, 4645, 4647, 4648, 4646
4395, 4647, 4649, 4650, 4648
4396, 4649, 4651, 4652, 4650
4397, 4651, 4653, 4654, 4652
4398, 4653, 4655, 4656, 4654
4399, 4655, 4657, 4658, 4656
4400, 4657, 4659, 4660, 4658
4401, 4659, 4661, 4662, 4660
4402, 4661, 4663, 4664, 4662
4403, 4206, 4516, 4665, 4212
4404, 4516, 4518, 4666, 4665
4405, 4518, 4520, 4667, 4666
4406, 4520, 4522, 4668, 4667
4407, 4522, 4524, 4669, 4668
4408, 4524, 4526, 4670, 4669
4409, 4526, 4528, 4671, 4670
4410, 4528, 4530, 4672, 4671
4411, 4530, 4532, 4673, 4672
4412, 4532, 4534, 4674, 4673
4413, 4534, 4536, 4675, 4674
4414, 4536, 4538, 4676, 4675
4415, 4538, 4540, 4677, 4676
4416, 4540, 4542, 4678, 4677
4417, 4542, 4544, 4679, 4678
4418, 4544, 4546, 4680, 4679
4419, 4546, 4548, 4681, 4680
4420, 4548, 4550, 4682, 4681
4421, 4550, 4552, 4683, 4682
4422, 4552, 4554, 4684, 4683
4423, 4554, 4556, 4685, 4684
4424, 4556, 4558, 4686, 4685
4425, 4558, 4560, 4687, 4686
4426, 4560, 4562, 4688, 4687
4427, 4562, 4564, 4689, 4688
4428, 4564, 4566, 4690, 4689
4429, 4566, 4568, 4691, 4690
4430, 4568, 4570, 4692, 4691
4431, 4570, 4572, 4693, 4692
4432, 4572, 4574, 4694, 4693
4433, 4574, 4576, 4695, 4694
4434, 4576, 4578, 4696, 4695
4435, 4578, 4580, 4697, 4696
4436, 4580, 4582, 4698, 4697
4437, 4582, 4584, 4699, 4698
4438, 4584, 4586, 4700, 4699
4439, 4586, 4588, 4701, 4700
4440, 4588, 4590, 4702, 4701
4441, 4590, 4592, 4703, 4702
4442, 4592, 4594, 4704, 4703
4443, 4594, 4596, 4705, 4704
4444, 4596, 4598, 4706, 4705
4445, 4598, 4600, 4707, 4706
4446, 4600, 4602, 4708, 4707
4447, 4602, 4604, 4709, 4708
4448, 4604, 4606, 4710, 4709
4449, 4606, 4608, 4711, 4710
4450, 4608, 4610, 4712, 4711
4451, 4610, 4612, 4713, 4712
4452, 4612, 4614, 4714, 4713
4453, 4614, 4616, 4715, 4714
4454, 4616, 4618, 4716, 4715
4455, 4618, 4620, 4717, 4716
4456, 4620, 4622, 4718, 4717
4457, 4622, 4624, 4719, 4718
4458, 4624, 4626, 4720, 4719
4459, 4626, 4628, 4721, 4720
4460, 4628, 4630, 4722, 4721
4461, 4630, 4632, 4723, 4722
4462, 4632, 4634, 4724, 4723
4463, 4634, 4636, 4725, 4724
4464, 4636, 4638, 4726, 4725
4465, 4638, 4640, 4727, 4726
4466, 4640, 4642, 4728, 4727
4467, 4642, 4644, 4729, 4728
4468, 4644, 4646, 4730, 4729
4469, 4646, 4648, 4731, 4730
4470, 4648, 4650, 4732, 4731
4471, 4650, 4652, 4733, 4732
4472, 4652, 4654, 4734, 4733
4473, 4654, 4656, 4735, 4734
4474, 4656, 4658, 4736, 4735
4475, 4658, 4660, 4737, 4736
4476, 4660, 4662, 4738, 4737
4477, 4662, 4664, 4739, 4738
4478, 4212, 4665, 4740, 4214
4479, 4665, 4666, 4741, 4740
4480, 4666, 4667, 4742, 4741
4481, 4667, 4668, 4743, 4742
4482, 4668, 4669, 4744, 4743
4483, 4669, 4670, 4745, 4744
4484, 4670, 4671, 4746, 4745
4485, 4671, 4672, 4747, 4746
4486, 4672, 4673, 4748, 4747
4487, 4673, 4674, 4749, 4748
4488, 4674, 4675, 4750, 4749
4489, 4675, 4676, 4751, 4750
4490, 4676, 4677, 4752, 4751
4491, 4677, 4678, 4753, 4752
4492, 4678, 4679, 4754, 4753
4493, 4679, 4680, 4755, 4754
4494, 4680, 4681, 4756, 4755
4495, 4681, 4682, 4757, 4756
4496, 4682, 4683, 4758, 4757
4497, 4683, 4684, 4759, 4758
4498, 4684, 4685, 4760, 4759
4499, 4685, 4686, 4761, 4760
4500, 4686, 4687, 4762, 4761
4501, 4687, 4688, 4763, 4762
4502, 4688, 4689, 4764, 4763
4503, 4689, 4690, 4765, 4764
4504, 4690, 4691, 4766, 4765
4505, 4691, 4692, 4767, 4766
4506, 4692, 4693, 4768, 4767
4507, 4693, 4694, 4769, 4768
4508, 4694, 4695, 4770, 4769
4509, 4695, 4696, 4771, 4770
4510, 4696, 4697, 4772, 4771
4511, 4697, 4698, 4773, 4772
4512, 4698, 4699, 4774, 4773
4513, 4699, 4700, 4775, 4774
4514, 4700, 4701, 4776, 4775
4515, 4701, 4702, 4777, 4776
4516, 4702, 4703, 4778, 4777
4517, 4703, 4704, 4779, 4778
4518, 4704, 4705, 4780, 4779
4519, 4705, 4706, 4781, 4780
4520, 4706, 4707, 4782, 4781
4521, 4707, 4708, 4783, 4782
4522, 4708, 4709, 4784, 4783
4523, 4709, 4710, 4785, 4784
4524, 4710, 4711, 4786, 4785
4525, 4711, 4712, 4787, 4786
4526, 4712, 4713, 4788, 4787
4527, 4713, 4714, 4789, 4788
4528, 4714, 4715, 4790, 4789
4529, 4715, 4716, 4791, 4790
4530, 4716, 4717, 4792, 4791
4531, 4717, 4718, 4793, 4792
4532, 4718, 4719, 4794, 4793
4533, 4719, 4720, 4795, 4794
4534, 4720, 4721, 4796, 4795
4535, 4721, 4722, 4797, 4796
4536, 4722, 4723, 4798, 4797
4537, 4723, 4724, 4799, 4798
4538, 4724, 4725, 4800, 4799
4539, 4725, 4726, 4801, 4800
4540, 4726, 4727, 4802, 4801
4541, 4727, 4728, 4803, 4802
4542, 4728, 4729, 4804, 4803
4543, 4729, 4730, 4805, 4804
4544, 4730, 4731, 4806, 4805
4545, 4731, 4732, 4807, 4806
4546, 4732, 4733, 4808, 4807
4547, 4733, 4734, 4809, 4808
4548, 4734, 4735, 4810, 4809
4549, 4735, 4736, 4811, 4810
4550, 4736, 4737, 4812, 4811
4551, 4737, 4738, 4813, 4812
4552, 4738, 4739, 4814, 4813
4553, 4441, 4440, 4815, 4816
4554, 4440, 4442, 4817, 4815
4555, 4442, 4443, 4818, 4817
4556, 4443, 4444, 4819, 4818
4557, 4444, 4445, 4820, 4819
4558, 4445, 4446, 4821, 4820
4559, 4446, 4447, 4822, 4821
4560, 4447, 4448, 4823, 4822
4561, 4448, 4449, 4824, 4823
4562, 4449, 4450, 4825, 4824
4563, 4450, 4451, 4826, 4825
4564, 4451, 4452, 4827, 4826
4565, 4452, 4453, 4828, 4827
4566, 4453, 4454, 4829, 4828
4567, 4454, 4455, 4830, 4829
4568, 4455, 4456, 4831, 4830
4569, 4456, 4457, 4832, 4831
4570, 4457, 4458, 4833, 4832
4571, 4458, 4459, 4834, 4833
4572, 4459, 4460, 4835, 4834
4573, 4460, 4461, 4836, 4835
4574, 4461, 4462, 4837, 4836
4575, 4462, 4463, 4838, 4837
4576, 4463, 4464, 4839, 4838
4577, 4464, 4465, 4840, 4839
4578, 4465, 4466, 4841, 4840
4579, 4466, 4467, 4842, 4841
4580, 4467, 4468, 4843, 4842
4581, 4468, 4469, 4844, 4843
4582, 4469, 4470, 4845, 4844
4583, 4470, 4471, 4846, 4845
4584, 4471, 4472, 4847, 4846
4585, 4472, 4473, 4848, 4847
4586, 4473, 4474, 4849, 4848
4587, 4474, 4475, 4850, 4849
4588, 4475, 4476, 4851, 4850
4589, 4476, 4477, 4852, 4851
4590, 4477, 4478, 4853, 4852
4591, 4478, 4479, 4854, 4853
4592, 4479, 4480, 4855, 4854
4593, 4480, 4481, 4856, 4855
4594, 4481, 4482, 4857, 4856
4595, 4482, 4483, 4858, 4857
4596, 4483, 4484, 4859, 4858
4597, 4484, 4485, 4860, 4859
4598, 4485, 4486, 4861, 4860
4599, 4486, 4487, 4862, 4861
4600, 4487, 4488, 4863, 4862
4601, 4488, 4489, 4864, 4863
4602, 4489, 4490, 4865, 4864
4603, 4490, 4491, 4866, 4865
4604, 4491, 4492, 4867, 4866
4605, 4492, 4493, 4868, 4867
4606, 4493, 4494, 4869, 4868
4607, 4494, 4495, 4870, 4869
4608, 4495, 4496, 4871, 4870
4609, 4496, 4497, 4872, 4871
4610, 4497, 4498, 4873, 4872
4611, 4498, 4499, 4874, 4873
4612, 4499, 4500, 4875, 4874
4613, 4500, 4501, 4876, 4875
4614, 4501, 4502, 4877, 4876
4615, 4502, 4503, 4878, 4877
4616, 4503, 4504, 4879, 4878
4617, 4504, 4505, 4880, 4879
4618, 4505, 4506, 4881, 4880
4619, 4506, 4507, 4882, 4881
4620, 4507, 4508, 4883, 4882
4621, 4508, 4509, 4884, 4883
4622, 4509, 4510, 4885, 4884
4623, 4510, 4511, 4886, 4885
4624, 4511, 4512, 4887, 4886
4625, 4512, 4513, 4888, 4887
4626, 4513, 4514, 4889, 4888
4627, 4514, 4213, 4890, 4889
4628, 4213, 4169, 4891, 4890
4629, 4169, 4171, 4892, 4891
4630, 4171, 4174, 4893, 4892
4631, 4174, 4177, 4894, 4893
4632, 4177, 4180, 4895, 4894
4633, 4180, 4183, 4896, 4895
4634, 4183, 4186, 4897, 4896
4635, 4186, 4189, 4898, 4897
4636, 4189, 4192, 4899, 4898
4637, 4192, 4195, 4900, 4899
4638, 4195, 4198, 4901, 4900
4639, 4198, 4214, 4902, 4901
4640, 4214, 4740, 4903, 4902
4641, 4740, 4741, 4904, 4903
4642, 4741, 4742, 4905, 4904
4643, 4742, 4743, 4906, 4905
4644, 4743, 4744, 4907, 4906
4645, 4744, 4745, 4908, 4907
4646, 4745, 4746, 4909, 4908
4647, 4746, 4747, 4910, 4909
4648, 4747, 4748, 4911, 4910
4649, 4748, 4749, 4912, 4911
4650, 4749, 4750, 4913, 4912
4651, 4750, 4751, 4914, 4913
4652, 4751, 4752, 4915, 4914
4653, 4752, 4753, 4916, 4915
4654, 4753, 4754, 4917, 4916
4655, 4754, 4755, 4918, 4917
4656, 4755, 4756, 4919, 4918
4657, 4756, 4757, 4920, 4919
4658, 4757, 4758, 4921, 4920
4659, 4758, 4759, 4922, 4921
4660, 4759, 4760, 4923, 4922
4661, 4760, 4761, 4924, 4923
4662, 4761, 4762, 4925, 4924
4663, 4762, 4763, 4926, 4925
4664, 4763, 4764, 4927, 4926
4665, 4764, 4765, 4928, 4927
4666, 4765, 4766, 4929, 4928
4667, 4766, 4767, 4930, 4929
4668, 4767, 4768, 4931, 4930
4669, 4768, 4769, 4932, 4931
4670, 4769, 4770, 4933, 4932
4671, 4770, 4771, 4934, 4933
4672, 4771, 4772, 4935, 4934
4673, 4772, 4773, 4936, 4935
4674, 4773, 4774, 4937, 4936
4675, 4774, 4775, 4938, 4937
4676, 4775, 4776, 4939, 4938
4677, 4776, 4777, 4940, 4939
4678, 4777, 4778, 4941, 4940
4679, 4778, 4779, 4942, 4941
4680, 4779, 4780, 4943, 4942
4681, 4780, 4781, 4944, 4943
4682, 4781, 4782, 4945, 4944
4683, 4782, 4783, 4946, 4945
4684, 4783, 4784, 4947, 4946
4685, 4784, 4785, 4948, 4947
4686, 4785, 4786, 4949, 4948
4687, 4786, 4787, 4950, 4949
4688, 4787, 4788, 4951, 4950
4689, 4788, 4789, 4952, 4951
4690, 4789, 4790, 4953, 4952
4691, 4790, 4791, 4954, 4953
4692, 4791, 4792, 4955, 4954
4693, 4792, 4793, 4956, 4955
4694, 4793, 4794, 4957, 4956
4695, 4794, 4795, 4958, 4957
4696, 4795, 4796, 4959, 4958
4697, 4796, 4797, 4960, 4959
4698, 4797, 4798, 4961, 4960
4699, 4798, 4799, 4962, 4961
4700, 4799, 4800, 4963, 4962
4701, 4800, 4801, 4964, 4963
4702, 4801, 4802, 4965, 4964
4703, 4802, 4803, 4966, 4965
4704, 4803, 4804, 4967, 4966
4705, 4804, 4805, 4968, 4967
4706, 4805, 4806, 4969, 4968
4707, 4806, 4807, 4970, 4969
4708, 4807, 4808, 4971, 4970
4709, 4808, 4809, 4972, 4971
4710, 4809, 4810, 4973, 4972
4711, 4810, 4811, 4974, 4973
4712, 4811, 4812, 4975, 4974
4713, 4812, 4813, 4976, 4975
4714, 4813, 4814, 4977, 4976
4715, 4816, 4815, 4978, 4979
4716, 4815, 4817, 4980, 4978
4717, 4817, 4818, 4981, 4980
4718, 4818, 4819, 4982, 4981
4719, 4819, 4820, 4983, 4982
4720, 4820, 4821, 4984, 4983
4721, 4821, 4822, 4985, 4984
4722, 4822, 4823, 4986, 4985
4723, 4823, 4824, 4987, 4986
4724, 4824, 4825, 4988, 4987
4725, 4825, 4826, 4989, 4988
4726, 4826, 4827, 4990, 4989
4727, 4827, 4828, 4991, 4990
4728, 4828, 4829, 4992, 4991
4729, 4829, 4830, 4993, 4992
4730, 4830, 4831, 4994, 4993
4731, 4831, 4832, 4995, 4994
4732, 4832, 4833, 4996, 4995
4733, 4833, 4834, 4997, 4996
4734, 4834, 4835, 4998, 4997
4735, 4835, 4836, 4999, 4998
4736, 4836, 4837, 5000, 4999
4737, 4837, 4838, 5001, 5000
4738, 4838, 4839, 5002, 5001
4739, 4839, 4840, 5003, 5002
4740, 4840, 4841, 5004, 5003
4741, 4841, 4842, 5005, 5004
4742, 4842, 4843, 5006, 5005
4743, 4843, 4844, 5007, 5006
4744, 4844, 4845, 5008, 5007
4745, 4845, 4846, 5009, 5008
4746, 4846, 4847, 5010, 5009
4747, 4847, 4848, 5011, 5010
4748, 4848, 4849, 5012, 5011
4749, 4849, 4850, 5013, 5012
4750, 4850, 4851, 5014, 5013
4751, 4851, 4852, 5015, 5014
4752, 4852, 4853, 5016, 5015
4753, 4853, 4854, 5017, 5016
4754, 4854, 4855, 5018, 5017
4755, 4855, 4856, 5019, 5018
4756, 4856, 4857, 5020, 5019
4757, 4857, 4858, 5021, 5020
4758, 4858, 4859, 5022, 5021
4759, 4859, 4860, 5023, 5022
4760, 4860, 4861, 5024, 5023
4761, 4861, 4862, 5025, 5024
4762, 4862, 4863, 5026, 5025
4763, 4863, 4864, 5027, 5026
4764, 4864, 4865, 5028, 5027
4765, 4865, 4866, 5029, 5028
4766, 4866, 4867, 5030, 5029
4767, 4867, 4868, 5031, 5030
4768, 4868, 4869, 5032, 5031
4769, 4869, 4870, 5033, 5032
4770, 4870, 4871, 5034, 5033
4771, 4871, 4872, 5035, 5034
4772, 4872, 4873, 5036, 5035
4773, 4873, 4874, 5037, 5036
4774, 4874, 4875, 5038, 5037
4775, 4875, 4876, 5039, 5038
4776, 4876, 4877, 5040, 5039
4777, 4877, 4878, 5041, 5040
4778, 4878, 4879, 5042, 5041
4779, 4879, 4880, 5043, 5042
4780, 4880, 4881, 5044, 5043
4781, 4881, 4882, 5045, 5044
4782, 4882, 4883, 5046, 5045
4783, 4883, 4884, 5047, 5046
4784, 4884, 4885, 5048, 5047
4785, 4885, 4886, 5049, 5048
4786, 4886, 4887, 5050, 5049
4787, 4887, 4888, 5051, 5050
4788, 4888, 4889, 5052, 5051
4789, 4889, 4890, 5053, 5052
4790, 4890, 4891, 5054, 5053
4791, 4891, 4892, 5055, 5054
4792, 4892, 4893, 5056, 5055
4793, 4893, 4894, 5057, 5056
4794, 4894, 4895, 5058, 5057
4795, 4895, 4896, 5059, 5058
4796, 4896, 4897, 5060, 5059
4797, 4897, 4898, 5061, 5060
4798, 4898, 4899, 5062, 5061
4799, 4899, 4900, 5063, 5062
4800, 4900, 4901, 5064, 5063
4801, 4901, 4902, 5065, 5064
4802, 4902, 4903, 5066, 5065
4803, 4903, 4904, 5067, 5066
4804, 4904, 4905, 5068, 5067
4805, 4905, 4906, 5069, 5068
4806, 4906, 4907, 5070, 5069
4807, 4907, 4908, 5071, 5070
4808, 4908, 4909, 5072, 5071
4809, 4909, 4910, 5073, 5072
4810, 4910, 4911, 5074, 5073
4811, 4911, 4912, 5075, 5074
4812, 4912, 4913, 5076, 5075
4813, 4913, 4914, 5077, 5076
4814, 4914, 4915, 5078, 5077
4815, 4915, 4916, 5079, 5078
4816, 4916, 4917, 5080, 5079
4817, 4917, 4918, 5081, 5080
4818, 4918, 4919, 5082, 5081
4819, 4919, 4920, 5083, 5082
4820, 4920, 4921, 5084, 5083
4821, 4921, 4922, 5085, 5084
4822, 4922, 4923, 5086, 5085
4823, 4923, 4924, 5087, 5086
4824, 4924, 4925, 5088, 5087
4825, 4925, 4926, 5089, 5088
4826, 4926, 4927, 5090, 5089
4827, 4927, 4928, 5091, 5090
4828, 4928, 4929, 5092, 5091
4829, 4929, 4930, 5093, 5092
4830, 4930, 4931, 5094, 5093
4831, 4931, 4932, 5095, 5094
4832, 4932, 4933, 5096, 5095
4833, 4933, 4934, 5097, 5096
4834, 4934, 4935, 5098, 5097
4835, 4935, 4936, 5099, 5098
4836, 4936, 4937, 5100, 5099
4837, 4937, 4938, 5101, 5100
4838, 4938, 4939, 5102, 5101
4839, 4939, 4940, 5103, 5102
4840, 4940, 4941, 5104, 5103
4841, 4941, 4942, 5105, 5104
4842, 4942, 4943, 5106, 5105
4843, 4943, 4944, 5107, 5106
4844, 4944, 4945, 5108, 5107
4845, 4945, 4946, 5109, 5108
4846, 4946, 4947, 5110, 5109
4847, 4947, 4948, 5111, 5110
4848, 4948, 4949, 5112, 5111
4849, 4949, 4950, 5113, 5112
4850, 4950, 4951, 5114, 5113
4851, 4951, 4952, 5115, 5114
4852, 4952, 4953, 5116, 5115
4853, 4953, 4954, 5117, 5116
4854, 4954, 4955, 5118, 5117
4855, 4955, 4956, 5119, 5118
4856, 4956, 4957, 5120, 5119
4857, 4957, 4958, 5121, 5120
4858, 4958, 4959, 5122, 5121
4859, 4959, 4960, 5123, 5122
4860, 4960, 4961, 5124, 5123
4861, 4961, 4962, 5125, 5124
4862, 4962, 4963, 5126, 5125
4863, 4963, 4964, 5127, 5126
4864, 4964, 4965, 5128, 5127
4865, 4965, 4966, 5129, 5128
4866, 4966, 4967, 5130, 5129
4867, 4967, 4968, 5131, 5130
4868, 4968, 4969, 5132, 5131
4869, 4969, 4970, 5133, 5132
4870, 4970, 4971, 5134, 5133
4871, 4971, 4972, 5135, 5134
4872, 4972, 4973, 5136, 5135
4873, 4973, 4974, 5137, 5136
4874, 4974, 4975, 5138, 5137
4875, 4975, 4976, 5139, 5138
4876, 4976, 4977, 5140, 5139
4877, 4979, 4978, 5141, 5142
4878, 4978, 4980, 5143, 5141
4879, 4980, 4981, 5144, 5143
4880, 4981, 4982, 5145, 5144
4881, 4982, 4983, 5146, 5145
4882, 4983, 4984, 5147, 5146
4883, 4984, 4985, 5148, 5147
4884, 4985, 4986, 5149, 5148
4885, 4986, 4987, 5150, 5149
4886, 4987, 4988, 5151, 5150
4887, 4988, 4989, 5152, 5151
4888, 4989, 4990, 5153, 5152
4889, 4990, 4991, 5154, 5153
4890, 4991, 4992, 5155, 5154
4891, 4992, 4993, 5156, 5155
4892, 4993, 4994, 5157, 5156
4893, 4994, 4995, 5158, 5157
4894, 4995, 4996, 5159, 5158
4895, 4996, 4997, 5160, 5159
4896, 4997, 4998, 5161, 5160
4897, 4998, 4999, 5162, 5161
4898, 4999, 5000, 5163, 5162
4899, 5000, 5001, 5164, 5163
4900, 5001, 5002, 5165, 5164
4901, 5002, 5003, 5166, 5165
4902, 5003, 5004, 5167, 5166
4903, 5004, 5005, 5168, 5167
4904, 5005, 5006, 5169, 5168
4905, 5006, 5007, 5170, 5169
4906, 5007, 5008, 5171, 5170
4907, 5008, 5009, 5172, 5171
4908, 5009, 5010, 5173, 5172
4909, 5010, 5011, 5174, 5173
4910, 5011, 5012, 5175, 5174
4911, 5012, 5013, 5176, 5175
4912, 5013, 5014, 5177, 5176
4913, 5014, 5015, 5178, 5177
4914, 5015, 5016, 5179, 5178
4915, 5016, 5017, 5180, 5179
4916, 5017, 5018, 5181, 5180
4917, 5018, 5019, 5182, 5181
4918, 5019, 5020, 5183, 5182
4919, 5020, 5021, 5184, 5183
4920, 5021, 5022, 5185, 5184
4921, 5022, 5023, 5186, 5185
4922, 5023, 5024, 5187, 5186
4923, 5024, 5025, 5188, 5187
4924, 5025, 5026, 5189, 5188
4925, 5026, 5027, 5190, 5189
4926, 5027, 5028, 5191, 5190
4927, 5028, 5029, 5192, 5191
4928, 5029, 5030, 5193, 5192
4929, 5030, 5031, 5194, 5193
4930, 5031, 5032, 5195, 5194
4931, 5032, 5033, 5196, 5195
4932, 5033, 5034, 5197, 5196
4933, 5034, 5035, 5198, 5197
4934, 5035, 5036, 5199, 5198
4935, 5036, 5037, 5200, 5199
4936, 5037, 5038, 5201, 5200
4937, 5038, 5039, 5202, 5201
4938, 5039, 5040, 5203, 5202
4939, 5040, 5041, 5204, 5203
4940, 5041, 5042, 5205, 5204
4941, 5042, 5043, 5206, 5205
4942, 5043, 5044, 5207, 5206
4943, 5044, 5045, 5208, 5207
4944, 5045, 5046, 5209, 5208
4945, 5046, 5047, 5210, 5209
4946, 5047, 5048, 5211, 5210
4947, 5048, 5049, 5212, 5211
4948, 5049, 5050, 5213, 5212
4949, 5050, 5051, 5214, 5213
4950, 5051, 5052, 5215, 5214
4951, 5052, 5053, 5216, 5215
4952, 5053, 5054, 5217, 5216
4953, 5054, 5055, 5218, 5217
4954, 5055, 5056, 5219, 5218
4955, 5056, 5057, 5220, 5219
4956, 5057, 5058, 5221, 5220
4957, 5058, 5059, 5222, 5221
4958, 5059, 5060, 5223, 5222
4959, 5060, 5061, 5224, 5223
4960, 5061, 5062, 5225, 5224
4961, 5062, 5063, 5226, 5225
4962, 5063, 5064, 5227, 5226
4963, 5064, 5065, 5228, 5227
4964, 5065, 5066, 5229, 5228
4965, 5066, 5067, 5230, 5229
4966, 5067, 5068, 5231, 5230
4967, 5068, 5069, 5232, 5231
4968, 5069, 5070, 5233, 5232
4969, 5070, 5071, 5234, 5233
4970, 5071, 5072, 5235, 5234
4971, 5072, 5073, 5236, 5235
4972, 5073, 5074, 5237, 5236
4973, 5074, 5075, 5238, 5237
4974, 5075, 5076, 5239, 5238
4975, 5076, 5077, 5240, 5239
4976, 5077, 5078, 5241, 5240
4977, 5078, 5079, 5242, 5241
4978, 5079, 5080, 5243, 5242
4979, 5080, 5081, 5244, 5243
4980, 5081, 5082, 5245, 5244
4981, 5082, 5083, 5246, 5245
4982, 5083, 5084, 5247, 5246
4983, 5084, 5085, 5248, 5247
4984, 5085, 5086, 5249, 5248
4985, 5086, 5087, 5250, 5249
4986, 5087, 5088, 5251, 5250
4987, 5088, 5089, 5252, 5251
4988, 5089, 5090, 5253, 5252
4989, 5090, 5091, 5254, 5253
4990, 5091, 5092, 5255, 5254
4991, 5092, 5093, 5256, 5255
4992, 5093, 5094, 5257, 5256
4993, 5094, 5095, 5258, 5257
4994, 5095, 5096, 5259, 5258
4995, 5096, 5097, 5260, 5259
4996, 5097, 5098, 5261, 5260
4997, 5098, 5099, 5262, 5261
4998, 5099, 5100, 5263, 5262
4999, 5100, 5101, 5264, 5263
5000, 5101, 5102, 5265, 5264
5001, 5102, 5103, 5266, 5265
5002, 5103, 5104, 5267, 5266
5003, 5104, 5105, 5268, 5267
5004, 5105, 5106, 5269, 5268
5005, 5106, 5107, 5270, 5269
5006, 5107, 5108, 5271, 5270
5007, 5108, 5109, 5272, 5271
5008, 5109, 5110, 5273, 5272
5009, 5110, 5111, 5274, 5273
5010, 5111, 5112, 5275, 5274
5011, 5112, 5113, 5276, 5275
5012, 5113, 5114, 5277, 5276
5013, 5114, 5115, 5278, 5277
5014, 5115, 5116, 5279, 5278
5015, 5116, 5117, 5280, 5279
5016, 5117, 5118, 5281, 5280
5017, 5118, 5119, 5282, 5281
5018, 5119, 5120, 5283, 5282
5019, 5120, 5121, 5284, 5283
5020, 5121, 5122, 5285, 5284
5021, 5122, 5123, 5286, 5285
5022, 5123, 5124, 5287, 5286
5023, 5124, 5125, 5288, 5287
5024, 5125, 5126, 5289, 5288
5025, 5126, 5127, 5290, 5289
5026, 5127, 5128, 5291, 5290
5027, 5128, 5129, 5292, 5291
5028, 5129, 5130, 5293, 5292
5029, 5130, 5131, 5294, 5293
5030, 5131, 5132, 5295, 5294
5031, 5132, 5133, 5296, 5295
5032, 5133, 5134, 5297, 5296
5033, 5134, 5135, 5298, 5297
5034, 5135, 5136, 5299, 5298
5035, 5136, 5137, 5300, 5299
5036, 5137, 5138, 5301, 5300
5037, 5138, 5139, 5302, 5301
5038, 5139, 5140, 5303, 5302
5039, 5142, 5141, 5304, 5305
5040, 5141, 5143, 5306, 5304
5041, 5143, 5144, 5307, 5306
5042, 5144, 5145, 5308, 5307
5043, 5145, 5146, 5309, 5308
5044, 5146, 5147, 5310, 5309
5045, 5147, 5148, 5311, 5310
5046, 5148, 5149, 5312, 5311
5047, 5149, 5150, 5313, 5312
5048, 5150, 5151, 5314, 5313
5049, 5151, 5152, 5315, 5314
5050, 5152, 5153, 5316, 5315
5051, 5153, 5154, 5317, 5316
5052, 5154, 5155, 5318, 5317
5053, 5155, 5156, 5319, 5318
5054, 5156, 5157, 5320, 5319
5055, 5157, 5158, 5321, 5320
5056, 5158, 5159, 5322, 5321
5057, 5159, 5160, 5323, 5322
5058, 5160, 5161, 5324, 5323
5059, 5161, 5162, 5325, 5324
5060, 5162, 5163, 5326, 5325
5061, 5163, 5164, 5327, 5326
5062, 5164, 5165, 5328, 5327
5063, 5165, 5166, 5329, 5328
5064, 5166, 5167, 5330, 5329
5065, 5167, 5168, 5331, 5330
5066, 5168, 5169, 5332, 5331
5067, 5169, 5170, 5333, 5332
5068, 5170, 5171, 5334, 5333
5069, 5171, 5172, 5335, 5334
5070, 5172, 5173, 5336, 5335
5071, 5173, 5174, 5337, 5336
5072, 5174, 5175, 5338, 5337
5073, 5175, 5176, 5339, 5338
5074, 5176, 5177, 5340, 5339
5075, 5177, 5178, 5341, 5340
5076, 5178, 5179, 5342, 5341
5077, 5179, 5180, 5343, 5342
5078, 5180, 5181, 5344, 5343
5079, 5181, 5182, 5345, 5344
5080, 5182, 5183, 5346, 5345
5081, 5183, 5184, 5347, 5346
5082, 5184, 5185, 5348, 5347
5083, 5185, 5186, 5349, 5348
5084, 5186, 5187, 5350, 5349
5085, 5187, 5188, 5351, 5350
5086, 5188, 5189, 5352, 5351
5087, 5189, 5190, 5353, 5352
5088, 5190, 5191, 5354, 5353
5089, 5191, 5192, 5355, 5354
5090, 5192, 5193, 5356, 5355
5091, 5193, 5194, 5357, 5356
5092, 5194, 5195, 5358, 5357
5093, 5195, 5196, 5359, 5358
5094, 5196, 5197, 5360, 5359
5095, 5197, 5198, 5361, 5360
5096, 5198, 5199, 5362, 5361
5097, 5199, 5200, 5363, 5362
5098, 5200, 5201, 5364, 5363
5099, 5201, 5202, 5365, 5364
5100, 5202, 5203, 5366, 5365
5101, 5203, 5204, 5367, 5366
5102, 5204, 5205, 5368, 5367
5103, 5205, 5206, 5369, 5368
5104, 5206, 5207, 5370, 5369
5105, 5207, 5208, 5371, 5370
5106, 5208, 5209, 5372, 5371
5107, 5209, 5210, 5373, 5372
5108, 5210, 5211, 5374, 5373
5109, 5211, 5212, 5375, 5374
5110, 5212, 5213, 5376, 5375
5111, 5213, 5214, 5377, 5376
5112, 5214, 5215, 5378, 5377
5113, 5215, 5216, 5379, 5378
5114, 5216, 5217, 5380, 5379
5115, 5217, 5218, 5381, 5380
5116, 5218, 5219, 5382, 5381
5117, 5219, 5220, 5383, 5382
5118, 5220, 5221, 5384, 5383
5119, 5221, 5222, 5385, 5384
5120, 5222, 5223, 5386, 5385
5121, 5223, 5224, 5387, 5386
5122, 5224, 5225, 5388, 5387
5123, 5225, 5226, 5389, 5388
5124, 5226, 5227, 5390, 5389
5125, 5227, 5228, 5391, 5390
5126, 5228, 5229, 5392, 5391
5127, 5229, 5230, 5393, 5392
5128, 5230, 5231, 5394, 5393
5129, 5231, 5232, 5395, 5394
5130, 5232, 5233, 5396, 5395
5131, 5233, 5234, 5397, 5396
5132, 5234, 5235, 5398, 5397
5133, 5235, 5236, 5399, 5398
5134, 5236, 5237, 5400, 5399
5135, 5237, 5238, 5401, 5400
5136, 5238, 5239, 5402, 5401
5137, 5239, 5240, 5403, 5402
5138, 5240, 5241, 5404, 5403
5139, 5241, 5242, 5405, 5404
5140, 5242, 5243, 5406, 5405
5141, 5243, 5244, 5407, 5406
5142, 5244, 5245, 5408, 5407
5143, 5245, 5246, 5409, 5408
5144, 5246, 5247, 5410, 5409
5145, 5247, 5248, 5411, 5410
5146, 5248, 5249, 5412, 5411
5147, 5249, 5250, 5413, 5412
5148, 5250, 5251, 5414, 5413
5149, 5251, 5252, 5415, 5414
5150, 5252, 5253, 5416, 5415
5151, 5253, 5254, 5417, 5416
5152, 5254, 5255, 5418, 5417
5153, 5255, 5256, 5419, 5418
5154, 5256, 5257, 5420, 5419
5155, 5257, 5258, 5421, 5420
5156, 5258, 5259, 5422, 5421
5157, 5259, 5260, 5423, 5422
5158, 5260, 5261, 5424, 5423
5159, 5261, 5262, 5425, 5424
5160, 5262, 5263, 5426, 5425
5161, 5263, 5264, 5427, 5426
5162, 5264, 5265, 5428, 5427
5163, 5265, 5266, 5429, 5428
5164, 5266, 5267, 5430, 5429
5165, 5267, 5268, 5431, 5430
5166, 5268, 5269, 5432, 5431
5167, 5269, 5270, 5433, 5432
5168, 5270, 5271, 5434, 5433
5169, 5271, 5272, 5435, 5434
5170, 5272, 5273, 5436, 5435
5171, 5273, 5274, 5437, 5436
5172, 5274, 5275, 5438, 5437
5173, 5275, 5276, 5439, 5438
5174, 5276, 5277, 5440, 5439
5175, 5277, 5278, 5441, 5440
5176, 5278, 5279, 5442, 5441
5177, 5279, 5280, 5443, 5442
5178, 5280, 5281, 5444, 5443
5179, 5281, 5282, 5445, 5444
5180, 5282, 5283, 5446, 5445
5181, 5283, 5284, 5447, 5446
5182, 5284, 5285, 5448, 5447
5183, 5285, 5286, 5449, 5448
5184, 5286, 5287, 5450, 5449
5185, 5287, 5288, 5451, 5450
5186, 5288, 5289, 5452, 5451
5187, 5289, 5290, 5453, 5452
5188, 5290, 5291, 5454, 5453
5189, 5291, 5292, 5455, 5454
5190, 5292, 5293, 5456, 5455
5191, 5293, 5294, 5457, 5456
5192, 5294, 5295, 5458, 5457
5193, 5295, 5296, 5459, 5458
5194, 5296, 5297, 5460, 5459
5195, 5297, 5298, 5461, 5460
5196, 5298, 5299, 5462, 5461
5197, 5299, 5300, 5463, 5462
5198, 5300, 5301, 5464, 5463
5199, 5301, 5302, 5465, 5464
5200, 5302, 5303, 5466, 5465
5201, 5305, 5304, 5467, 5468
5202, 5304, 5306, 5469, 5467
5203, 5306, 5307, 5470, 5469
5204, 5307, 5308, 5471, 5470
5205, 5308, 5309, 5472, 5471
5206, 5309, 5310, 5473, 5472
5207, 5310, 5311, 5474, 5473
5208, 5311, 5312, 5475, 5474
5209, 5312, 5313, 5476, 5475
5210, 5313, 5314, 5477, 5476
5211, 5314, 5315, 5478, 5477
5212, 5315, 5316, 5479, 5478
5213, 5316, 5317, 5480, 5479
5214, 5317, 5318, 5481, 5480
5215, 5318, 5319, 5482, 5481
5216, 5319, 5320, 5483, 5482
5217, 5320, 5321, 5484, 5483
5218, 5321, 5322, 5485, 5484
5219, 5322, 5323, 5486, 5485
5220, 5323, 5324, 5487, 5486
5221, 5324, 5325, 5488, 5487
5222, 5325, 5326, 5489, 5488
5223, 5326, 5327, 5490, 5489
5224, 5327, 5328, 5491, 5490
5225, 5328, 5329, 5492, 5491
5226, 5329, 5330, 5493, 5492
5227, 5330, 5331, 5494, 5493
5228, 5331, 5332, 5495, 5494
5229, 5332, 5333, 5496, 5495
5230, 5333, 5334, 5497, 5496
5231, 5334, 5335, 5498, 5497
5232, 5335, 5336, 5499, 5498
5233, 5336, 5337, 5500, 5499
5234, 5337, 5338, 5501, 5500
5235, 5338, 5339, 5502, 5501
5236, 5339, 5340, 5503, 5502
5237, 5340, 5341, 5504, 5503
5238, 5341, 5342, 5505, 5504
5239, 5342, 5343, 5506, 5505
5240, 5343, 5344, 5507, 5506
5241, 5344, 5345, 5508, 5507
5242, 5345, 5346, 5509, 5508
5243, 5346, 5347, 5510, 5509
5244, 5347, 5348, 5511, 5510
5245, 5348, 5349, 5512, 5511
5246, 5349, 5350, 5513, 5512
5247, 5350, 5351, 5514, 5513
5248, 5351, 5352, 5515, 5514
5249, 5352, 5353, 5516, 5515
5250, 5353, 5354, 5517, 5516
5251, 5354, 5355, 5518, 5517
5252, 5355, 5356, 5519, 5518
5253, 5356, 5357, 5520, 5519
5254, 5357, 5358, 5521, 5520
5255, 5358, 5359, 5522, 5521
5256, 5359, 5360, 5523, 5522
5257, 5360, 5361, 5524, 5523
5258, 5361, 5362, 5525, 5524
5259, 5362, 5363, 5526, 5525
5260, 5363, 5364, 5527, 5526
5261, 5364, 5365, 5528, 5527
5262, 5365, 5366, 5529, 5528
5263, 5366, 5367, 5530, 5529
5264, 5367, 5368, 5531, 5530
5265, 5368, 5369, 5532, 5531
5266, 5369, 5370, 5533, 5532
5267, 5370, 5371, 5534, 5533
5268, 5371, 5372, 5535, 5534
5269, 5372, 5373, 5536, 5535
5270, 5373, 5374, 5537, 5536
5271, 5374, 5375, 5538, 5537
5272, 5375, 5376, 5539, 5538
5273, 5376, 5377, 5540, 5539
5274, 5377, 5378, 5541, 5540
5275, 5378, 5379, 5542, 5541
5276, 5379, 5380, 5543, 5542
5277, 5380, 5381, 5544, 5543
5278, 5381, 5382, 5545, 5544
5279, 5382, 5383, 5546, 5545
5280, 5383, 5384, 5547, 5546
5281, 5384, 5385, 5548, 5547
5282, 5385, 5386, 5549, 5548
5283, 5386, 5387, 5550, 5549
5284, 5387, 5388, 5551, 5550
5285, 5388, 5389, 5552, 5551
5286, 5389, 5390, 5553, 5552
5287, 5390, 5391, 5554, 5553
5288, 5391, 5392, 5555, 5554
5289, 5392, 5393, 5556, 5555
5290, 5393, 5394, 5557, 5556
5291, 5394, 5395, 5558, 5557
5292, 5395, 5396, 5559, 5558
5293, 5396, 5397, 5560, 5559
5294, 5397, 5398, 5561, 5560
5295, 5398, 5399, 5562, 5561
5296, 5399, 5400, 5563, 5562
5297, 5400, 5401, 5564, 5563
5298, 5401, 5402, 5565, 5564
5299, 5402, 5403, 5566, 5565
5300, 5403, 5404, 5567, 5566
5301, 5404, 5405, 5568, 5567
5302, 5405, 5406, 5569, 5568
5303, 5406, 5407, 5570, 5569
5304, 5407, 5408, 5571, 5570
5305, 5408, 5409, 5572, 5571
5306, 5409, 5410, 5573, 5572
5307, 5410, 5411, 5574, 5573
5308, 5411, 5412, 5575, 5574
5309, 5412, 5413, 5576, 5575
5310, 5413, 5414, 5577, 5576
5311, 5414, 5415, 5578, 5577
5312, 5415, 5416, 5579, 5578
5313, 5416, 5417, 5580, 5579
5314, 5417, 5418, 5581, 5580
5315, 5418, 5419, 5582, 5581
5316, 5419, 5420, 5583, 5582
5317, 5420, 5421, 5584, 5583
5318, 5421, 5422, 5585, 5584
5319, 5422, 5423, 5586, 5585
5320, 5423, 5424, 5587, 5586
5321, 5424, 5425, 5588, 5587
5322, 5425, 5426, 5589, 5588
5323, 5426, 5427, 5590, 5589
5324, 5427, 5428, 5591, 5590
5325, 5428, 5429, 5592, 5591
5326, 5429, 5430, 5593, 5592
5327, 5430, 5431, 5594, 5593
5328, 5431, 5432, 5595, 5594
5329, 5432, 5433, 5596, 5595
5330, 5433, 5434, 5597, 5596
5331, 5434, 5435, 5598, 5597
5332, 5435, 5436, 5599, 5598
5333, 5436, 5437, 5600, 5599
5334, 5437, 5438, 5601, 5600
5335, 5438, 5439, 5602, 5601
5336, 5439, 5440, 5603, 5602
5337, 5440, 5441, 5604, 5603
5338, 5441, 5442, 5605, 5604
5339, 5442, 5443, 5606, 5605
5340, 5443, 5444, 5607, 5606
5341, 5444, 5445, 5608, 5607
5342, 5445, 5446, 5609, 5608
5343, 5446, 5447, 5610, 5609
5344, 5447, 5448, 5611, 5610
5345, 5448, 5449, 5612, 5611
5346, 5449, 5450, 5613, 5612
5347, 5450, 5451, 5614, 5613
5348, 5451, 5452, 5615, 5614
5349, 5452, 5453, 5616, 5615
5350, 5453, 5454, 5617, 5616
5351, 5454, 5455, 5618, 5617
5352, 5455, 5456, 5619, 5618
5353, 5456, 5457, 5620, 5619
5354, 5457, 5458, 5621, 5620
5355, 5458, 5459, 5622, 5621
5356, 5459, 5460, 5623, 5622
5357, 5460, 5461, 5624, 5623
5358, 5461, 5462, 5625, 5624
5359, 5462, 5463, 5626, 5625
5360, 5463, 5464, 5627, 5626
5361, 5464, 5465, 5628, 5627
5362, 5465, 5466, 5629, 5628
5363, 5468, 5467, 5630, 5631
5364, 5467, 5469, 5632, 5630
5365, 5469, 5470, 5633, 5632
5366, 5470, 5471, 5634, 5633
5367, 5471, 5472, 5635, 5634
5368, 5472, 5473, 5636, 5635
5369, 5473, 5474, 5637, 5636
5370, 5474, 5475, 5638, 5637
5371, 5475, 5476, 5639, 5638
5372, 5476, 5477, 5640, 5639
5373, 5477, 5478, 5641, 5640
5374, 5478, 5479, 5642, 5641
5375, 5479, 5480, 5643, 5642
5376, 5480, 5481, 5644, 5643
5377, 5481, 5482, 5645, 5644
5378, 5482, 5483, 5646, 5645
5379, 5483, 5484, 5647, 5646
5380, 5484, 5485, 5648, 5647
5381, 5485, 5486, 5649, 5648
5382, 5486, 5487, 5650, 5649
5383, 5487, 5488, 5651, 5650
5384, 5488, 5489, 5652, 5651
5385, 5489, 5490, 5653, 5652
5386, 5490, 5491, 5654, 5653
5387, 5491, 5492, 5655, 5654
5388, 5492, 5493, 5656, 5655
5389, 5493, 5494, 5657, 5656
5390, 5494, 5495, 5658, 5657
5391, 5495, 5496, 5659, 5658
5392, 5496, 5497, 5660, 5659
5393, 5497, 5498, 5661, 5660
5394, 5498, 5499, 5662, 5661
5395, 5499, 5500, 5663, 5662
5396, 5500, 5501, 5664, 5663
5397, 5501, 5502, 5665, 5664
5398, 5502, 5503, 5666, 5665
5399, 5503, 5504, 5667, 5666
5400, 5504, 5505, 5668, 5667
5401, 5505, 5506, 5669, 5668
5402, 5506, 5507, 5670, 5669
5403, 5507, 5508, 5671, 5670
5404, 5508, 5509, 5672, 5671
5405, 5509, 5510, 5673, 5672
5406, 5510, 5511, 5674, 5673
5407, 5511, 5512, 5675, 5674
5408, 5512, 5513, 5676, 5675
5409, 5513, 5514, 5677, 5676
5410, 5514, 5515, 5678, 5677
5411, 5515, 5516, 5679, 5678
5412, 5516, 5517, 5680, 5679
5413, 5517, 5518, 5681, 5680
5414, 5518, 5519, 5682, 5681
5415, 5519, 5520, 5683, 5682
5416, 5520, 5521, 5684, 5683
5417, 5521, 5522, 5685, 5684
5418, 5522, 5523, 5686, 5685
5419, 5523, 5524, 5687, 5686
5420, 5524, 5525, 5688, 5687
5421, 5525, 5526, 5689, 5688
5422, 5526, 5527, 5690, 5689
5423, 5527, 5528, 5691, 5690
5424, 5528, 5529, 5692, 5691
5425, 5529, 5530, 5693, 5692
5426, 5530, 5531, 5694, 5693
5427, 5531, 5532, 5695, 5694
5428, 5532, 5533, 5696, 5695
5429, 5533, 5534, 5697, 5696
5430, 5534, 5535, 5698, 5697
5431, 5535, 5536, 5699, 5698
5432, 5536, 5537, 5700, 5699
5433, 5537, 5538, 5701, 5700
5434, 5538, 5539, 5702, 5701
5435, 5539, 5540, 5703, 5702
5436, 5540, 5541, 5704, 5703
5437, 5541, 5542, 5705, 5704
5438, 5542, 5543, 5706, 5705
5439, 5543, 5544, 5707, 5706
5440, 5544, 5545, 5708, 5707
5441, 5545, 5546, 5709, 5708
5442, 5546, 5547, 5710, 5709
5443, 5547, 5548, 5711, 5710
5444, 5548, 5549, 5712, 5711
5445, 5549, 5550, 5713, 5712
5446, 5550, 5551, 5714, 5713
5447, 5551, 5552, 5715, 5714
5448, 5552, 5553, 5716, 5715
5449, 5553, 5554, 5717, 5716
5450, 5554, 5555, 5718, 5717
5451, 5555, 5556, 5719, 5718
5452, 5556, 5557, 5720, 5719
5453, 5557, 5558, 5721, 5720
5454, 5558, 5559, 5722, 5721
5455, 5559, 5560, 5723, 5722
5456, 5560, 5561, 5724, 5723
5457, 5561, 5562, 5725, 5724
5458, 5562, 5563, 5726, 5725
5459, 5563, 5564, 5727, 5726
5460, 5564, 5565, 5728, 5727
5461, 5565, 5566, 5729, 5728
5462, 5566, 5567, 5730, 5729
5463, 5567, 5568, 5731, 5730
5464, 5568, 5569, 5732, 5731
5465, 5569, 5570, 5733, 5732
5466, 5570, 5571, 5734, 5733
5467, 5571, 5572, 5735, 5734
5468, 5572, 5573, 5736, 5735
5469, 5573, 5574, 5737, 5736
5470, 5574, 5575, 5738, 5737
5471, 5575, 5576, 5739, 5738
5472, 5576, 5577, 5740, 5739
5473, 5577, 5578, 5741, 5740
5474, 5578, 5579, 5742, 5741
5475, 5579, 5580, 5743, 5742
5476, 5580, 5581, 5744, 5743
5477, 5581, 5582, 5745, 5744
5478, 5582, 5583, 5746, 5745
5479, 5583, 5584, 5747, 5746
5480, 5584, 5585, 5748, 5747
5481, 5585, 5586, 5749, 5748
5482, 5586, 5587, 5750, 5749
5483, 5587, 5588, 5751, 5750
5484, 5588, 5589, 5752, 5751
5485, 5589, 5590, 5753, 5752
5486, 5590, 5591, 5754, 5753
5487, 5591, 5592, 5755, 5754
5488, 5592, 5593, 5756, 5755
5489, 5593, 5594, 5757, 5756
5490, 5594, 5595, 5758, 5757
5491, 5595, 5596, 5759, 5758
5492, 5596, 5597, 5760, 5759
5493, 5597, 5598, 5761, 5760
5494, 5598, 5599, 5762, 5761
5495, 5599, 5600, 5763, 5762
5496, 5600, 5601, 5764, 5763
5497, 5601, 5602, 5765, 5764
5498, 5602, 5603, 5766, 5765
5499, 5603, 5604, 5767, 5766
5500, 5604, 5605, 5768, 5767
5501, 5605, 5606, 5769, 5768
5502, 5606, 5607, 5770, 5769
5503, 5607, 5608, 5771, 5770
5504, 5608, 5609, 5772, 5771
5505, 5609, 5610, 5773, 5772
5506, 5610, 5611, 5774, 5773
5507, 5611, 5612, 5775, 5774
5508, 5612, 5613, 5776, 5775
5509, 5613, 5614, 5777, 5776
5510, 5614, 5615, 5778, 5777
5511, 5615, 5616, 5779, 5778
5512, 5616, 5617, 5780, 5779
5513, 5617, 5618, 5781, 5780
5514, 5618, 5619, 5782, 5781
5515, 5619, 5620, 5783, 5782
5516, 5620, 5621, 5784, 5783
5517, 5621, 5622, 5785, 5784
5518, 5622, 5623, 5786, 5785
5519, 5623, 5624, 5787, 5786
5520, 5624, 5625, 5788, 5787
5521, 5625, 5626, 5789, 5788
5522, 5626, 5627, 5790, 5789
5523, 5627, 5628, 5791, 5790
5524, 5628, 5629, 5792, 5791
5525, 5631, 5630, 5793, 5794
5526, 5630, 5632, 5795, 5793
5527, 5632, 5633, 5796, 5795
5528, 5633, 5634, 5797, 5796
5529, 5634, 5635, 5798, 5797
5530, 5635, 5636, 5799, 5798
5531, 5636, 5637, 5800, 5799
5532, 5637, 5638, 5801, 5800
5533, 5638, 5639, 5802, 5801
5534, 5639, 5640, 5803, 5802
5535, 5640, 5641, 5804, 5803
5536, 5641, 5642, 5805, 5804
5537, 5642, 5643, 5806, 5805
5538, 5643, 5644, 5807, 5806
5539, 5644, 5645, 5808, 5807
5540, 5645, 5646, 5809, 5808
5541, 5646, 5647, 5810, 5809
5542, 5647, 5648, 5811, 5810
5543, 5648, 5649, 5812, 5811
5544, 5649, 5650, 5813, 5812
5545, 5650, 5651, 5814, 5813
5546, 5651, 5652, 5815, 5814
5547, 5652, 5653, 5816, 5815
5548, 5653, 5654, 5817, 5816
5549, 5654, 5655, 5818, 5817
5550, 5655, 5656, 5819, 5818
5551, 5656, 5657, 5820, 5819
5552, 5657, 5658, 5821, 5820
5553, 5658, 5659, 5822, 5821
5554, 5659, 5660, 5823, 5822
5555, 5660, 5661, 5824, 5823
5556, 5661, 5662, 5825, 5824
5557, 5662, 5663, 5826, 5825
5558, 5663, 5664, 5827, 5826
5559, 5664, 5665, 5828, 5827
5560, 5665, 5666, 5829, 5828
5561, 5666, 5667, 5830, 5829
5562, 5667, 5668, 5831, 5830
5563, 5668, 5669, 5832, 5831
5564, 5669, 5670, 5833, 5832
5565, 5670, 5671, 5834, 5833
5566, 5671, 5672, 5835, 5834
5567, 5672, 5673, 5836, 5835
5568, 5673, 5674, 5837, 5836
5569, 5674, 5675, 5838, 5837
5570, 5675, 5676, 5839, 5838
5571, 5676, 5677, 5840, 5839
5572, 5677, 5678, 5841, 5840
5573, 5678, 5679, 5842, 5841
5574, 5679, 5680, 5843, 5842
5575, 5680, 5681, 5844, 5843
5576, 5681, 5682, 5845, 5844
5577, 5682, 5683, 5846, 5845
5578, 5683, 5684, 5847, 5846
5579, 5684, 5685, 5848, 5847
5580, 5685, 5686, 5849, 5848
5581, 5686, 5687, 5850, 5849
5582, 5687, 5688, 5851, 5850
5583, 5688, 5689, 5852, 5851
5584, 5689, 5690, 5853, 5852
5585, 5690, 5691, 5854, 5853
5586, 5691, 5692, 5855, 5854
5587, 5692, 5693, 5856, 5855
5588, 5693, 5694, 5857, 5856
5589, 5694, 5695, 5858, 5857
5590, 5695, 5696, 5859, 5858
5591, 5696, 5697, 5860, 5859
5592, 5697, 5698, 5861, 5860
5593, 5698, 5699, 5862, 5861
5594, 5699, 5700, 5863, 5862
5595, 5700, 5701, 5864, 5863
5596, 5701, 5702, 5865, 5864
5597, 5702, 5703, 5866, 5865
5598, 5703, 5704, 5867, 5866
5599, 5704, 5705, 5868, 5867
5600, 5705, 5706, 5869, 5868
5601, 5706, 5707, 5870, 5869
5602, 5707, 5708, 5871, 5870
5603, 5708, 5709, 5872, 5871
5604, 5709, 5710, 5873, 5872
5605, 5710, 5711, 5874, 5873
5606, 5711, 5712, 5875, 5874
5607, 5712, 5713, 5876, 5875
5608, 5713, 5714, 5877, 5876
5609, 5714, 5715, 5878, 5877
5610, 5715, 5716, 5879, 5878
5611, 5716, 5717, 5880, 5879
5612, 5717, 5718, 5881, 5880
5613, 5718, 5719, 5882, 5881
5614, 5719, 5720, 5883, 5882
5615, 5720, 5721, 5884, 5883
5616, 5721, 5722, 5885, 5884
5617, 5722, 5723, 5886, 5885
5618, 5723, 5724, 5887, 5886
5619, 5724, 5725, 5888, 5887
5620, 5725, 5726, 5889, 5888
5621, 5726, 5727, 5890, 5889
5622, 5727, 5728, 5891, 5890
5623, 5728, 5729, 5892, 5891
5624, 5729, 5730, 5893, 5892
5625, 5730, 5731, 5894, 5893
5626, 5731, 5732, 5895, 5894
5627, 5732, 5733, 5896, 5895
5628, 5733, 5734, 5897, 5896
5629, 5734, 5735, 5898, 5897
5630, 5735, 5736, 5899, 5898
5631, 5736, 5737, 5900, 5899
5632, 5737, 5738, 5901, 5900
5633, 5738, 5739, 5902, 5901
5634, 5739, 5740, 5903, 5902
5635, 5740, 5741, 5904, 5903
5636, 5741, 5742, 5905, 5904
5637, 5742, 5743, 5906, 5905
5638, 5743, 5744, 5907, 5906
5639, 5744, 5745, 5908, 5907
5640, 5745, 5746, 5909, 5908
5641, 5746, 5747, 5910, 5909
5642, 5747, 5748, 5911, 5910
5643, 5748, 5749, 5912, 5911
5644, 5749, 5750, 5913, 5912
5645, 5750, 5751, 5914, 5913
5646, 5751, 5752, 5915, 5914
5647, 5752, 5753, 5916, 5915
5648, 5753, 5754, 5917, 5916
5649, 5754, 5755, 5918, 5917
5650, 5755, 5756, 5919, 5918
5651, 5756, 5757, 5920, 5919
5652, 5757, 5758, 5921, 5920
5653, 5758, 5759, 5922, 5921
5654, 5759, 5760, 5923, 5922
5655, 5760, 5761, 5924, 5923
5656, 5761, 5762, 5925, 5924
5657, 5762, 5763, 5926, 5925
5658, 5763, 5764, 5927, 5926
5659, 5764, 5765, 5928, 5927
5660, 5765, 5766, 5929, 5928
5661, 5766, 5767, 5930, 5929
5662, 5767, 5768, 5931, 5930
5663, 5768, 5769, 5932, 5931
5664, 5769, 5770, 5933, 5932
5665, 5770, 5771, 5934, 5933
5666, 5771, 5772, 5935, 5934
5667, 5772, 5773, 5936, 5935
5668, 5773, 5774, 5937, 5936
5669, 5774, 5775, 5938, 5937
5670, 5775, 5776, 5939, 5938
5671, 5776, 5777, 5940, 5939
5672, 5777, 5778, 5941, 5940
5673, 5778, 5779, 5942, 5941
5674, 5779, 5780, 5943, 5942
5675, 5780, 5781, 5944, 5943
5676, 5781, 5782, 5945, 5944
5677, 5782, 5783, 5946, 5945
5678, 5783, 5784, 5947, 5946
5679, 5784, 5785, 5948, 5947
5680, 5785, 5786, 5949, 5948
5681, 5786, 5787, 5950, 5949
5682, 5787, 5788, 5951, 5950
5683, 5788, 5789, 5952, 5951
5684, 5789, 5790, 5953, 5952
5685, 5790, 5791, 5954, 5953
5686, 5791, 5792, 5955, 5954
5687, 5794, 5793, 5956, 5957
5688, 5793, 5795, 5958, 5956
5689, 5795, 5796, 5959, 5958
5690, 5796, 5797, 5960, 5959
5691, 5797, 5798, 5961, 5960
5692, 5798, 5799, 5962, 5961
5693, 5799, 5800, 5963, 5962
5694, 5800, 5801, 5964, 5963
5695, 5801, 5802, 5965, 5964
5696, 5802, 5803, 5966, 5965
5697, 5803, 5804, 5967, 5966
5698, 5804, 5805, 5968, 5967
5699, 5805, 5806, 5969, 5968
5700, 5806, 5807, 5970, 5969
5701, 5807, 5808, 5971, 5970
5702, 5808, 5809, 5972, 5971
5703, 5809, 5810, 5973, 5972
5704, 5810, 5811, 5974, 5973
5705, 5811, 5812, 5975, 5974
5706, 5812, 5813, 5976, 5975
5707, 5813, 5814, 5977, 5976
5708, 5814, 5815, 5978, 5977
5709, 5815, 5816, 5979, 5978
5710, 5816, 5817, 5980, 5979
5711, 5817, 5818, 5981, 5980
5712, 5818, 5819, 5982, 5981
5713, 5819, 5820, 5983, 5982
5714, 5820, 5821, 5984, 5983
5715, 5821, 5822, 5985, 5984
5716, 5822, 5823, 5986, 5985
5717, 5823, 5824, 5987, 5986
5718, 5824, 5825, 5988, 5987
5719, 5825, 5826, 5989, 5988
5720, 5826, 5827, 5990, 5989
5721, 5827, 5828, 5991, 5990
5722, 5828, 5829, 5992, 5991
5723, 5829, 5830, 5993, 5992
5724, 5830, 5831, 5994, 5993
5725, 5831, 5832, 5995, 5994
5726, 5832, 5833, 5996, 5995
5727, 5833, 5834, 5997, 5996
5728, 5834, 5835, 5998, 5997
5729, 5835, 5836, 5999, 5998
5730, 5836, 5837, 6000, 5999
5731, 5837, 5838, 6001, 6000
5732, 5838, 5839, 6002, 6001
5733, 5839, 5840, 6003, 6002
5734, 5840, 5841, 6004, 6003
5735, 5841, 5842, 6005, 6004
5736, 5842, 5843, 6006, 6005
5737, 5843, 5844, 6007, 6006
5738, 5844, 5845, 6008, 6007
5739, 5845, 5846, 6009, 6008
5740, 5846, 5847, 6010, 6009
5741, 5847, 5848, 6011, 6010
5742, 5848, 5849, 6012, 6011
5743, 5849, 5850, 6013, 6012
5744, 5850, 5851, 6014, 6013
5745, 5851, 5852, 6015, 6014
5746, 5852, 5853, 6016, 6015
5747, 5853, 5854, 6017, 6016
5748, 5854, 5855, 6018, 6017
5749, 5855, 5856, 6019, 6018
5750, 5856, 5857, 6020, 6019
5751, 5857, 5858, 6021, 6020
5752, 5858, 5859, 6022, 6021
5753, 5859, 5860, 6023, 6022
5754, 5860, 5861, 6024, 6023
5755, 5861, 5862, 6025, 6024
5756, 5862, 5863, 6026, 6025
5757, 5863, 5864, 6027, 6026
5758, 5864, 5865, 6028, 6027
5759, 5865, 5866, 6029, 6028
5760, 5866, 5867, 6030, 6029
5761, 5867, 5868, 6031, 6030
5762, 5868, 5869, 6032, 6031
5763, 5869, 5870, 6033, 6032
5764, 5870, 5871, 6034, 6033
5765, 5871, 5872, 6035, 6034
5766, 5872, 5873, 6036, 6035
5767, 5873, 5874, 6037, 6036
5768, 5874, 5875, 6038, 6037
5769, 5875, 5876, 6039, 6038
5770, 5876, 5877, 6040, 6039
5771, 5877, 5878, 6041, 6040
5772, 5878, 5879, 6042, 6041
5773, 5879, 5880, 6043, 6042
5774, 5880, 5881, 6044, 6043
5775, 5881, 5882, 6045, 6044
5776, 5882, 5883, 6046, 6045
5777, 5883, 5884, 6047, 6046
5778, 5884, 5885, 6048, 6047
5779, 5885, 5886, 6049, 6048
5780, 5886, 5887, 6050, 6049
5781, 5887, 5888, 6051, 6050
5782, 5888, 5889, 6052, 6051
5783, 5889, 5890, 6053, 6052
5784, 5890, 5891, 6054, 6053
5785, 5891, 5892, 6055, 6054
5786, 5892, 5893, 6056, 6055
5787, 5893, 5894, 6057, 6056
5788, 5894, 5895, 6058, 6057
5789, 5895, 5896, 6059, 6058
5790, 5896, 5897, 6060, 6059
5791, 5897, 5898, 6061, 6060
5792, 5898, 5899, 6062, 6061
5793, 5899, 5900, 6063, 6062
5794, 5900, 5901, 6064, 6063
5795, 5901, 5902, 6065, 6064
5796, 5902, 5903, 6066, 6065
5797, 5903, 5904, 6067, 6066
5798, 5904, 5905, 6068, 6067
5799, 5905, 5906, 6069, 6068
5800, 5906, 5907, 6070, 6069
5801, 5907, 5908, 6071, 6070
5802, 5908, 5909, 6072, 6071
5803, 5909, 5910, 6073, 6072
5804, 5910, 5911, 6074, 6073
5805, 5911, 5912, 6075, 6074
5806, 5912, 5913, 6076, 6075
5807, 5913, 5914, 6077, 6076
5808, 5914, 5915, 6078, 6077
5809, 5915, 5916, 6079, 6078
5810, 5916, 5917, 6080, 6079
5811, 5917, 5918, 6081, 6080
5812, 5918, 5919, 6082, 6081
5813, 5919, 5920, 6083, 6082
5814, 5920, 5921, 6084, 6083
5815, 5921, 5922, 6085, 6084
5816, 5922, 5923, 6086, 6085
5817, 5923, 5924, 6087, 6086
5818, 5924, 5925, 6088, 6087
5819, 5925, 5926, 6089, 6088
5820, 5926, 5927, 6090, 6089
5821, 5927, 5928, 6091, 6090
5822, 5928, 5929, 6092, 6091
5823, 5929, 5930, 6093, 6092
5824, 5930, 5931, 6094, 6093
5825, 5931, 5932, 6095, 6094
5826, 5932, 5933, 6096, 6095
5827, 5933, 5934, 6097, 6096
5828, 5934, 5935, 6098, 6097
5829, 5935, 5936, 6099, 6098
5830, 5936, 5937, 6100, 6099
5831, 5937, 5938, 6101, 6100
5832, 5938, 5939, 6102, 6101
5833, 5939, 5940, 6103, 6102
5834, 5940, 5941, 6104, 6103
5835, 5941, 5942, 6105, 6104
5836, 5942, 5943, 6106, 6105
5837, 5943, 5944, 6107, 6106
5838, 5944, 5945, 6108, 6107
5839, 5945, 5946, 6109, 6108
5840, 5946, 5947, 6110, 6109
5841, 5947, 5948, 6111, 6110
5842, 5948, 5949, 6112, 6111
5843, 5949, 5950, 6113, 6112
5844, 5950, 5951, 6114, 6113
5845, 5951, 5952, 6115, 6114
5846, 5952, 5953, 6116, 6115
5847, 5953, 5954, 6117, 6116
5848, 5954, 5955, 6118, 6117
5849, 5957, 5956, 6119, 6120
5850, 5956, 5958, 6121, 6119
5851, 5958, 5959, 6122, 6121
5852, 5959, 5960, 6123, 6122
5853, 5960, 5961, 6124, 6123
5854, 5961, 5962, 6125, 6124
5855, 5962, 5963, 6126, 6125
5856, 5963, 5964, 6127, 6126
5857, 5964, 5965, 6128, 6127
5858, 5965, 5966, 6129, 6128
5859, 5966, 5967, 6130, 6129
5860, 5967, 5968, 6131, 6130
5861, 5968, 5969, 6132, 6131
5862, 5969, 5970, 6133, 6132
5863, 5970, 5971, 6134, 6133
5864, 5971, 5972, 6135, 6134
5865, 5972, 5973, 6136, 6135
5866, 5973, 5974, 6137, 6136
5867, 5974, 5975, 6138, 6137
5868, 5975, 5976, 6139, 6138
5869, 5976, 5977, 6140, 6139
5870, 5977, 5978, 6141, 6140
5871, 5978, 5979, 6142, 6141
5872, 5979, 5980, 6143, 6142
5873, 5980, 5981, 6144, 6143
5874, 5981, 5982, 6145, 6144
5875, 5982, 5983, 6146, 6145
5876, 5983, 5984, 6147, 6146
5877, 5984, 5985, 6148, 6147
5878, 5985, 5986, 6149, 6148
5879, 5986, 5987, 6150, 6149
5880, 5987, 5988, 6151, 6150
5881, 5988, 5989, 6152, 6151
5882, 5989, 5990, 6153, 6152
5883, 5990, 5991, 6154, 6153
5884, 5991, 5992, 6155, 6154
5885, 5992, 5993, 6156, 6155
5886, 5993, 5994, 6157, 6156
5887, 5994, 5995, 6158, 6157
5888, 5995, 5996, 6159, 6158
5889, 5996, 5997, 6160, 6159
5890, 5997, 5998, 6161, 6160
5891, 5998, 5999, 6162, 6161
5892, 5999, 6000, 6163, 6162
5893, 6000, 6001, 6164, 6163
5894, 6001, 6002, 6165, 6164
5895, 6002, 6003, 6166, 6165
5896, 6003, 6004, 6167, 6166
5897, 6004, 6005, 6168, 6167
5898, 6005, 6006, 6169, 6168
5899, 6006, 6007, 6170, 6169
5900, 6007, 6008, 6171, 6170
5901, 6008, 6009, 6172, 6171
5902, 6009, 6010, 6173, 6172
5903, 6010, 6011, 6174, 6173
5904, 6011, 6012, 6175, 6174
5905, 6012, 6013, 6176, 6175
5906, 6013, 6014, 6177, 6176
5907, 6014, 6015, 6178, 6177
5908, 6015, 6016, 6179, 6178
5909, 6016, 6017, 6180, 6179
5910, 6017, 6018, 6181, 6180
5911, 6018, 6019, 6182, 6181
5912, 6019, 6020, 6183, 6182
5913, 6020, 6021, 6184, 6183
5914, 6021, 6022, 6185, 6184
5915, 6022, 6023, 6186, 6185
5916, 6023, 6024, 6187, 6186
5917, 6024, 6025, 6188, 6187
5918, 6025, 6026, 6189, 6188
5919, 6026, 6027, 6190, 6189
5920, 6027, 6028, 6191, 6190
5921, 6028, 6029, 6192, 6191
5922, 6029, 6030, 6193, 6192
5923, 6030, 6031, 6194, 6193
5924, 6031, 6032, 6195, 6194
5925, 6032, 6033, 6196, 6195
5926, 6033, 6034, 6197, 6196
5927, 6034, 6035, 6198, 6197
5928, 6035, 6036, 6199, 6198
5929, 6036, 6037, 6200, 6199
5930, 6037, 6038, 6201, 6200
5931, 6038, 6039, 6202, 6201
5932, 6039, 6040, 6203, 6202
5933, 6040, 6041, 6204, 6203
5934, 6041, 6042, 6205, 6204
5935, 6042, 6043, 6206, 6205
5936, 6043, 6044, 6207, 6206
5937, 6044, 6045, 6208, 6207
5938, 6045, 6046, 6209, 6208
5939, 6046, 6047, 6210, 6209
5940, 6047, 6048, 6211, 6210
5941, 6048, 6049, 6212, 6211
5942, 6049, 6050, 6213, 6212
5943, 6050, 6051, 6214, 6213
5944, 6051, 6052, 6215, 6214
5945, 6052, 6053, 6216, 6215
5946, 6053, 6054, 6217, 6216
5947, 6054, 6055, 6218, 6217
5948, 6055, 6056, 6219, 6218
5949, 6056, 6057, 6220, 6219
5950, 6057, 6058, 6221, 6220
5951, 6058, 6059, 6222, 6221
5952, 6059, 6060, 6223, 6222
5953, 6060, 6061, 6224, 6223
5954, 6061, 6062, 6225, 6224
5955, 6062, 6063, 6226, 6225
5956, 6063, 6064, 6227, 6226
5957, 6064, 6065, 6228, 6227
5958, 6065, 6066, 6229, 6228
5959, 6066, 6067, 6230, 6229
5960, 6067, 6068, 6231, 6230
5961, 6068, 6069, 6232, 6231
5962, 6069, 6070, 6233, 6232
5963, 6070, 6071, 6234, 6233
5964, 6071, 6072, 6235, 6234
5965, 6072, 6073, 6236, 6235
5966, 6073, 6074, 6237, 6236
5967, 6074, 6075, 6238, 6237
5968, 6075, 6076, 6239, 6238
5969, 6076, 6077, 6240, 6239
5970, 6077, 6078, 6241, 6240
5971, 6078, 6079, 6242, 6241
5972, 6079, 6080, 6243, 6242
5973, 6080, 6081, 6244, 6243
5974, 6081, 6082, 6245, 6244
5975, 6082, 6083, 6246, 6245
5976, 6083, 6084, 6247, 6246
5977, 6084, 6085, 6248, 6247
5978, 6085, 6086, 6249, 6248
5979, 6086, 6087, 6250, 6249
5980, 6087, 6088, 6251, 6250
5981, 6088, 6089, 6252, 6251
5982, 6089, 6090, 6253, 6252
5983, 6090, 6091, 6254, 6253
5984, 6091, 6092, 6255, 6254
5985, 6092, 6093, 6256, 6255
5986, 6093, 6094, 6257, 6256
5987, 6094, 6095, 6258, 6257
5988, 6095, 6096, 6259, 6258
5989, 6096, 6097, 6260, 6259
5990, 6097, 6098, 6261, 6260
5991, 6098, 6099, 6262, 6261
5992, 6099, 6100, 6263, 6262
5993, 6100, 6101, 6264, 6263
5994, 6101, 6102, 6265, 6264
5995, 6102, 6103, 6266, 6265
5996, 6103, 6104, 6267, 6266
5997, 6104, 6105, 6268, 6267
5998, 6105, 6106, 6269, 6268
5999, 6106, 6107, 6270, 6269
6000, 6107, 6108, 6271, 6270
6001, 6108, 6109, 6272, 6271
6002, 6109, 6110, 6273, 6272
6003, 6110, 6111, 6274, 6273
6004, 6111, 6112, 6275, 6274
6005, 6112, 6113, 6276, 6275
6006, 6113, 6114, 6277, 6276
6007, 6114, 6115, 6278, 6277
6008, 6115, 6116, 6279, 6278
6009, 6116, 6117, 6280, 6279
6010, 6117, 6118, 6281, 6280
6011, 6120, 6119, 6282, 6283
6012, 6119, 6121, 6284, 6282
6013, 6121, 6122, 6285, 6284
6014, 6122, 6123, 6286, 6285
6015, 6123, 6124, 6287, 6286
6016, 6124, 6125, 6288, 6287
6017, 6125, 6126, 6289, 6288
6018, 6126, 6127, 6290, 6289
6019, 6127, 6128, 6291, 6290
6020, 6128, 6129, 6292, 6291
6021, 6129, 6130, 6293, 6292
6022, 6130, 6131, 6294, 6293
6023, 6131, 6132, 6295, 6294
6024, 6132, 6133, 6296, 6295
6025, 6133, 6134, 6297, 6296
6026, 6134, 6135, 6298, 6297
6027, 6135, 6136, 6299, 6298
6028, 6136, 6137, 6300, 6299
6029, 6137, 6138, 6301, 6300
6030, 6138, 6139, 6302, 6301
6031, 6139, 6140, 6303, 6302
6032, 6140, 6141, 6304, 6303
6033, 6141, 6142, 6305, 6304
6034, 6142, 6143, 6306, 6305
6035, 6143, 6144, 6307, 6306
6036, 6144, 6145, 6308, 6307
6037, 6145, 6146, 6309, 6308
6038, 6146, 6147, 6310, 6309
6039, 6147, 6148, 6311, 6310
6040, 6148, 6149, 6312, 6311
6041, 6149, 6150, 6313, 6312
6042, 6150, 6151, 6314, 6313
6043, 6151, 6152, 6315, 6314
6044, 6152, 6153, 6316, 6315
6045, 6153, 6154, 6317, 6316
6046, 6154, 6155, 6318, 6317
6047, 6155, 6156, 6319, 6318
6048, 6156, 6157, 6320, 6319
6049, 6157, 6158, 6321, 6320
6050, 6158, 6159, 6322, 6321
6051, 6159, 6160, 6323, 6322
6052, 6160, 6161, 6324, 6323
6053, 6161, 6162, 6325, 6324
6054, 6162, 6163, 6326, 6325
6055, 6163, 6164, 6327, 6326
6056, 6164, 6165, 6328, 6327
6057, 6165, 6166, 6329, 6328
6058, 6166, 6167, 6330, 6329
6059, 6167, 6168, 6331, 6330
6060, 6168, 6169, 6332, 6331
6061, 6169, 6170, 6333, 6332
6062, 6170, 6171, 6334, 6333
6063, 6171, 6172, 6335, 6334
6064, 6172, 6173, 6336, 6335
6065, 6173, 6174, 6337, 6336
6066, 6174, 6175, 6338, 6337
6067, 6175, 6176, 6339, 6338
6068, 6176, 6177, 6340, 6339
6069, 6177, 6178, 6341, 6340
6070, 6178, 6179, 6342, 6341
6071, 6179, 6180, 6343, 6342
6072, 6180, 6181, 6344, 6343
6073, 6181, 6182, 6345, 6344
6074, 6182, 6183, 6346, 6345
6075, 6183, 6184, 6347, 6346
6076, 6184, 6185, 6348, 6347
6077, 6185, 6186, 6349, 6348
6078, 6186, 6187, 6350, 6349
6079, 6187, 6188, 6351, 6350
6080, 6188, 6189, 6352, 6351
6081, 6189, 6190, 6353, 6352
6082, 6190, 6191, 6354, 6353
6083, 6191, 6192, 6355, 6354
6084, 6192, 6193, 6356, 6355
6085, 6193, 6194, 6357, 6356
6086, 6194, 6195, 6358, 6357
6087, 6195, 6196, 6359, 6358
6088, 6196, 6197, 6360, 6359
6089, 6197, 6198, 6361, 6360
6090, 6198, 6199, 6362, 6361
6091, 6199, 6200, 6363, 6362
6092, 6200, 6201, 6364, 6363
6093, 6201, 6202, 6365, 6364
6094, 6202, 6203, 6366, 6365
6095, 6203, 6204, 6367, 6366
6096, 6204, 6205, 6368, 6367
6097, 6205, 6206, 6369, 6368
6098, 6206, 6207, 6370, 6369
6099, 6207, 6208, 6371, 6370
6100, 6208, 6209, 6372, 6371
6101, 6209, 6210, 6373, 6372
6102, 6210, 6211, 6374, 6373
6103, 6211, 6212, 6375, 6374
6104, 6212, 6213, 6376, 6375
6105, 6213, 6214, 6377, 6376
6106, 6214, 6215, 6378, 6377
6107, 6215, 6216, 6379, 6378
6108, 6216, 6217, 6380, 6379
6109, 6217, 6218, 6381, 6380
6110, 6218, 6219, 6382, 6381
6111, 6219, 6220, 6383, 6382
6112, 6220, 6221, 6384, 6383
6113, 6221, 6222, 6385, 6384
6114, 6222, 6223, 6386, 6385
6115, 6223, 6224, 6387, 6386
6116, 6224, 6225, 6388, 6387
6117, 6225, 6226, 6389, 6388
6118, 6226, 6227, 6390, 6389
6119, 6227, 6228, 6391, 6390
6120, 6228, 6229, 6392, 6391
6121, 6229, 6230, 6393, 6392
6122, 6230, 6231, 6394, 6393
6123, 6231, 6232, 6395, 6394
6124, 6232, 6233, 6396, 6395
6125, 6233, 6234, 6397, 6396
6126, 6234, 6235, 6398, 6397
6127, 6235, 6236, 6399, 6398
6128, 6236, 6237, 6400, 6399
6129, 6237, 6238, 6401, 6400
6130, 6238, 6239, 6402, 6401
6131, 6239, 6240, 6403, 6402
6132, 6240, 6241, 6404, 6403
6133, 6241, 6242, 6405, 6404
6134, 6242, 6243, 6406, 6405
6135, 6243, 6244, 6407, 6406
6136, 6244, 6245, 6408, 6407
6137, 6245, 6246, 6409, 6408
6138, 6246, 6247, 6410, 6409
6139, 6247, 6248, 6411, 6410
6140, 6248, 6249, 6412, 6411
6141, 6249, 6250, 6413, 6412
6142, 6250, 6251, 6414, 6413
6143, 6251, 6252, 6415, 6414
6144, 6252, 6253, 6416, 6415
6145, 6253, 6254, 6417, 6416
6146, 6254, 6255, 6418, 6417
6147, 6255, 6256, 6419, 6418
6148, 6256, 6257, 6420, 6419
6149, 6257, 6258, 6421, 6420
6150, 6258, 6259, 6422, 6421
6151, 6259, 6260, 6423, 6422
6152, 6260, 6261, 6424, 6423
6153, 6261, 6262, 6425, 6424
6154, 6262, 6263, 6426, 6425
6155, 6263, 6264, 6427, 6426
6156, 6264, 6265, 6428, 6427
6157, 6265, 6266, 6429, 6428
6158, 6266, 6267, 6430, 6429
6159, 6267, 6268, 6431, 6430
6160, 6268, 6269, 6432, 6431
6161, 6269, 6270, 6433, 6432
6162, 6270, 6271, 6434, 6433
6163, 6271, 6272, 6435, 6434
6164, 6272, 6273, 6436, 6435
6165, 6273, 6274, 6437, 6436
6166, 6274, 6275, 6438, 6437
6167, 6275, 6276, 6439, 6438
6168, 6276, 6277, 6440, 6439
6169, 6277, 6278, 6441, 6440
6170, 6278, 6279, 6442, 6441
6171, 6279, 6280, 6443, 6442
6172, 6280, 6281, 6444, 6443
6173, 6283, 6282, 6445, 6446
6174, 6282, 6284, 6447, 6445
6175, 6284, 6285, 6448, 6447
6176, 6285, 6286, 6449, 6448
6177, 6286, 6287, 6450, 6449
6178, 6287, 6288, 6451, 6450
6179, 6288, 6289, 6452, 6451
6180, 6289, 6290, 6453, 6452
6181, 6290, 6291, 6454, 6453
6182, 6291, 6292, 6455, 6454
6183, 6292, 6293, 6456, 6455
6184, 6293, 6294, 6457, 6456
6185, 6294, 6295, 6458, 6457
6186, 6295, 6296, 6459, 6458
6187, 6296, 6297, 6460, 6459
6188, 6297, 6298, 6461, 6460
6189, 6298, 6299, 6462, 6461
6190, 6299, 6300, 6463, 6462
6191, 6300, 6301, 6464, 6463
6192, 6301, 6302, 6465, 6464
6193, 6302, 6303, 6466, 6465
6194, 6303, 6304, 6467, 6466
6195, 6304, 6305, 6468, 6467
6196, 6305, 6306, 6469, 6468
6197, 6306, 6307, 6470, 6469
6198, 6307, 6308, 6471, 6470
6199, 6308, 6309, 6472, 6471
6200, 6309, 6310, 6473, 6472
6201, 6310, 6311, 6474, 6473
6202, 6311, 6312, 6475, 6474
6203, 6312, 6313, 6476, 6475
6204, 6313, 6314, 6477, 6476
6205, 6314, 6315, 6478, 6477
6206, 6315, 6316, 6479, 6478
6207, 6316, 6317, 6480, 6479
6208, 6317, 6318, 6481, 6480
6209, 6318, 6319, 6482, 6481
6210, 6319, 6320, 6483, 6482
6211, 6320, 6321, 6484, 6483
6212, 6321, 6322, 6485, 6484
6213, 6322, 6323, 6486, 6485
6214, 6323, 6324, 6487, 6486
6215, 6324, 6325, 6488, 6487
6216, 6325, 6326, 6489, 6488
6217, 6326, 6327, 6490, 6489
6218, 6327, 6328, 6491, 6490
6219, 6328, 6329, 6492, 6491
6220, 6329, 6330, 6493, 6492
6221, 6330, 6331, 6494, 6493
6222, 6331, 6332, 6495, 6494
6223, 6332, 6333, 6496, 6495
6224, 6333, 6334, 6497, 6496
6225, 6334, 6335, 6498, 6497
6226, 6335, 6336, 6499, 6498
6227, 6336, 6337, 6500, 6499
6228, 6337, 6338, 6501, 6500
6229, 6338, 6339, 6502, 6501
6230, 6339, 6340, 6503, 6502
6231, 6340, 6341, 6504, 6503
6232, 6341, 6342, 6505, 6504
6233, 6342, 6343, 6506, 6505
6234, 6343, 6344, 6507, 6506
6235, 6344, 6345, 6508, 6507
6236, 6345, 6346, 6509, 6508
6237, 6346, 6347, 6510, 6509
6238, 6347, 6348, 6511, 6510
6239, 6348, 6349, 6512, 6511
6240, 6349, 6350, 6513, 6512
6241, 6350, 6351, 6514, 6513
6242, 6351, 6352, 6515, 6514
6243, 6352, 6353, 6516, 6515
6244, 6353, 6354, 6517, 6516
6245, 6354, 6355, 6518, 6517
6246, 6355, 6356, 6519, 6518
6247, 6356, 6357, 6520, 6519
6248, 6357, 6358, 6521, 6520
6249, 6358, 6359, 6522, 6521
6250, 6359, 6360, 6523, 6522
6251, 6360, 6361, 6524, 6523
6252, 6361, 6362, 6525, 6524
6253, 6362, 6363, 6526, 6525
6254, 6363, 6364, 6527, 6526
6255, 6364, 6365, 6528, 6527
6256, 6365, 6366, 6529, 6528
6257, 6366, 6367, 6530, 6529
6258, 6367, 6368, 6531, 6530
6259, 6368, 6369, 6532, 6531
6260, 6369, 6370, 6533, 6532
6261, 6370, 6371, 6534, 6533
6262, 6371, 6372, 6535, 6534
6263, 6372, 6373, 6536, 6535
6264, 6373, 6374, 6537, 6536
6265, 6374, 6375, 6538, 6537
6266, 6375, 6376, 6539, 6538
6267, 6376, 6377, 6540, 6539
6268, 6377, 6378, 6541, 6540
6269, 6378, 6379, 6542, 6541
6270, 6379, 6380, 6543, 6542
6271, 6380, 6381, 6544, 6543
6272, 6381, 6382, 6545, 6544
6273, 6382, 6383, 6546, 6545
6274, 6383, 6384, 6547, 6546
6275, 6384, 6385, 6548, 6547
6276, 6385, 6386, 6549, 6548
6277, 6386, 6387, 6550, 6549
6278, 6387, 6388, 6551, 6550
6279, 6388, 6389, 6552, 6551
6280, 6389, 6390, 6553, 6552
6281, 6390, 6391, 6554, 6553
6282, 6391, 6392, 6555, 6554
6283, 6392, 6393, 6556, 6555
6284, 6393, 6394, 6557, 6556
6285, 6394, 6395, 6558, 6557
6286, 6395, 6396, 6559, 6558
6287, 6396, 6397, 6560, 6559
6288, 6397, 6398, 6561, 6560
6289, 6398, 6399, 6562, 6561
6290, 6399, 6400, 6563, 6562
6291, 6400, 6401, 6564, 6563
6292, 6401, 6402, 6565, 6564
6293, 6402, 6403, 6566, 6565
6294, 6403, 6404, 6567, 6566
6295, 6404, 6405, 6568, 6567
6296, 6405, 6406, 6569, 6568
6297, 6406, 6407, 6570, 6569
6298, 6407, 6408, 6571, 6570
6299, 6408, 6409, 6572, 6571
6300, 6409, 6410, 6573, 6572
6301, 6410, 6411, 6574, 6573
6302, 6411, 6412, 6575, 6574
6303, 6412, 6413, 6576, 6575
6304, 6413, 6414, 6577, 6576
6305, 6414, 6415, 6578, 6577
6306, 6415, 6416, 6579, 6578
6307, 6416, 6417, 6580, 6579
6308, 6417, 6418, 6581, 6580
6309, 6418, 6419, 6582, 6581
6310, 6419, 6420, 6583, 6582
6311, 6420, 6421, 6584, 6583
6312, 6421, 6422, 6585, 6584
6313, 6422, 6423, 6586, 6585
6314, 6423, 6424, 6587, 6586
6315, 6424, 6425, 6588, 6587
6316, 6425, 6426, 6589, 6588
6317, 6426, 6427, 6590, 6589
6318, 6427, 6428, 6591, 6590
6319, 6428, 6429, 6592, 6591
6320, 6429, 6430, 6593, 6592
6321, 6430, 6431, 6594, 6593
6322, 6431, 6432, 6595, 6594
6323, 6432, 6433, 6596, 6595
6324, 6433, 6434, 6597, 6596
6325, 6434, 6435, 6598, 6597
6326, 6435, 6436, 6599, 6598
6327, 6436, 6437, 6600, 6599
6328, 6437, 6438, 6601, 6600
6329, 6438, 6439, 6602, 6601
6330, 6439, 6440, 6603, 6602
6331, 6440, 6441, 6604, 6603
6332, 6441, 6442, 6605, 6604
6333, 6442, 6443, 6606, 6605
6334, 6443, 6444, 6607, 6606
6335, 6446, 6445, 6608, 6609
6336, 6445, 6447, 6610, 6608
6337, 6447, 6448, 6611, 6610
6338, 6448, 6449, 6612, 6611
6339, 6449, 6450, 6613, 6612
6340, 6450, 6451, 6614, 6613
6341, 6451, 6452, 6615, 6614
6342, 6452, 6453, 6616, 6615
6343, 6453, 6454, 6617, 6616
6344, 6454, 6455, 6618, 6617
6345, 6455, 6456, 6619, 6618
6346, 6456, 6457, 6620, 6619
6347, 6457, 6458, 6621, 6620
6348, 6458, 6459, 6622, 6621
6349, 6459, 6460, 6623, 6622
6350, 6460, 6461, 6624, 6623
6351, 6461, 6462, 6625, 6624
6352, 6462, 6463, 6626, 6625
6353, 6463, 6464, 6627, 6626
6354, 6464, 6465, 6628, 6627
6355, 6465, 6466, 6629, 6628
6356, 6466, 6467, 6630, 6629
6357, 6467, 6468, 6631, 6630
6358, 6468, 6469, 6632, 6631
6359, 6469, 6470, 6633, 6632
6360, 6470, 6471, 6634, 6633
6361, 6471, 6472, 6635, 6634
6362, 6472, 6473, 6636, 6635
6363, 6473, 6474, 6637, 6636
6364, 6474, 6475, 6638, 6637
6365, 6475, 6476, 6639, 6638
6366, 6476, 6477, 6640, 6639
6367, 6477, 6478, 6641, 6640
6368, 6478, 6479, 6642, 6641
6369, 6479, 6480, 6643, 6642
6370, 6480, 6481, 6644, 6643
6371, 6481, 6482, 6645, 6644
6372, 6482, 6483, 6646, 6645
6373, 6483, 6484, 6647, 6646
6374, 6484, 6485, 6648, 6647
6375, 6485, 6486, 6649, 6648
6376, 6486, 6487, 6650, 6649
6377, 6487, 6488, 6651, 6650
6378, 6488, 6489, 6652, 6651
6379, 6489, 6490, 6653, 6652
6380, 6490, 6491, 6654, 6653
6381, 6491, 6492, 6655, 6654
6382, 6492, 6493, 6656, 6655
6383, 6493, 6494, 6657, 6656
6384, 6494, 6495, 6658, 6657
6385, 6495, 6496, 6659, 6658
6386, 6496, 6497, 6660, 6659
6387, 6497, 6498, 6661, 6660
6388, 6498, 6499, 6662, 6661
6389, 6499, 6500, 6663, 6662
6390, 6500, 6501, 6664, 6663
6391, 6501, 6502, 6665, 6664
6392, 6502, 6503, 6666, 6665
6393, 6503, 6504, 6667, 6666
6394, 6504, 6505, 6668, 6667
6395, 6505, 6506, 6669, 6668
6396, 6506, 6507, 6670, 6669
6397, 6507, 6508, 6671, 6670
6398, 6508, 6509, 6672, 6671
6399, 6509, 6510, 6673, 6672
6400, 6510, 6511, 6674, 6673
6401, 6511, 6512, 6675, 6674
6402, 6512, 6513, 6676, 6675
6403, 6513, 6514, 6677, 6676
6404, 6514, 6515, 6678, 6677
6405, 6515, 6516, 6679, 6678
6406, 6516, 6517, 6680, 6679
6407, 6517, 6518, 6681, 6680
6408, 6518, 6519, 6682, 6681
6409, 6519, 6520, 6683, 6682
6410, 6520, 6521, 6684, 6683
6411, 6521, 6522, 6685, 6684
6412, 6522, 6523, 6686, 6685
6413, 6523, 6524, 6687, 6686
6414, 6524, 6525, 6688, 6687
6415, 6525, 6526, 6689, 6688
6416, 6526, 6527, 6690, 6689
6417, 6527, 6528, 6691, 6690
6418, 6528, 6529, 6692, 6691
6419, 6529, 6530, 6693, 6692
6420, 6530, 6531, 6694, 6693
6421, 6531, 6532, 6695, 6694
6422, 6532, 6533, 6696, 6695
6423, 6533, 6534, 6697, 6696
6424, 6534, 6535, 6698, 6697
6425, 6535, 6536, 6699, 6698
6426, 6536, 6537, 6700, 6699
6427, 6537, 6538, 6701, 6700
6428, 6538, 6539, 6702, 6701
6429, 6539, 6540, 6703, 6702
6430, 6540, 6541, 6704, 6703
6431, 6541, 6542, 6705, 6704
6432, 6542, 6543, 6706, 6705
6433, 6543, 6544, 6707, 6706
6434, 6544, 6545, 6708, 6707
6435, 6545, 6546, 6709, 6708
6436, 6546, 6547, 6710, 6709
6437, 6547, 6548, 6711, 6710
6438, 6548, 6549, 6712, 6711
6439, 6549, 6550, 6713, 6712
6440, 6550, 6551, 6714, 6713
6441, 6551, 6552, 6715, 6714
6442, 6552, 6553, 6716, 6715
6443, 6553, 6554, 6717, 6716
6444, 6554, 6555, 6718, 6717
6445, 6555, 6556, 6719, 6718
6446, 6556, 6557, 6720, 6719
6447, 6557, 6558, 6721, 6720
6448, 6558, 6559, 6722, 6721
6449, 6559, 6560, 6723, 6722
6450, 6560, 6561, 6724, 6723
6451, 6561, 6562, 6725, 6724
6452, 6562, 6563, 6726, 6725
6453, 6563, 6564, 6727, 6726
6454, 6564, 6565, 6728, 6727
6455, 6565, 6566, 6729, 6728
6456, 6566, 6567, 6730, 6729
6457, 6567, 6568, 6731, 6730
6458, 6568, 6569, 6732, 6731
6459, 6569, 6570, 6733, 6732
6460, 6570, 6571, 6734, 6733
6461, 6571, 6572, 6735, 6734
6462, 6572, 6573, 6736, 6735
6463, 6573, 6574, 6737, 6736
6464, 6574, 6575, 6738, 6737
6465, 6575, 6576, 6739, 6738
6466, 6576, 6577, 6740, 6739
6467, 6577, 6578, 6741, 6740
6468, 6578, 6579, 6742, 6741
6469, 6579, 6580, 6743, 6742
6470, 6580, 6581, 6744, 6743
6471, 6581, 6582, 6745, 6744
6472, 6582, 6583, 6746, 6745
6473, 6583, 6584, 6747, 6746
6474, 6584, 6585, 6748, 6747
6475, 6585, 6586, 6749, 6748
6476, 6586, 6587, 6750, 6749
6477, 6587, 6588, 6751, 6750
6478, 6588, 6589, 6752, 6751
6479, 6589, 6590, 6753, 6752
6480, 6590, 6591, 6754, 6753
6481, 6591, 6592, 6755, 6754
6482, 6592, 6593, 6756, 6755
6483, 6593, 6594, 6757, 6756
6484, 6594, 6595, 6758, 6757
6485, 6595, 6596, 6759, 6758
6486, 6596, 6597, 6760, 6759
6487, 6597, 6598, 6761, 6760
6488, 6598, 6599, 6762, 6761
6489, 6599, 6600, 6763, 6762
6490, 6600, 6601, 6764, 6763
6491, 6601, 6602, 6765, 6764
6492, 6602, 6603, 6766, 6765
6493, 6603, 6604, 6767, 6766
6494, 6604, 6605, 6768, 6767
6495, 6605, 6606, 6769, 6768
6496, 6606, 6607, 6770, 6769
6497, 6609, 6608, 6771, 6772
6498, 6608, 6610, 6773, 6771
6499, 6610, 6611, 6774, 6773
6500, 6611, 6612, 6775, 6774
6501, 6612, 6613, 6776, 6775
6502, 6613, 6614, 6777, 6776
6503, 6614, 6615, 6778, 6777
6504, 6615, 6616, 6779, 6778
6505, 6616, 6617, 6780, 6779
6506, 6617, 6618, 6781, 6780
6507, 6618, 6619, 6782, 6781
6508, 6619, 6620, 6783, 6782
6509, 6620, 6621, 6784, 6783
6510, 6621, 6622, 6785, 6784
6511, 6622, 6623, 6786, 6785
6512, 6623, 6624, 6787, 6786
6513, 6624, 6625, 6788, 6787
6514, 6625, 6626, 6789, 6788
6515, 6626, 6627, 6790, 6789
6516, 6627, 6628, 6791, 6790
6517, 6628, 6629, 6792, 6791
6518, 6629, 6630, 6793, 6792
6519, 6630, 6631, 6794, 6793
6520, 6631, 6632, 6795, 6794
6521, 6632, 6633, 6796, 6795
6522, 6633, 6634, 6797, 6796
6523, 6634, 6635, 6798, 6797
6524, 6635, 6636, 6799, 6798
6525, 6636, 6637, 6800, 6799
6526, 6637, 6638, 6801, 6800
6527, 6638, 6639, 6802, 6801
6528, 6639, 6640, 6803, 6802
6529, 6640, 6641, 6804, 6803
6530, 6641, 6642, 6805, 6804
6531, 6642, 6643, 6806, 6805
6532, 6643, 6644, 6807, 6806
6533, 6644, 6645, 6808, 6807
6534, 6645, 6646, 6809, 6808
6535, 6646, 6647, 6810, 6809
6536, 6647, 6648, 6811, 6810
6537, 6648, 6649, 6812, 6811
6538, 6649, 6650, 6813, 6812
6539, 6650, 6651, 6814, 6813
6540, 6651, 6652, 6815, 6814
6541, 6652, 6653, 6816, 6815
6542, 6653, 6654, 6817, 6816
6543, 6654, 6655, 6818, 6817
6544, 6655, 6656, 6819, 6818
6545, 6656, 6657, 6820, 6819
6546, 6657, 6658, 6821, 6820
6547, 6658, 6659, 6822, 6821
6548, 6659, 6660, 6823, 6822
6549, 6660, 6661, 6824, 6823
6550, 6661, 6662, 6825, 6824
6551, 6662, 6663, 6826, 6825
6552, 6663, 6664, 6827, 6826
6553, 6664, 6665, 6828, 6827
6554, 6665, 6666, 6829, 6828
6555, 6666, 6667, 6830, 6829
6556, 6667, 6668, 6831, 6830
6557, 6668, 6669, 6832, 6831
6558, 6669, 6670, 6833, 6832
6559, 6670, 6671, 6834, 6833
6560, 6671, 6672, 6835, 6834
6561, 6672, 6673, 6836, 6835
6562, 6673, 6674, 6837, 6836
6563, 6674, 6675, 6838, 6837
6564, 6675, 6676, 6839, 6838
6565, 6676, 6677, 6840, 6839
6566, 6677, 6678, 6841, 6840
6567, 6678, 6679, 6842, 6841
6568, 6679, 6680, 6843, 6842
6569, 6680, 6681, 6844, 6843
6570, 6681, 6682, 6845, 6844
6571, 6682, 6683, 6846, 6845
6572, 6683, 6684, 6847, 6846
6573, 6684, 6685, 6848, 6847
6574, 6685, 6686, 6849, 6848
6575, 6686, 6687, 6850, 6849
6576, 6687, 6688, 6851, 6850
6577, 6688, 6689, 6852, 6851
6578, 6689, 6690, 6853, 6852
6579, 6690, 6691, 6854, 6853
6580, 6691, 6692, 6855, 6854
6581, 6692, 6693, 6856, 6855
6582, 6693, 6694, 6857, 6856
6583, 6694, 6695, 6858, 6857
6584, 6695, 6696, 6859, 6858
6585, 6696, 6697, 6860, 6859
6586, 6697, 6698, 6861, 6860
6587, 6698, 6699, 6862, 6861
6588, 6699, 6700, 6863, 6862
6589, 6700, 6701, 6864, 6863
6590, 6701, 6702, 6865, 6864
6591, 6702, 6703, 6866, 6865
6592, 6703, 6704, 6867, 6866
6593, 6704, 6705, 6868, 6867
6594, 6705, 6706, 6869, 6868
6595, 6706, 6707, 6870, 6869
6596, 6707, 6708, 6871, 6870
6597, 6708, 6709, 6872, 6871
6598, 6709, 6710, 6873, 6872
6599, 6710, 6711, 6874, 6873
6600, 6711, 6712, 6875, 6874
6601, 6712, 6713, 6876, 6875
6602, 6713, 6714, 6877, 6876
6603, 6714, 6715, 6878, 6877
6604, 6715, 6716, 6879, 6878
6605, 6716, 6717, 6880, 6879
6606, 6717, 6718, 6881, 6880
6607, 6718, 6719, 6882, 6881
6608, 6719, 6720, 6883, 6882
6609, 6720, 6721, 6884, 6883
6610, 6721, 6722, 6885, 6884
6611, 6722, 6723, 6886, 6885
6612, 6723, 6724, 6887, 6886
6613, 6724, 6725, 6888, 6887
6614, 6725, 6726, 6889, 6888
6615, 6726, 6727, 6890, 6889
6616, 6727, 6728, 6891, 6890
6617, 6728, 6729, 6892, 6891
6618, 6729, 6730, 6893, 6892
6619, 6730, 6731, 6894, 6893
6620, 6731, 6732, 6895, 6894
6621, 6732, 6733, 6896, 6895
6622, 6733, 6734, 6897, 6896
6623, 6734, 6735, 6898, 6897
6624, 6735, 6736, 6899, 6898
6625, 6736, 6737, 6900, 6899
6626, 6737, 6738, 6901, 6900
6627, 6738, 6739, 6902, 6901
6628, 6739, 6740, 6903, 6902
6629, 6740, 6741, 6904, 6903
6630, 6741, 6742, 6905, 6904
6631, 6742, 6743, 6906, 6905
6632, 6743, 6744, 6907, 6906
6633, 6744, 6745, 6908, 6907
6634, 6745, 6746, 6909, 6908
6635, 6746, 6747, 6910, 6909
6636, 6747, 6748, 6911, 6910
6637, 6748, 6749, 6912, 6911
6638, 6749, 6750, 6913, 6912
6639, 6750, 6751, 6914, 6913
6640, 6751, 6752, 6915, 6914
6641, 6752, 6753, 6916, 6915
6642, 6753, 6754, 6917, 6916
6643, 6754, 6755, 6918, 6917
6644, 6755, 6756, 6919, 6918
6645, 6756, 6757, 6920, 6919
6646, 6757, 6758, 6921, 6920
6647, 6758, 6759, 6922, 6921
6648, 6759, 6760, 6923, 6922
6649, 6760, 6761, 6924, 6923
6650, 6761, 6762, 6925, 6924
6651, 6762, 6763, 6926, 6925
6652, 6763, 6764, 6927, 6926
6653, 6764, 6765, 6928, 6927
6654, 6765, 6766, 6929, 6928
6655, 6766, 6767, 6930, 6929
6656, 6767, 6768, 6931, 6930
6657, 6768, 6769, 6932, 6931
6658, 6769, 6770, 6933, 6932
6659, 6772, 6771, 6934, 6935
6660, 6771, 6773, 6936, 6934
6661, 6773, 6774, 6937, 6936
6662, 6774, 6775, 6938, 6937
6663, 6775, 6776, 6939, 6938
6664, 6776, 6777, 6940, 6939
6665, 6777, 6778, 6941, 6940
6666, 6778, 6779, 6942, 6941
6667, 6779, 6780, 6943, 6942
6668, 6780, 6781, 6944, 6943
6669, 6781, 6782, 6945, 6944
6670, 6782, 6783, 6946, 6945
6671, 6783, 6784, 6947, 6946
6672, 6784, 6785, 6948, 6947
6673, 6785, 6786, 6949, 6948
6674, 6786, 6787, 6950, 6949
6675, 6787, 6788, 6951, 6950
6676, 6788, 6789, 6952, 6951
6677, 6789, 6790, 6953, 6952
6678, 6790, 6791, 6954, 6953
6679, 6791, 6792, 6955, 6954
6680, 6792, 6793, 6956, 6955
6681, 6793, 6794, 6957, 6956
6682, 6794, 6795, 6958, 6957
6683, 6795, 6796, 6959, 6958
6684, 6796, 6797, 6960, 6959
6685, 6797, 6798, 6961, 6960
6686, 6798, 6799, 6962, 6961
6687, 6799, 6800, 6963, 6962
6688, 6800, 6801, 6964, 6963
6689, 6801, 6802, 6965, 6964
6690, 6802, 6803, 6966, 6965
6691, 6803, 6804, 6967, 6966
6692, 6804, 6805, 6968, 6967
6693, 6805, 6806, 6969, 6968
6694, 6806, 6807, 6970, 6969
6695, 6807, 6808, 6971, 6970
6696, 6808, 6809, 6972, 6971
6697, 6809, 6810, 6973, 6972
6698, 6810, 6811, 6974, 6973
6699, 6811, 6812, 6975, 6974
6700, 6812, 6813, 6976, 6975
6701, 6813, 6814, 6977, 6976
6702, 6814, 6815, 6978, 6977
6703, 6815, 6816, 6979, 6978
6704, 6816, 6817, 6980, 6979
6705, 6817, 6818, 6981, 6980
6706, 6818, 6819, 6982, 6981
6707, 6819, 6820, 6983, 6982
6708, 6820, 6821, 6984, 6983
6709, 6821, 6822, 6985, 6984
6710, 6822, 6823, 6986, 6985
6711, 6823, 6824, 6987, 6986
6712, 6824, 6825, 6988, 6987
6713, 6825, 6826, 6989, 6988
6714, 6826, 6827, 6990, 6989
6715, 6827, 6828, 6991, 6990
6716, 6828, 6829, 6992, 6991
6717, 6829, 6830, 6993, 6992
6718, 6830, 6831, 6994, 6993
6719, 6831, 6832, 6995, 6994
6720, 6832, 6833, 6996, 6995
6721, 6833, 6834, 6997, 6996
6722, 6834, 6835, 6998, 6997
6723, 6835, 6836, 6999, 6998
6724, 6836, 6837, 7000, 6999
6725, 6837, 6838, 7001, 7000
6726, 6838, 6839, 7002, 7001
6727, 6839, 6840, 7003, 7002
6728, 6840, 6841, 7004, 7003
6729, 6841, 6842, 7005, 7004
6730, 6842, 6843, 7006, 7005
6731, 6843, 6844, 7007, 7006
6732, 6844, 6845, 7008, 7007
6733, 6845, 6846, 7009, 7008
6734, 6846, 6847, 7010, 7009
6735, 6847, 6848, 7011, 7010
6736, 6848, 6849, 7012, 7011
6737, 6849, 6850, 7013, 7012
6738, 6850, 6851, 7014, 7013
6739, 6851, 6852, 7015, 7014
6740, 6852, 6853, 7016, 7015
6741, 6853, 6854, 7017, 7016
6742, 6854, 6855, 7018, 7017
6743, 6855, 6856, 7019, 7018
6744, 6856, 6857, 7020, 7019
6745, 6857, 6858, 7021, 7020
6746, 6858, 6859, 7022, 7021
6747, 6859, 6860, 7023, 7022
6748, 6860, 6861, 7024, 7023
6749, 6861, 6862, 7025, 7024
6750, 6862, 6863, 7026, 7025
6751, 6863, 6864, 7027, 7026
6752, 6864, 6865, 7028, 7027
6753, 6865, 6866, 7029, 7028
6754, 6866, 6867, 7030, 7029
6755, 6867, 6868, 7031, 7030
6756, 6868, 6869, 7032, 7031
6757, 6869, 6870, 7033, 7032
6758, 6870, 6871, 7034, 7033
6759, 6871, 6872, 7035, 7034
6760, 6872, 6873, 7036, 7035
6761, 6873, 6874, 7037, 7036
6762, 6874, 6875, 7038, 7037
6763, 6875, 6876, 7039, 7038
6764, 6876, 6877, 7040, 7039
6765, 6877, 6878, 7041, 7040
6766, 6878, 6879, 7042, 7041
6767, 6879, 6880, 7043, 7042
6768, 6880, 6881, 7044, 7043
6769, 6881, 6882, 7045, 7044
6770, 6882, 6883, 7046, 7045
6771, 6883, 6884, 7047, 7046
6772, 6884, 6885, 7048, 7047
6773, 6885, 6886, 7049, 7048
6774, 6886, 6887, 7050, 7049
6775, 6887, 6888, 7051, 7050
6776, 6888, 6889, 7052, 7051
6777, 6889, 6890, 7053, 7052
6778, 6890, 6891, 7054, 7053
6779, 6891, 6892, 7055, 7054
6780, 6892, 6893, 7056, 7055
6781, 6893, 6894, 7057, 7056
6782, 6894, 6895, 7058, 7057
6783, 6895, 6896, 7059, 7058
6784, 6896, 6897, 7060, 7059
6785, 6897, 6898, 7061, 7060
6786, 6898, 6899, 7062, 7061
6787, 6899, 6900, 7063, 7062
6788, 6900, 6901, 7064, 7063
6789, 6901, 6902, 7065, 7064
6790, 6902, 6903, 7066, 7065
6791, 6903, 6904, 7067, 7066
6792, 6904, 6905, 7068, 7067
6793, 6905, 6906, 7069, 7068
6794, 6906, 6907, 7070, 7069
6795, 6907, 6908, 7071, 7070
6796, 6908, 6909, 7072, 7071
6797, 6909, 6910, 7073, 7072
6798, 6910, 6911, 7074, 7073
6799, 6911, 6912, 7075, 7074
6800, 6912, 6913, 7076, 7075
6801, 6913, 6914, 7077, 7076
6802, 6914, 6915, 7078, 7077
6803, 6915, 6916, 7079, 7078
6804, 6916, 6917, 7080, 7079
6805, 6917, 6918, 7081, 7080
6806, 6918, 6919, 7082, 7081
6807, 6919, 6920, 7083, 7082
6808, 6920, 6921, 7084, 7083
6809, 6921, 6922, 7085, 7084
6810, 6922, 6923, 7086, 7085
6811, 6923, 6924, 7087, 7086
6812, 6924, 6925, 7088, 7087
6813, 6925, 6926, 7089, 7088
6814, 6926, 6927, 7090, 7089
6815, 6927, 6928, 7091, 7090
6816, 6928, 6929, 7092, 7091
6817, 6929, 6930, 7093, 7092
6818, 6930, 6931, 7094, 7093
6819, 6931, 6932, 7095, 7094
6820, 6932, 6933, 7096, 7095
6821, 6935, 6934, 7097, 7098
6822, 6934, 6936, 7099, 7097
6823, 6936, 6937, 7100, 7099
6824, 6937, 6938, 7101, 7100
6825, 6938, 6939, 7102, 7101
6826, 6939, 6940, 7103, 7102
6827, 6940, 6941, 7104, 7103
6828, 6941, 6942, 7105, 7104
6829, 6942, 6943, 7106, 7105
6830, 6943, 6944, 7107, 7106
6831, 6944, 6945, 7108, 7107
6832, 6945, 6946, 7109, 7108
6833, 6946, 6947, 7110, 7109
6834, 6947, 6948, 7111, 7110
6835, 6948, 6949, 7112, 7111
6836, 6949, 6950, 7113, 7112
6837, 6950, 6951, 7114, 7113
6838, 6951, 6952, 7115, 7114
6839, 6952, 6953, 7116, 7115
6840, 6953, 6954, 7117, 7116
6841, 6954, 6955, 7118, 7117
6842, 6955, 6956, 7119, 7118
6843, 6956, 6957, 7120, 7119
6844, 6957, 6958, 7121, 7120
6845, 6958, 6959, 7122, 7121
6846, 6959, 6960, 7123, 7122
6847, 6960, 6961, 7124, 7123
6848, 6961, 6962, 7125, 7124
6849, 6962, 6963, 7126, 7125
6850, 6963, 6964, 7127, 7126
6851, 6964, 6965, 7128, 7127
6852, 6965, 6966, 7129, 7128
6853, 6966, 6967, 7130, 7129
6854, 6967, 6968, 7131, 7130
6855, 6968, 6969, 7132, 7131
6856, 6969, 6970, 7133, 7132
6857, 6970, 6971, 7134, 7133
6858, 6971, 6972, 7135, 7134
6859, 6972, 6973, 7136, 7135
6860, 6973, 6974, 7137, 7136
6861, 6974, 6975, 7138, 7137
6862, 6975, 6976, 7139, 7138
6863, 6976, 6977, 7140, 7139
6864, 6977, 6978, 7141, 7140
6865, 6978, 6979, 7142, 7141
6866, 6979, 6980, 7143, 7142
6867, 6980, 6981, 7144, 7143
6868, 6981, 6982, 7145, 7144
6869, 6982, 6983, 7146, 7145
6870, 6983, 6984, 7147, 7146
6871, 6984, 6985, 7148, 7147
6872, 6985, 6986, 7149, 7148
6873, 6986, 6987, 7150, 7149
6874, 6987, 6988, 7151, 7150
6875, 6988, 6989, 7152, 7151
6876, 6989, 6990, 7153, 7152
6877, 6990, 6991, 7154, 7153
6878, 6991, 6992, 7155, 7154
6879, 6992, 6993, 7156, 7155
6880, 6993, 6994, 7157, 7156
6881, 6994, 6995, 7158, 7157
6882, 6995, 6996, 7159, 7158
6883, 6996, 6997, 7160, 7159
6884, 6997, 6998, 7161, 7160
6885, 6998, 6999, 7162, 7161
6886, 6999, 7000, 7163, 7162
6887, 7000, 7001, 7164, 7163
6888, 7001, 7002, 7165, 7164
6889, 7002, 7003, 7166, 7165
6890, 7003, 7004, 7167, 7166
6891, 7004, 7005, 7168, 7167
6892, 7005, 7006, 7169, 7168
6893, 7006, 7007, 7170, 7169
6894, 7007, 7008, 7171, 7170
6895, 7008, 7009, 7172, 7171
6896, 7009, 7010, 7173, 7172
6897, 7010, 7011, 7174, 7173
6898, 7011, 7012, 7175, 7174
6899, 7012, 7013, 7176, 7175
6900, 7013, 7014, 7177, 7176
6901, 7014, 7015, 7178, 7177
6902, 7015, 7016, 7179, 7178
6903, 7016, 7017, 7180, 7179
6904, 7017, 7018, 7181, 7180
6905, 7018, 7019, 7182, 7181
6906, 7019, 7020, 7183, 7182
6907, 7020, 7021, 7184, 7183
6908, 7021, 7022, 7185, 7184
6909, 7022, 7023, 7186, 7185
6910, 7023, 7024, 7187, 7186
6911, 7024, 7025, 7188, 7187
6912, 7025, 7026, 7189, 7188
6913, 7026, 7027, 7190, 7189
6914, 7027, 7028, 7191, 7190
6915, 7028, 7029, 7192, 7191
6916, 7029, 7030, 7193, 7192
6917, 7030, 7031, 7194, 7193
6918, 7031, 7032, 7195, 7194
6919, 7032, 7033, 7196, 7195
6920, 7033, 7034, 7197, 7196
6921, 7034, 7035, 7198, 7197
6922, 7035, 7036, 7199, 7198
6923, 7036, 7037, 7200, 7199
6924, 7037, 7038, 7201, 7200
6925, 7038, 7039, 7202, 7201
6926, 7039, 7040, 7203, 7202
6927, 7040, 7041, 7204, 7203
6928, 7041, 7042, 7205, 7204
6929, 7042, 7043, 7206, 7205
6930, 7043, 7044, 7207, 7206
6931, 7044, 7045, 7208, 7207
6932, 7045, 7046, 7209, 7208
6933, 7046, 7047, 7210, 7209
6934, 7047, 7048, 7211, 7210
6935, 7048, 7049, 7212, 7211
6936, 7049, 7050, 7213, 7212
6937, 7050, 7051, 7214, 7213
6938, 7051, 7052, 7215, 7214
6939, 7052, 7053, 7216, 7215
6940, 7053, 7054, 7217, 7216
6941, 7054, 7055, 7218, 7217
6942, 7055, 7056, 7219, 7218
6943, 7056, 7057, 7220, 7219
6944, 7057, 7058, 7221, 7220
6945, 7058, 7059, 7222, 7221
6946, 7059, 7060, 7223, 7222
6947, 7060, 7061, 7224, 7223
6948, 7061, 7062, 7225, 7224
6949, 7062, 7063, 7226, 7225
6950, 7063, 7064, 7227, 7226
6951, 7064, 7065, 7228, 7227
6952, 7065, 7066, 7229, 7228
6953, 7066, 7067, 7230, 7229
6954, 7067, 7068, 7231, 7230
6955, 7068, 7069, 7232, 7231
6956, 7069, 7070, 7233, 7232
6957, 7070, 7071, 7234, 7233
6958, 7071, 7072, 7235, 7234
6959, 7072, 7073, 7236, 7235
6960, 7073, 7074, 7237, 7236
6961, 7074, 7075, 7238, 7237
6962, 7075, 7076, 7239, 7238
6963, 7076, 7077, 7240, 7239
6964, 7077, 7078, 7241, 7240
6965, 7078, 7079, 7242, 7241
6966, 7079, 7080, 7243, 7242
6967, 7080, 7081, 7244, 7243
6968, 7081, 7082, 7245, 7244
6969, 7082, 7083, 7246, 7245
6970, 7083, 7084, 7247, 7246
6971, 7084, 7085, 7248, 7247
6972, 7085, 7086, 7249, 7248
6973, 7086, 7087, 7250, 7249
6974, 7087, 7088, 7251, 7250
6975, 7088, 7089, 7252, 7251
6976, 7089, 7090, 7253, 7252
6977, 7090, 7091, 7254, 7253
6978, 7091, 7092, 7255, 7254
6979, 7092, 7093, 7256, 7255
6980, 7093, 7094, 7257, 7256
6981, 7094, 7095, 7258, 7257
6982, 7095, 7096, 7259, 7258
6983, 7098, 7097, 7260, 7261
6984, 7097, 7099, 7262, 7260
6985, 7099, 7100, 7263, 7262
6986, 7260, 7262, 7263, 7261
6987, 7100, 7101, 7264, 7263
6988, 7101, 7102, 7265, 7264
6989, 7102, 7103, 7266, 7265
6990, 7264, 7265, 7266, 7263
6991, 7103, 7104, 7267, 7266
6992, 7104, 7105, 7268, 7267
6993, 7105, 7106, 7269, 7268
6994, 7267, 7268, 7269, 7266
6995, 7106, 7107, 7270, 7269
6996, 7107, 7108, 7271, 7270
6997, 7108, 7109, 7272, 7271
6998, 7270, 7271, 7272, 7269
6999, 7109, 7110, 7273, 7272
7000, 7110, 7111, 7274, 7273
7001, 7111, 7112, 7275, 7274
7002, 7273, 7274, 7275, 7272
7003, 7112, 7113, 7276, 7275
7004, 7113, 7114, 7277, 7276
7005, 7114, 7115, 7278, 7277
7006, 7276, 7277, 7278, 7275
7007, 7115, 7116, 7279, 7278
7008, 7116, 7117, 7280, 7279
7009, 7117, 7118, 7281, 7280
7010, 7279, 7280, 7281, 7278
7011, 7118, 7119, 7282, 7281
7012, 7119, 7120, 7283, 7282
7013, 7120, 7121, 7284, 7283
7014, 7282, 7283, 7284, 7281
7015, 7121, 7122, 7285, 7284
7016, 7122, 7123, 7286, 7285
7017, 7123, 7124, 7287, 7286
7018, 7285, 7286, 7287, 7284
7019, 7124, 7125, 7288, 7287
7020, 7125, 7126, 7289, 7288
7021, 7126, 7127, 7290, 7289
7022, 7288, 7289, 7290, 7287
7023, 7127, 7128, 7291, 7290
7024, 7128, 7129, 7292, 7291
7025, 7129, 7130, 7293, 7292
7026, 7291, 7292, 7293, 7290
7027, 7130, 7131, 7294, 7293
7028, 7131, 7132, 7295, 7294
7029, 7132, 7133, 7296, 7295
7030, 7294, 7295, 7296, 7293
7031, 7133, 7134, 7297, 7296
7032, 7134, 7135, 7298, 7297
7033, 7135, 7136, 7299, 7298
7034, 7297, 7298, 7299, 7296
7035, 7136, 7137, 7300, 7299
7036, 7137, 7138, 7301, 7300
7037, 7138, 7139, 7302, 7301
7038, 7300, 7301, 7302, 7299
7039, 7139, 7140, 7303, 7302
7040, 7140, 7141, 7304, 7303
7041, 7141, 7142, 7305, 7304
7042, 7303, 7304, 7305, 7302
7043, 7142, 7143, 7306, 7305
7044, 7143, 7144, 7307, 7306
7045, 7144, 7145, 7308, 7307
7046, 7306, 7307, 7308, 7305
7047, 7145, 7146, 7309, 7308
7048, 7146, 7147, 7310, 7309
7049, 7147, 7148, 7311, 7310
7050, 7309, 7310, 7311, 7308
7051, 7148, 7149, 7312, 7311
7052, 7149, 7150, 7313, 7312
7053, 7150, 7151, 7314, 7313
7054, 7312, 7313, 7314, 7311
7055, 7151, 7152, 7315, 7314
7056, 7152, 7153, 7316, 7315
7057, 7153, 7154, 7317, 7316
7058, 7315, 7316, 7317, 7314
7059, 7154, 7155, 7318, 7317
7060, 7155, 7156, 7319, 7318
7061, 7156, 7157, 7320, 7319
7062, 7318, 7319, 7320, 7317
7063, 7157, 7158, 7321, 7320
7064, 7158, 7159, 7322, 7321
7065, 7159, 7160, 7323, 7322
7066, 7321, 7322, 7323, 7320
7067, 7160, 7161, 7324, 7323
7068, 7161, 7162, 7325, 7324
7069, 7162, 7163, 7326, 7325
7070, 7324, 7325, 7326, 7323
7071, 7163, 7164, 7327, 7326
7072, 7164, 7165, 7328, 7327
7073, 7165, 7166, 7329, 7328
7074, 7327, 7328, 7329, 7326
7075, 7166, 7167, 7330, 7329
7076, 7167, 7168, 7331, 7330
7077, 7168, 7169, 7332, 7331
7078, 7330, 7331, 7332, 7329
7079, 7169, 7170, 7333, 7332
7080, 7170, 7171, 7334, 7333
7081, 7171, 7172, 7335, 7334
7082, 7333, 7334, 7335, 7332
7083, 7172, 7173, 7336, 7335
7084, 7173, 7174, 7337, 7336
7085, 7174, 7175, 7338, 7337
7086, 7336, 7337, 7338, 7335
7087, 7175, 7176, 7339, 7338
7088, 7176, 7177, 7340, 7339
7089, 7177, 7178, 7341, 7340
7090, 7339, 7340, 7341, 7338
7091, 7178, 7179, 7342, 7341
7092, 7179, 7180, 7343, 7342
7093, 7180, 7181, 7344, 7343
7094, 7342, 7343, 7344, 7341
7095, 7181, 7182, 7345, 7344
7096, 7182, 7183, 7346, 7345
7097, 7183, 7184, 7347, 7346
7098, 7345, 7346, 7347, 7344
7099, 7184, 7185, 7348, 7347
7100, 7185, 7186, 7349, 7348
7101, 7186, 7187, 7350, 7349
7102, 7348, 7349, 7350, 7347
7103, 7187, 7188, 7351, 7350
7104, 7188, 7189, 7352, 7351
7105, 7189, 7190, 7353, 7352
7106, 7351, 7352, 7353, 7350
7107, 7190, 7191, 7354, 7353
7108, 7191, 7192, 7355, 7354
7109, 7192, 7193, 7356, 7355
7110, 7354, 7355, 7356, 7353
7111, 7193, 7194, 7357, 7356
7112, 7194, 7195, 7358, 7357
7113, 7195, 7196, 7359, 7358
7114, 7357, 7358, 7359, 7356
7115, 7196, 7197, 7360, 7359
7116, 7197, 7198, 7361, 7360
7117, 7198, 7199, 7362, 7361
7118, 7360, 7361, 7362, 7359
7119, 7199, 7200, 7363, 7362
7120, 7200, 7201, 7364, 7363
7121, 7201, 7202, 7365, 7364
7122, 7363, 7364, 7365, 7362
7123, 7202, 7203, 7366, 7365
7124, 7203, 7204, 7367, 7366
7125, 7204, 7205, 7368, 7367
7126, 7366, 7367, 7368, 7365
7127, 7205, 7206, 7369, 7368
7128, 7206, 7207, 7370, 7369
7129, 7207, 7208, 7371, 7370
7130, 7369, 7370, 7371, 7368
7131, 7208, 7209, 7372, 7371
7132, 7209, 7210, 7373, 7372
7133, 7210, 7211, 7374, 7373
7134, 7372, 7373, 7374, 7371
7135, 7211, 7212, 7375, 7374
7136, 7212, 7213, 7376, 7375
7137, 7213, 7214, 7377, 7376
7138, 7375, 7376, 7377, 7374
7139, 7214, 7215, 7378, 7377
7140, 7215, 7216, 7379, 7378
7141, 7216, 7217, 7380, 7379
7142, 7378, 7379, 7380, 7377
7143, 7217, 7218, 7381, 7380
7144, 7218, 7219, 7382, 7381
7145, 7219, 7220, 7383, 7382
7146, 7381, 7382, 7383, 7380
7147, 7220, 7221, 7384, 7383
7148, 7221, 7222, 7385, 7384
7149, 7222, 7223, 7386, 7385
7150, 7384, 7385, 7386, 7383
7151, 7223, 7224, 7387, 7386
7152, 7224, 7225, 7388, 7387
7153, 7225, 7226, 7389, 7388
7154, 7387, 7388, 7389, 7386
7155, 7226, 7227, 7390, 7389
7156, 7227, 7228, 7391, 7390
7157, 7228, 7229, 7392, 7391
7158, 7390, 7391, 7392, 7389
7159, 7229, 7230, 7393, 7392
7160, 7230, 7231, 7394, 7393
7161, 7231, 7232, 7395, 7394
7162, 7393, 7394, 7395, 7392
7163, 7232, 7233, 7396, 7395
7164, 7233, 7234, 7397, 7396
7165, 7234, 7235, 7398, 7397
7166, 7396, 7397, 7398, 7395
7167, 7235, 7236, 7399, 7398
7168, 7236, 7237, 7400, 7399
7169, 7237, 7238, 7401, 7400
7170, 7399, 7400, 7401, 7398
7171, 7238, 7239, 7402, 7401
7172, 7239, 7240, 7403, 7402
7173, 7240, 7241, 7404, 7403
7174, 7402, 7403, 7404, 7401
7175, 7241, 7242, 7405, 7404
7176, 7242, 7243, 7406, 7405
7177, 7243, 7244, 7407, 7406
7178, 7405, 7406, 7407, 7404
7179, 7244, 7245, 7408, 7407
7180, 7245, 7246, 7409, 7408
7181, 7246, 7247, 7410, 7409
7182, 7408, 7409, 7410, 7407
7183, 7247, 7248, 7411, 7410
7184, 7248, 7249, 7412, 7411
7185, 7249, 7250, 7413, 7412
7186, 7411, 7412, 7413, 7410
7187, 7250, 7251, 7414, 7413
7188, 7251, 7252, 7415, 7414
7189, 7252, 7253, 7416, 7415
7190, 7414, 7415, 7416, 7413
7191, 7253, 7254, 7417, 7416
7192, 7254, 7255, 7418, 7417
7193, 7255, 7256, 7419, 7418
7194, 7417, 7418, 7419, 7416
7195, 7256, 7257, 7420, 7419
7196, 7257, 7258, 7421, 7420
7197, 7258, 7259, 7422, 7421
7198, 7420, 7421, 7422, 7419
7199, 7261, 7263, 7423, 7424
7200, 7263, 7266, 7425, 7423
7201, 7266, 7269, 7426, 7425
7202, 7269, 7272, 7427, 7426
7203, 7272, 7275, 7428, 7427
7204, 7275, 7278, 7429, 7428
7205, 7278, 7281, 7430, 7429
7206, 7281, 7284, 7431, 7430
7207, 7284, 7287, 7432, 7431
7208, 7287, 7290, 7433, 7432
7209, 7290, 7293, 7434, 7433
7210, 7293, 7296, 7435, 7434
7211, 7296, 7299, 7436, 7435
7212, 7299, 7302, 7437, 7436
7213, 7302, 7305, 7438, 7437
7214, 7305, 7308, 7439, 7438
7215, 7308, 7311, 7440, 7439
7216, 7311, 7314, 7441, 7440
7217, 7314, 7317, 7442, 7441
7218, 7317, 7320, 7443, 7442
7219, 7320, 7323, 7444, 7443
7220, 7323, 7326, 7445, 7444
7221, 7326, 7329, 7446, 7445
7222, 7329, 7332, 7447, 7446
7223, 7332, 7335, 7448, 7447
7224, 7335, 7338, 7449, 7448
7225, 7338, 7341, 7450, 7449
7226, 7341, 7344, 7451, 7450
7227, 7344, 7347, 7452, 7451
7228, 7347, 7350, 7453, 7452
7229, 7350, 7353, 7454, 7453
7230, 7353, 7356, 7455, 7454
7231, 7356, 7359, 7456, 7455
7232, 7359, 7362, 7457, 7456
7233, 7362, 7365, 7458, 7457
7234, 7365, 7368, 7459, 7458
7235, 7368, 7371, 7460, 7459
7236, 7371, 7374, 7461, 7460
7237, 7374, 7377, 7462, 7461
7238, 7377, 7380, 7463, 7462
7239, 7380, 7383, 7464, 7463
7240, 7383, 7386, 7465, 7464
7241, 7386, 7389, 7466, 7465
7242, 7389, 7392, 7467, 7466
7243, 7392, 7395, 7468, 7467
7244, 7395, 7398, 7469, 7468
7245, 7398, 7401, 7470, 7469
7246, 7401, 7404, 7471, 7470
7247, 7404, 7407, 7472, 7471
7248, 7407, 7410, 7473, 7472
7249, 7410, 7413, 7474, 7473
7250, 7413, 7416, 7475, 7474
7251, 7416, 7419, 7476, 7475
7252, 7419, 7422, 7477, 7476
7253, 7424, 7423, 7478, 7479
7254, 7423, 7425, 7480, 7478
7255, 7425, 7426, 7481, 7480
7256, 7426, 7427, 7482, 7481
7257, 7427, 7428, 7483, 7482
7258, 7428, 7429, 7484, 7483
7259, 7429, 7430, 7485, 7484
7260, 7430, 7431, 7486, 7485
7261, 7431, 7432, 7487, 7486
7262, 7432, 7433, 7488, 7487
7263, 7433, 7434, 7489, 7488
7264, 7434, 7435, 7490, 7489
7265, 7435, 7436, 7491, 7490
7266, 7436, 7437, 7492, 7491
7267, 7437, 7438, 7493, 7492
7268, 7438, 7439, 7494, 7493
7269, 7439, 7440, 7495, 7494
7270, 7440, 7441, 7496, 7495
7271, 7441, 7442, 7497, 7496
7272, 7442, 7443, 7498, 7497
7273, 7443, 7444, 7499, 7498
7274, 7444, 7445, 7500, 7499
7275, 7445, 7446, 7501, 7500
7276, 7446, 7447, 7502, 7501
7277, 7447, 7448, 7503, 7502
7278, 7448, 7449, 7504, 7503
7279, 7449, 7450, 7505, 7504
7280, 7450, 7451, 7506, 7505
7281, 7451, 7452, 7507, 7506
7282, 7452, 7453, 7508, 7507
7283, 7453, 7454, 7509, 7508
7284, 7454, 7455, 7510, 7509
7285, 7455, 7456, 7511, 7510
7286, 7456, 7457, 7512, 7511
7287, 7457, 7458, 7513, 7512
7288, 7458, 7459, 7514, 7513
7289, 7459, 7460, 7515, 7514
7290, 7460, 7461, 7516, 7515
7291, 7461, 7462, 7517, 7516
7292, 7462, 7463, 7518, 7517
7293, 7463, 7464, 7519, 7518
7294, 7464, 7465, 7520, 7519
7295, 7465, 7466, 7521, 7520
7296, 7466, 7467, 7522, 7521
7297, 7467, 7468, 7523, 7522
7298, 7468, 7469, 7524, 7523
7299, 7469, 7470, 7525, 7524
7300, 7470, 7471, 7526, 7525
7301, 7471, 7472, 7527, 7526
7302, 7472, 7473, 7528, 7527
7303, 7473, 7474, 7529, 7528
7304, 7474, 7475, 7530, 7529
7305, 7475, 7476, 7531, 7530
7306, 7476, 7477, 7532, 7531
7307, 7479, 7478, 7533, 7534
7308, 7478, 7480, 7535, 7533
7309, 7480, 7481, 7536, 7535
7310, 7481, 7482, 7537, 7536
7311, 7482, 7483, 7538, 7537
7312, 7483, 7484, 7539, 7538
7313, 7484, 7485, 7540, 7539
7314, 7485, 7486, 7541, 7540
7315, 7486, 7487, 7542, 7541
7316, 7487, 7488, 7543, 7542
7317, 7488, 7489, 7544, 7543
7318, 7489, 7490, 7545, 7544
7319, 7490, 7491, 7546, 7545
7320, 7491, 7492, 7547, 7546
7321, 7492, 7493, 7548, 7547
7322, 7493, 7494, 7549, 7548
7323, 7494, 7495, 7550, 7549
7324, 7495, 7496, 7551, 7550
7325, 7496, 7497, 7552, 7551
7326, 7497, 7498, 7553, 7552
7327, 7498, 7499, 7554, 7553
7328, 7499, 7500, 7555, 7554
7329, 7500, 7501, 7556, 7555
7330, 7501, 7502, 7557, 7556
7331, 7502, 7503, 7558, 7557
7332, 7503, 7504, 7559, 7558
7333, 7504, 7505, 7560, 7559
7334, 7505, 7506, 7561, 7560
7335, 7506, 7507, 7562, 7561
7336, 7507, 7508, 7563, 7562
7337, 7508, 7509, 7564, 7563
7338, 7509, 7510, 7565, 7564
7339, 7510, 7511, 7566, 7565
7340, 7511, 7512, 7567, 7566
7341, 7512, 7513, 7568, 7567
7342, 7513, 7514, 7569, 7568
7343, 7514, 7515, 7570, 7569
7344, 7515, 7516, 7571, 7570
7345, 7516, 7517, 7572, 7571
7346, 7517, 7518, 7573, 7572
7347, 7518, 7519, 7574, 7573
7348, 7519, 7520, 7575, 7574
7349, 7520, 7521, 7576, 7575
7350, 7521, 7522, 7577, 7576
7351, 7522, 7523, 7578, 7577
7352, 7523, 7524, 7579, 7578
7353, 7524, 7525, 7580, 7579
7354, 7525, 7526, 7581, 7580
7355, 7526, 7527, 7582, 7581
7356, 7527, 7528, 7583, 7582
7357, 7528, 7529, 7584, 7583
7358, 7529, 7530, 7585, 7584
7359, 7530, 7531, 7586, 7585
7360, 7531, 7532, 7587, 7586
7361, 7534, 7533, 7588, 7589
7362, 7533, 7535, 7590, 7588
7363, 7535, 7536, 7591, 7590
7364, 7536, 7537, 7592, 7591
7365, 7537, 7538, 7593, 7592
7366, 7538, 7539, 7594, 7593
7367, 7539, 7540, 7595, 7594
7368, 7540, 7541, 7596, 7595
7369, 7541, 7542, 7597, 7596
7370, 7542, 7543, 7598, 7597
7371, 7543, 7544, 7599, 7598
7372, 7544, 7545, 7600, 7599
7373, 7545, 7546, 7601, 7600
7374, 7546, 7547, 7602, 7601
7375, 7547, 7548, 7603, 7602
7376, 7548, 7549, 7604, 7603
7377, 7549, 7550, 7605, 7604
7378, 7550, 7551, 7606, 7605
7379, 7551, 7552, 7607, 7606
7380, 7552, 7553, 7608, 7607
7381, 7553, 7554, 7609, 7608
7382, 7554, 7555, 7610, 7609
7383, 7555, 7556, 7611, 7610
7384, 7556, 7557, 7612, 7611
7385, 7557, 7558, 7613, 7612
7386, 7558, 7559, 7614, 7613
7387, 7559, 7560, 7615, 7614
7388, 7560, 7561, 7616, 7615
7389, 7561, 7562, 7617, 7616
7390, 7562, 7563, 7618, 7617
7391, 7563, 7564, 7619, 7618
7392, 7564, 7565, 7620, 7619
7393, 7565, 7566, 7621, 7620
7394, 7566, 7567, 7622, 7621
7395, 7567, 7568, 7623, 7622
7396, 7568, 7569, 7624, 7623
7397, 7569, 7570, 7625, 7624
7398, 7570, 7571, 7626, 7625
7399, 7571, 7572, 7627, 7626
7400, 7572, 7573, 7628, 7627
7401, 7573, 7574, 7629, 7628
7402, 7574, 7575, 7630, 7629
7403, 7575, 7576, 7631, 7630
7404, 7576, 7577, 7632, 7631
7405, 7577, 7578, 7633, 7632
7406, 7578, 7579, 7634, 7633
7407, 7579, 7580, 7635, 7634
7408, 7580, 7581, 7636, 7635
7409, 7581, 7582, 7637, 7636
7410, 7582, 7583, 7638, 7637
7411, 7583, 7584, 7639, 7638
7412, 7584, 7585, 7640, 7639
7413, 7585, 7586, 7641, 7640
7414, 7586, 7587, 7642, 7641
7415, 7589, 7588, 7643, 7644
7416, 7588, 7590, 7645, 7643
7417, 7590, 7591, 7646, 7645
7418, 7591, 7592, 7647, 7646
7419, 7592, 7593, 7648, 7647
7420, 7593, 7594, 7649, 7648
7421, 7594, 7595, 7650, 7649
7422, 7595, 7596, 7651, 7650
7423, 7596, 7597, 7652, 7651
7424, 7597, 7598, 7653, 7652
7425, 7598, 7599, 7654, 7653
7426, 7599, 7600, 7655, 7654
7427, 7600, 7601, 7656, 7655
7428, 7601, 7602, 7657, 7656
7429, 7602, 7603, 7658, 7657
7430, 7603, 7604, 7659, 7658
7431, 7604, 7605, 7660, 7659
7432, 7605, 7606, 7661, 7660
7433, 7606, 7607, 7662, 7661
7434, 7607, 7608, 7663, 7662
7435, 7608, 7609, 7664, 7663
7436, 7609, 7610, 7665, 7664
7437, 7610, 7611, 7666, 7665
7438, 7611, 7612, 7667, 7666
7439, 7612, 7613, 7668, 7667
7440, 7613, 7614, 7669, 7668
7441, 7614, 7615, 7670, 7669
7442, 7615, 7616, 7671, 7670
7443, 7616, 7617, 7672, 7671
7444, 7617, 7618, 7673, 7672
7445, 7618, 7619, 7674, 7673
7446, 7619, 7620, 7675, 7674
7447, 7620, 7621, 7676, 7675
7448, 7621, 7622, 7677, 7676
7449, 7622, 7623, 7678, 7677
7450, 7623, 7624, 7679, 7678
7451, 7624, 7625, 7680, 7679
7452, 7625, 7626, 7681, 7680
7453, 7626, 7627, 7682, 7681
7454, 7627, 7628, 7683, 7682
7455, 7628, 7629, 7684, 7683
7456, 7629, 7630, 7685, 7684
7457, 7630, 7631, 7686, 7685
7458, 7631, 7632, 7687, 7686
7459, 7632, 7633, 7688, 7687
7460, 7633, 7634, 7689, 7688
7461, 7634, 7635, 7690, 7689
7462, 7635, 7636, 7691, 7690
7463, 7636, 7637, 7692, 7691
7464, 7637, 7638, 7693, 7692
7465, 7638, 7639, 7694, 7693
7466, 7639, 7640, 7695, 7694
7467, 7640, 7641, 7696, 7695
7468, 7641, 7642, 7697, 7696
7469, 7644, 7643, 7698, 7699
7470, 7643, 7645, 7700, 7698
7471, 7645, 7646, 7701, 7700
7472, 7646, 7647, 7702, 7701
7473, 7647, 7648, 7703, 7702
7474, 7648, 7649, 7704, 7703
7475, 7649, 7650, 7705, 7704
7476, 7650, 7651, 7706, 7705
7477, 7651, 7652, 7707, 7706
7478, 7652, 7653, 7708, 7707
7479, 7653, 7654, 7709, 7708
7480, 7654, 7655, 7710, 7709
7481, 7655, 7656, 7711, 7710
7482, 7656, 7657, 7712, 7711
7483, 7657, 7658, 7713, 7712
7484, 7658, 7659, 7714, 7713
7485, 7659, 7660, 7715, 7714
7486, 7660, 7661, 7716, 7715
7487, 7661, 7662, 7717, 7716
7488, 7662, 7663, 7718, 7717
7489, 7663, 7664, 7719, 7718
7490, 7664, 7665, 7720, 7719
7491, 7665, 7666, 7721, 7720
7492, 7666, 7667, 7722, 7721
7493, 7667, 7668, 7723, 7722
7494, 7668, 7669, 7724, 7723
7495, 7669, 7670, 7725, 7724
7496, 7670, 7671, 7726, 7725
7497, 7671, 7672, 7727, 7726
7498, 7672, 7673, 7728, 7727
7499, 7673, 7674, 7729, 7728
7500, 7674, 7675, 7730, 7729
7501, 7675, 7676, 7731, 7730
7502, 7676, 7677, 7732, 7731
7503, 7677, 7678, 7733, 7732
7504, 7678, 7679, 7734, 7733
7505, 7679, 7680, 7735, 7734
7506, 7680, 7681, 7736, 7735
7507, 7681, 7682, 7737, 7736
7508, 7682, 7683, 7738, 7737
7509, 7683, 7684, 7739, 7738
7510, 7684, 7685, 7740, 7739
7511, 7685, 7686, 7741, 7740
7512, 7686, 7687, 7742, 7741
7513, 7687, 7688, 7743, 7742
7514, 7688, 7689, 7744, 7743
7515, 7689, 7690, 7745, 7744
7516, 7690, 7691, 7746, 7745
7517, 7691, 7692, 7747, 7746
7518, 7692, 7693, 7748, 7747
7519, 7693, 7694, 7749, 7748
7520, 7694, 7695, 7750, 7749
7521, 7695, 7696, 7751, 7750
7522, 7696, 7697, 7752, 7751
7523, 7699, 7698, 7753, 7754
7524, 7698, 7700, 7755, 7753
7525, 7700, 7701, 7756, 7755
7526, 7701, 7702, 7757, 7756
7527, 7702, 7703, 7758, 7757
7528, 7703, 7704, 7759, 7758
7529, 7704, 7705, 7760, 7759
7530, 7705, 7706, 7761, 7760
7531, 7706, 7707, 7762, 7761
7532, 7707, 7708, 7763, 7762
7533, 7708, 7709, 7764, 7763
7534, 7709, 7710, 7765, 7764
7535, 7710, 7711, 7766, 7765
7536, 7711, 7712, 7767, 7766
7537, 7712, 7713, 7768, 7767
7538, 7713, 7714, 7769, 7768
7539, 7714, 7715, 7770, 7769
7540, 7715, 7716, 7771, 7770
7541, 7716, 7717, 7772, 7771
7542, 7717, 7718, 7773, 7772
7543, 7718, 7719, 7774, 7773
7544, 7719, 7720, 7775, 7774
7545, 7720, 7721, 7776, 7775
7546, 7721, 7722, 7777, 7776
7547, 7722, 7723, 7778, 7777
7548, 7723, 7724, 7779, 7778
7549, 7724, 7725, 7780, 7779
7550, 7725, 7726, 7781, 7780
7551, 7726, 7727, 7782, 7781
7552, 7727, 7728, 7783, 7782
7553, 7728, 7729, 7784, 7783
7554, 7729, 7730, 7785, 7784
7555, 7730, 7731, 7786, 7785
7556, 7731, 7732, 7787, 7786
7557, 7732, 7733, 7788, 7787
7558, 7733, 7734, 7789, 7788
7559, 7734, 7735, 7790, 7789
7560, 7735, 7736, 7791, 7790
7561, 7736, 7737, 7792, 7791
7562, 7737, 7738, 7793, 7792
7563, 7738, 7739, 7794, 7793
7564, 7739, 7740, 7795, 7794
7565, 7740, 7741, 7796, 7795
7566, 7741, 7742, 7797, 7796
7567, 7742, 7743, 7798, 7797
7568, 7743, 7744, 7799, 7798
7569, 7744, 7745, 7800, 7799
7570, 7745, 7746, 7801, 7800
7571, 7746, 7747, 7802, 7801
7572, 7747, 7748, 7803, 7802
7573, 7748, 7749, 7804, 7803
7574, 7749, 7750, 7805, 7804
7575, 7750, 7751, 7806, 7805
7576, 7751, 7752, 7807, 7806
7577, 7754, 7753, 7808, 7809
7578, 7753, 7755, 7810, 7808
7579, 7755, 7756, 7811, 7810
7580, 7756, 7757, 7812, 7811
7581, 7757, 7758, 7813, 7812
7582, 7758, 7759, 7814, 7813
7583, 7759, 7760, 7815, 7814
7584, 7760, 7761, 7816, 7815
7585, 7761, 7762, 7817, 7816
7586, 7762, 7763, 7818, 7817
7587, 7763, 7764, 7819, 7818
7588, 7764, 7765, 7820, 7819
7589, 7765, 7766, 7821, 7820
7590, 7766, 7767, 7822, 7821
7591, 7767, 7768, 7823, 7822
7592, 7768, 7769, 7824, 7823
7593, 7769, 7770, 7825, 7824
7594, 7770, 7771, 7826, 7825
7595, 7771, 7772, 7827, 7826
7596, 7772, 7773, 7828, 7827
7597, 7773, 7774, 7829, 7828
7598, 7774, 7775, 7830, 7829
7599, 7775, 7776, 7831, 7830
7600, 7776, 7777, 7832, 7831
7601, 7777, 7778, 7833, 7832
7602, 7778, 7779, 7834, 7833
7603, 7779, 7780, 7835, 7834
7604, 7780, 7781, 7836, 7835
7605, 7781, 7782, 7837, 7836
7606, 7782, 7783, 7838, 7837
7607, 7783, 7784, 7839, 7838
7608, 7784, 7785, 7840, 7839
7609, 7785, 7786, 7841, 7840
7610, 7786, 7787, 7842, 7841
7611, 7787, 7788, 7843, 7842
7612, 7788, 7789, 7844, 7843
7613, 7789, 7790, 7845, 7844
7614, 7790, 7791, 7846, 7845
7615, 7791, 7792, 7847, 7846
7616, 7792, 7793, 7848, 7847
7617, 7793, 7794, 7849, 7848
7618, 7794, 7795, 7850, 7849
7619, 7795, 7796, 7851, 7850
7620, 7796, 7797, 7852, 7851
7621, 7797, 7798, 7853, 7852
7622, 7798, 7799, 7854, 7853
7623, 7799, 7800, 7855, 7854
7624, 7800, 7801, 7856, 7855
7625, 7801, 7802, 7857, 7856
7626, 7802, 7803, 7858, 7857
7627, 7803, 7804, 7859, 7858
7628, 7804, 7805, 7860, 7859
7629, 7805, 7806, 7861, 7860
7630, 7806, 7807, 7862, 7861
7631, 7809, 7808, 7863, 7864
7632, 7808, 7810, 7865, 7863
7633, 7810, 7811, 7866, 7865
7634, 7811, 7812, 7867, 7866
7635, 7812, 7813, 7868, 7867
7636, 7813, 7814, 7869, 7868
7637, 7814, 7815, 7870, 7869
7638, 7815, 7816, 7871, 7870
7639, 7816, 7817, 7872, 7871
7640, 7817, 7818, 7873, 7872
7641, 7818, 7819, 7874, 7873
7642, 7819, 7820, 7875, 7874
7643, 7820, 7821, 7876, 7875
7644, 7821, 7822, 7877, 7876
7645, 7822, 7823, 7878, 7877
7646, 7823, 7824, 7879, 7878
7647, 7824, 7825, 7880, 7879
7648, 7825, 7826, 7881, 7880
7649, 7826, 7827, 7882, 7881
7650, 7827, 7828, 7883, 7882
7651, 7828, 7829, 7884, 7883
7652, 7829, 7830, 7885, 7884
7653, 7830, 7831, 7886, 7885
7654, 7831, 7832, 7887, 7886
7655, 7832, 7833, 7888, 7887
7656, 7833, 7834, 7889, 7888
7657, 7834, 7835, 7890, 7889
7658, 7835, 7836, 7891, 7890
7659, 7836, 7837, 7892, 7891
7660, 7837, 7838, 7893, 7892
7661, 7838, 7839, 7894, 7893
7662, 7839, 7840, 7895, 7894
7663, 7840, 7841, 7896, 7895
7664, 7841, 7842, 7897, 7896
7665, 7842, 7843, 7898, 7897
7666, 7843, 7844, 7899, 7898
7667, 7844, 7845, 7900, 7899
7668, 7845, 7846, 7901, 7900
7669, 7846, 7847, 7902, 7901
7670, 7847, 7848, 7903, 7902
7671, 7848, 7849, 7904, 7903
7672, 7849, 7850, 7905, 7904
7673, 7850, 7851, 7906, 7905
7674, 7851, 7852, 7907, 7906
7675, 7852, 7853, 7908, 7907
7676, 7853, 7854, 7909, 7908
7677, 7854, 7855, 7910, 7909
7678, 7855, 7856, 7911, 7910
7679, 7856, 7857, 7912, 7911
7680, 7857, 7858, 7913, 7912
7681, 7858, 7859, 7914, 7913
7682, 7859, 7860, 7915, 7914
7683, 7860, 7861, 7916, 7915
7684, 7861, 7862, 7917, 7916
7685, 7864, 7863, 7918, 7919
7686, 7863, 7865, 7920, 7918
7687, 7865, 7866, 7921, 7920
7688, 7866, 7867, 7922, 7921
7689, 7867, 7868, 7923, 7922
7690, 7868, 7869, 7924, 7923
7691, 7869, 7870, 7925, 7924
7692, 7870, 7871, 7926, 7925
7693, 7871, 7872, 7927, 7926
7694, 7872, 7873, 7928, 7927
7695, 7873, 7874, 7929, 7928
7696, 7874, 7875, 7930, 7929
7697, 7875, 7876, 7931, 7930
7698, 7876, 7877, 7932, 7931
7699, 7877, 7878, 7933, 7932
7700, 7878, 7879, 7934, 7933
7701, 7879, 7880, 7935, 7934
7702, 7880, 7881, 7936, 7935
7703, 7881, 7882, 7937, 7936
7704, 7882, 7883, 7938, 7937
7705, 7883, 7884, 7939, 7938
7706, 7884, 7885, 7940, 7939
7707, 7885, 7886, 7941, 7940
7708, 7886, 7887, 7942, 7941
7709, 7887, 7888, 7943, 7942
7710, 7888, 7889, 7944, 7943
7711, 7889, 7890, 7945, 7944
7712, 7890, 7891, 7946, 7945
7713, 7891, 7892, 7947, 7946
7714, 7892, 7893, 7948, 7947
7715, 7893, 7894, 7949, 7948
7716, 7894, 7895, 7950, 7949
7717, 7895, 7896, 7951, 7950
7718, 7896, 7897, 7952, 7951
7719, 7897, 7898, 7953, 7952
7720, 7898, 7899, 7954, 7953
7721, 7899, 7900, 7955, 7954
7722, 7900, 7901, 7956, 7955
7723, 7901, 7902, 7957, 7956
7724, 7902, 7903, 7958, 7957
7725, 7903, 7904, 7959, 7958
7726, 7904, 7905, 7960, 7959
7727, 7905, 7906, 7961, 7960
7728, 7906, 7907, 7962, 7961
7729, 7907, 7908, 7963, 7962
7730, 7908, 7909, 7964, 7963
7731, 7909, 7910, 7965, 7964
7732, 7910, 7911, 7966, 7965
7733, 7911, 7912, 7967, 7966
7734, 7912, 7913, 7968, 7967
7735, 7913, 7914, 7969, 7968
7736, 7914, 7915, 7970, 7969
7737, 7915, 7916, 7971, 7970
7738, 7916, 7917, 7972, 7971
7739, 7919, 7918, 7973, 7974
7740, 7918, 7920, 7975, 7973
7741, 7920, 7921, 7976, 7975
7742, 7921, 7922, 7977, 7976
7743, 7922, 7923, 7978, 7977
7744, 7923, 7924, 7979, 7978
7745, 7924, 7925, 7980, 7979
7746, 7925, 7926, 7981, 7980
7747, 7926, 7927, 7982, 7981
7748, 7927, 7928, 7983, 7982
7749, 7928, 7929, 7984, 7983
7750, 7929, 7930, 7985, 7984
7751, 7930, 7931, 7986, 7985
7752, 7931, 7932, 7987, 7986
7753, 7932, 7933, 7988, 7987
7754, 7933, 7934, 7989, 7988
7755, 7934, 7935, 7990, 7989
7756, 7935, 7936, 7991, 7990
7757, 7936, 7937, 7992, 7991
7758, 7937, 7938, 7993, 7992
7759, 7938, 7939, 7994, 7993
7760, 7939, 7940, 7995, 7994
7761, 7940, 7941, 7996, 7995
7762, 7941, 7942, 7997, 7996
7763, 7942, 7943, 7998, 7997
7764, 7943, 7944, 7999, 7998
7765, 7944, 7945, 8000, 7999
7766, 7945, 7946, 8001, 8000
7767, 7946, 7947, 8002, 8001
7768, 7947, 7948, 8003, 8002
7769, 7948, 7949, 8004, 8003
7770, 7949, 7950, 8005, 8004
7771, 7950, 7951, 8006, 8005
7772, 7951, 7952, 8007, 8006
7773, 7952, 7953, 8008, 8007
7774, 7953, 7954, 8009, 8008
7775, 7954, 7955, 8010, 8009
7776, 7955, 7956, 8011, 8010
7777, 7956, 7957, 8012, 8011
7778, 7957, 7958, 8013, 8012
7779, 7958, 7959, 8014, 8013
7780, 7959, 7960, 8015, 8014
7781, 7960, 7961, 8016, 8015
7782, 7961, 7962, 8017, 8016
7783, 7962, 7963, 8018, 8017
7784, 7963, 7964, 8019, 8018
7785, 7964, 7965, 8020, 8019
7786, 7965, 7966, 8021, 8020
7787, 7966, 7967, 8022, 8021
7788, 7967, 7968, 8023, 8022
7789, 7968, 7969, 8024, 8023
7790, 7969, 7970, 8025, 8024
7791, 7970, 7971, 8026, 8025
7792, 7971, 7972, 8027, 8026
7793, 7974, 7973, 8028, 8029
7794, 7973, 7975, 8030, 8028
7795, 7975, 7976, 8031, 8030
7796, 7976, 7977, 8032, 8031
7797, 7977, 7978, 8033, 8032
7798, 7978, 7979, 8034, 8033
7799, 7979, 7980, 8035, 8034
7800, 7980, 7981, 8036, 8035
7801, 7981, 7982, 8037, 8036
7802, 7982, 7983, 8038, 8037
7803, 7983, 7984, 8039, 8038
7804, 7984, 7985, 8040, 8039
7805, 7985, 7986, 8041, 8040
7806, 7986, 7987, 8042, 8041
7807, 7987, 7988, 8043, 8042
7808, 7988, 7989, 8044, 8043
7809, 7989, 7990, 8045, 8044
7810, 7990, 7991, 8046, 8045
7811, 7991, 7992, 8047, 8046
7812, 7992, 7993, 8048, 8047
7813, 7993, 7994, 8049, 8048
7814, 7994, 7995, 8050, 8049
7815, 7995, 7996, 8051, 8050
7816, 7996, 7997, 8052, 8051
7817, 7997, 7998, 8053, 8052
7818, 7998, 7999, 8054, 8053
7819, 7999, 8000, 8055, 8054
7820, 8000, 8001, 8056, 8055
7821, 8001, 8002, 8057, 8056
7822, 8002, 8003, 8058, 8057
7823, 8003, 8004, 8059, 8058
7824, 8004, 8005, 8060, 8059
7825, 8005, 8006, 8061, 8060
7826, 8006, 8007, 8062, 8061
7827, 8007, 8008, 8063, 8062
7828, 8008, 8009, 8064, 8063
7829, 8009, 8010, 8065, 8064
7830, 8010, 8011, 8066, 8065
7831, 8011, 8012, 8067, 8066
7832, 8012, 8013, 8068, 8067
7833, 8013, 8014, 8069, 8068
7834, 8014, 8015, 8070, 8069
7835, 8015, 8016, 8071, 8070
7836, 8016, 8017, 8072, 8071
7837, 8017, 8018, 8073, 8072
7838, 8018, 8019, 8074, 8073
7839, 8019, 8020, 8075, 8074
7840, 8020, 8021, 8076, 8075
7841, 8021, 8022, 8077, 8076
7842, 8022, 8023, 8078, 8077
7843, 8023, 8024, 8079, 8078
7844, 8024, 8025, 8080, 8079
7845, 8025, 8026, 8081, 8080
7846, 8026, 8027, 8082, 8081
7847, 8029, 8028, 8083, 8084
7848, 8028, 8030, 8085, 8083
7849, 8030, 8031, 8086, 8085
7850, 8031, 8032, 8087, 8086
7851, 8032, 8033, 8088, 8087
7852, 8033, 8034, 8089, 8088
7853, 8034, 8035, 8090, 8089
7854, 8035, 8036, 8091, 8090
7855, 8036, 8037, 8092, 8091
7856, 8037, 8038, 8093, 8092
7857, 8038, 8039, 8094, 8093
7858, 8039, 8040, 8095, 8094
7859, 8040, 8041, 8096, 8095
7860, 8041, 8042, 8097, 8096
7861, 8042, 8043, 8098, 8097
7862, 8043, 8044, 8099, 8098
7863, 8044, 8045, 8100, 8099
7864, 8045, 8046, 8101, 8100
7865, 8046, 8047, 8102, 8101
7866, 8047, 8048, 8103, 8102
7867, 8048, 8049, 8104, 8103
7868, 8049, 8050, 8105, 8104
7869, 8050, 8051, 8106, 8105
7870, 8051, 8052, 8107, 8106
7871, 8052, 8053, 8108, 8107
7872, 8053, 8054, 8109, 8108
7873, 8054, 8055, 8110, 8109
7874, 8055, 8056, 8111, 8110
7875, 8056, 8057, 8112, 8111
7876, 8057, 8058, 8113, 8112
7877, 8058, 8059, 8114, 8113
7878, 8059, 8060, 8115, 8114
7879, 8060, 8061, 8116, 8115
7880, 8061, 8062, 8117, 8116
7881, 8062, 8063, 8118, 8117
7882, 8063, 8064, 8119, 8118
7883, 8064, 8065, 8120, 8119
7884, 8065, 8066, 8121, 8120
7885, 8066, 8067, 8122, 8121
7886, 8067, 8068, 8123, 8122
7887, 8068, 8069, 8124, 8123
7888, 8069, 8070, 8125, 8124
7889, 8070, 8071, 8126, 8125
7890, 8071, 8072, 8127, 8126
7891, 8072, 8073, 8128, 8127
7892, 8073, 8074, 8129, 8128
7893, 8074, 8075, 8130, 8129
7894, 8075, 8076, 8131, 8130
7895, 8076, 8077, 8132, 8131
7896, 8077, 8078, 8133, 8132
7897, 8078, 8079, 8134, 8133
7898, 8079, 8080, 8135, 8134
7899, 8080, 8081, 8136, 8135
7900, 8081, 8082, 8137, 8136
7901, 8084, 8083, 8138, 8139
7902, 8083, 8085, 8140, 8138
7903, 8085, 8086, 8141, 8140
7904, 8086, 8087, 8142, 8141
7905, 8087, 8088, 8143, 8142
7906, 8088, 8089, 8144, 8143
7907, 8089, 8090, 8145, 8144
7908, 8090, 8091, 8146, 8145
7909, 8091, 8092, 8147, 8146
7910, 8092, 8093, 8148, 8147
7911, 8093, 8094, 8149, 8148
7912, 8094, 8095, 8150, 8149
7913, 8095, 8096, 8151, 8150
7914, 8096, 8097, 8152, 8151
7915, 8097, 8098, 8153, 8152
7916, 8098, 8099, 8154, 8153
7917, 8099, 8100, 8155, 8154
7918, 8100, 8101, 8156, 8155
7919, 8101, 8102, 8157, 8156
7920, 8102, 8103, 8158, 8157
7921, 8103, 8104, 8159, 8158
7922, 8104, 8105, 8160, 8159
7923, 8105, 8106, 8161, 8160
7924, 8106, 8107, 8162, 8161
7925, 8107, 8108, 8163, 8162
7926, 8108, 8109, 8164, 8163
7927, 8109, 8110, 8165, 8164
7928, 8110, 8111, 8166, 8165
7929, 8111, 8112, 8167, 8166
7930, 8112, 8113, 8168, 8167
7931, 8113, 8114, 8169, 8168
7932, 8114, 8115, 8170, 8169
7933, 8115, 8116, 8171, 8170
7934, 8116, 8117, 8172, 8171
7935, 8117, 8118, 8173, 8172
7936, 8118, 8119, 8174, 8173
7937, 8119, 8120, 8175, 8174
7938, 8120, 8121, 8176, 8175
7939, 8121, 8122, 8177, 8176
7940, 8122, 8123, 8178, 8177
7941, 8123, 8124, 8179, 8178
7942, 8124, 8125, 8180, 8179
7943, 8125, 8126, 8181, 8180
7944, 8126, 8127, 8182, 8181
7945, 8127, 8128, 8183, 8182
7946, 8128, 8129, 8184, 8183
7947, 8129, 8130, 8185, 8184
7948, 8130, 8131, 8186, 8185
7949, 8131, 8132, 8187, 8186
7950, 8132, 8133, 8188, 8187
7951, 8133, 8134, 8189, 8188
7952, 8134, 8135, 8190, 8189
7953, 8135, 8136, 8191, 8190
7954, 8136, 8137, 8192, 8191
7955, 8139, 8138, 8193, 8194
7956, 8138, 8140, 8195, 8193
7957, 8140, 8141, 8196, 8195
7958, 8141, 8142, 8197, 8196
7959, 8142, 8143, 8198, 8197
7960, 8143, 8144, 8199, 8198
7961, 8144, 8145, 8200, 8199
7962, 8145, 8146, 8201, 8200
7963, 8146, 8147, 8202, 8201
7964, 8147, 8148, 8203, 8202
7965, 8148, 8149, 8204, 8203
7966, 8149, 8150, 8205, 8204
7967, 8150, 8151, 8206, 8205
7968, 8151, 8152, 8207, 8206
7969, 8152, 8153, 8208, 8207
7970, 8153, 8154, 8209, 8208
7971, 8154, 8155, 8210, 8209
7972, 8155, 8156, 8211, 8210
7973, 8156, 8157, 8212, 8211
7974, 8157, 8158, 8213, 8212
7975, 8158, 8159, 8214, 8213
7976, 8159, 8160, 8215, 8214
7977, 8160, 8161, 8216, 8215
7978, 8161, 8162, 8217, 8216
7979, 8162, 8163, 8218, 8217
7980, 8163, 8164, 8219, 8218
7981, 8164, 8165, 8220, 8219
7982, 8165, 8166, 8221, 8220
7983, 8166, 8167, 8222, 8221
7984, 8167, 8168, 8223, 8222
7985, 8168, 8169, 8224, 8223
7986, 8169, 8170, 8225, 8224
7987, 8170, 8171, 8226, 8225
7988, 8171, 8172, 8227, 8226
7989, 8172, 8173, 8228, 8227
7990, 8173, 8174, 8229, 8228
7991, 8174, 8175, 8230, 8229
7992, 8175, 8176, 8231, 8230
7993, 8176, 8177, 8232, 8231
7994, 8177, 8178, 8233, 8232
7995, 8178, 8179, 8234, 8233
7996, 8179, 8180, 8235, 8234
7997, 8180, 8181, 8236, 8235
7998, 8181, 8182, 8237, 8236
7999, 8182, 8183, 8238, 8237
8000, 8183, 8184, 8239, 8238
8001, 8184, 8185, 8240, 8239
8002, 8185, 8186, 8241, 8240
8003, 8186, 8187, 8242, 8241
8004, 8187, 8188, 8243, 8242
8005, 8188, 8189, 8244, 8243
8006, 8189, 8190, 8245, 8244
8007, 8190, 8191, 8246, 8245
8008, 8191, 8192, 8247, 8246
8009, 8194, 8193, 8248, 8249
8010, 8193, 8195, 8250, 8248
8011, 8195, 8196, 8251, 8250
8012, 8196, 8197, 8252, 8251
8013, 8197, 8198, 8253, 8252
8014, 8198, 8199, 8254, 8253
8015, 8199, 8200, 8255, 8254
8016, 8200, 8201, 8256, 8255
8017, 8201, 8202, 8257, 8256
8018, 8202, 8203, 8258, 8257
8019, 8203, 8204, 8259, 8258
8020, 8204, 8205, 8260, 8259
8021, 8205, 8206, 8261, 8260
8022, 8206, 8207, 8262, 8261
8023, 8207, 8208, 8263, 8262
8024, 8208, 8209, 8264, 8263
8025, 8209, 8210, 8265, 8264
8026, 8210, 8211, 8266, 8265
8027, 8211, 8212, 8267, 8266
8028, 8212, 8213, 8268, 8267
8029, 8213, 8214, 8269, 8268
8030, 8214, 8215, 8270, 8269
8031, 8215, 8216, 8271, 8270
8032, 8216, 8217, 8272, 8271
8033, 8217, 8218, 8273, 8272
8034, 8218, 8219, 8274, 8273
8035, 8219, 8220, 8275, 8274
8036, 8220, 8221, 8276, 8275
8037, 8221, 8222, 8277, 8276
8038, 8222, 8223, 8278, 8277
8039, 8223, 8224, 8279, 8278
8040, 8224, 8225, 8280, 8279
8041, 8225, 8226, 8281, 8280
8042, 8226, 8227, 8282, 8281
8043, 8227, 8228, 8283, 8282
8044, 8228, 8229, 8284, 8283
8045, 8229, 8230, 8285, 8284
8046, 8230, 8231, 8286, 8285
8047, 8231, 8232, 8287, 8286
8048, 8232, 8233, 8288, 8287
8049, 8233, 8234, 8289, 8288
8050, 8234, 8235, 8290, 8289
8051, 8235, 8236, 8291, 8290
8052, 8236, 8237, 8292, 8291
8053, 8237, 8238, 8293, 8292
8054, 8238, 8239, 8294, 8293
8055, 8239, 8240, 8295, 8294
8056, 8240, 8241, 8296, 8295
8057, 8241, 8242, 8297, 8296
8058, 8242, 8243, 8298, 8297
8059, 8243, 8244, 8299, 8298
8060, 8244, 8245, 8300, 8299
8061, 8245, 8246, 8301, 8300
8062, 8246, 8247, 8302, 8301
8063, 8249, 8248, 8303, 8304
8064, 8248, 8250, 8305, 8303
8065, 8250, 8251, 8306, 8305
8066, 8251, 8252, 8307, 8306
8067, 8252, 8253, 8308, 8307
8068, 8253, 8254, 8309, 8308
8069, 8254, 8255, 8310, 8309
8070, 8255, 8256, 8311, 8310
8071, 8256, 8257, 8312, 8311
8072, 8257, 8258, 8313, 8312
8073, 8258, 8259, 8314, 8313
8074, 8259, 8260, 8315, 8314
8075, 8260, 8261, 8316, 8315
8076, 8261, 8262, 8317, 8316
8077, 8262, 8263, 8318, 8317
8078, 8263, 8264, 8319, 8318
8079, 8264, 8265, 8320, 8319
8080, 8265, 8266, 8321, 8320
8081, 8266, 8267, 8322, 8321
8082, 8267, 8268, 8323, 8322
8083, 8268, 8269, 8324, 8323
8084, 8269, 8270, 8325, 8324
8085, 8270, 8271, 8326, 8325
8086, 8271, 8272, 8327, 8326
8087, 8272, 8273, 8328, 8327
8088, 8273, 8274, 8329, 8328
8089, 8274, 8275, 8330, 8329
8090, 8275, 8276, 8331, 8330
8091, 8276, 8277, 8332, 8331
8092, 8277, 8278, 8333, 8332
8093, 8278, 8279, 8334, 8333
8094, 8279, 8280, 8335, 8334
8095, 8280, 8281, 8336, 8335
8096, 8281, 8282, 8337, 8336
8097, 8282, 8283, 8338, 8337
8098, 8283, 8284, 8339, 8338
8099, 8284, 8285, 8340, 8339
8100, 8285, 8286, 8341, 8340
8101, 8286, 8287, 8342, 8341
8102, 8287, 8288, 8343, 8342
8103, 8288, 8289, 8344, 8343
8104, 8289, 8290, 8345, 8344
8105, 8290, 8291, 8346, 8345
8106, 8291, 8292, 8347, 8346
8107, 8292, 8293, 8348, 8347
8108, 8293, 8294, 8349, 8348
8109, 8294, 8295, 8350, 8349
8110, 8295, 8296, 8351, 8350
8111, 8296, 8297, 8352, 8351
8112, 8297, 8298, 8353, 8352
8113, 8298, 8299, 8354, 8353
8114, 8299, 8300, 8355, 8354
8115, 8300, 8301, 8356, 8355
8116, 8301, 8302, 8357, 8356
8117, 8304, 8303, 8358, 8359
8118, 8303, 8305, 8360, 8358
8119, 8305, 8306, 8361, 8360
8120, 8306, 8307, 8362, 8361
8121, 8307, 8308, 8363, 8362
8122, 8308, 8309, 8364, 8363
8123, 8309, 8310, 8365, 8364
8124, 8310, 8311, 8366, 8365
8125, 8311, 8312, 8367, 8366
8126, 8312, 8313, 8368, 8367
8127, 8313, 8314, 8369, 8368
8128, 8314, 8315, 8370, 8369
8129, 8315, 8316, 8371, 8370
8130, 8316, 8317, 8372, 8371
8131, 8317, 8318, 8373, 8372
8132, 8318, 8319, 8374, 8373
8133, 8319, 8320, 8375, 8374
8134, 8320, 8321, 8376, 8375
8135, 8321, 8322, 8377, 8376
8136, 8322, 8323, 8378, 8377
8137, 8323, 8324, 8379, 8378
8138, 8324, 8325, 8380, 8379
8139, 8325, 8326, 8381, 8380
8140, 8326, 8327, 8382, 8381
8141, 8327, 8328, 8383, 8382
8142, 8328, 8329, 8384, 8383
8143, 8329, 8330, 8385, 8384
8144, 8330, 8331, 8386, 8385
8145, 8331, 8332, 8387, 8386
8146, 8332, 8333, 8388, 8387
8147, 8333, 8334, 8389, 8388
8148, 8334, 8335, 8390, 8389
8149, 8335, 8336, 8391, 8390
8150, 8336, 8337, 8392, 8391
8151, 8337, 8338, 8393, 8392
8152, 8338, 8339, 8394, 8393
8153, 8339, 8340, 8395, 8394
8154, 8340, 8341, 8396, 8395
8155, 8341, 8342, 8397, 8396
8156, 8342, 8343, 8398, 8397
8157, 8343, 8344, 8399, 8398
8158, 8344, 8345, 8400, 8399
8159, 8345, 8346, 8401, 8400
8160, 8346, 8347, 8402, 8401
8161, 8347, 8348, 8403, 8402
8162, 8348, 8349, 8404, 8403
8163, 8349, 8350, 8405, 8404
8164, 8350, 8351, 8406, 8405
8165, 8351, 8352, 8407, 8406
8166, 8352, 8353, 8408, 8407
8167, 8353, 8354, 8409, 8408
8168, 8354, 8355, 8410, 8409
8169, 8355, 8356, 8411, 8410
8170, 8356, 8357, 8412, 8411
8171, 8359, 8358, 8413, 8414
8172, 8358, 8360, 8415, 8413
8173, 8360, 8361, 8416, 8415
8174, 8413, 8415, 8416, 8414
8175, 8361, 8362, 8417, 8416
8176, 8362, 8363, 8418, 8417
8177, 8363, 8364, 8419, 8418
8178, 8417, 8418, 8419, 8416
8179, 8364, 8365, 8420, 8419
8180, 8365, 8366, 8421, 8420
8181, 8366, 8367, 8422, 8421
8182, 8420, 8421, 8422, 8419
8183, 8367, 8368, 8423, 8422
8184, 8368, 8369, 8424, 8423
8185, 8369, 8370, 8425, 8424
8186, 8423, 8424, 8425, 8422
8187, 8370, 8371, 8426, 8425
8188, 8371, 8372, 8427, 8426
8189, 8372, 8373, 8428, 8427
8190, 8426, 8427, 8428, 8425
8191, 8373, 8374, 8429, 8428
8192, 8374, 8375, 8430, 8429
8193, 8375, 8376, 8431, 8430
8194, 8429, 8430, 8431, 8428
8195, 8376, 8377, 8432, 8431
8196, 8377, 8378, 8433, 8432
8197, 8378, 8379, 8434, 8433
8198, 8432, 8433, 8434, 8431
8199, 8379, 8380, 8435, 8434
8200, 8380, 8381, 8436, 8435
8201, 8381, 8382, 8437, 8436
8202, 8435, 8436, 8437, 8434
8203, 8382, 8383, 8438, 8437
8204, 8383, 8384, 8439, 8438
8205, 8384, 8385, 8440, 8439
8206, 8438, 8439, 8440, 8437
8207, 8385, 8386, 8441, 8440
8208, 8386, 8387, 8442, 8441
8209, 8387, 8388, 8443, 8442
8210, 8441, 8442, 8443, 8440
8211, 8388, 8389, 8444, 8443
8212, 8389, 8390, 8445, 8444
8213, 8390, 8391, 8446, 8445
8214, 8444, 8445, 8446, 8443
8215, 8391, 8392, 8447, 8446
8216, 8392, 8393, 8448, 8447
8217, 8393, 8394, 8449, 8448
8218, 8447, 8448, 8449, 8446
8219, 8394, 8395, 8450, 8449
8220, 8395, 8396, 8451, 8450
8221, 8396, 8397, 8452, 8451
8222, 8450, 8451, 8452, 8449
8223, 8397, 8398, 8453, 8452
8224, 8398, 8399, 8454, 8453
8225, 8399, 8400, 8455, 8454
8226, 8453, 8454, 8455, 8452
8227, 8400, 8401, 8456, 8455
8228, 8401, 8402, 8457, 8456
8229, 8402, 8403, 8458, 8457
8230, 8456, 8457, 8458, 8455
8231, 8403, 8404, 8459, 8458
8232, 8404, 8405, 8460, 8459
8233, 8405, 8406, 8461, 8460
8234, 8459, 8460, 8461, 8458
8235, 8406, 8407, 8462, 8461
8236, 8407, 8408, 8463, 8462
8237, 8408, 8409, 8464, 8463
8238, 8462, 8463, 8464, 8461
8239, 8409, 8410, 8465, 8464
8240, 8410, 8411, 8466, 8465
8241, 8411, 8412, 8467, 8466
8242, 8465, 8466, 8467, 8464
8243, 8414, 8416, 8468, 8469
8244, 8416, 8419, 8470, 8468
8245, 8419, 8422, 8471, 8470
8246, 8422, 8425, 8472, 8471
8247, 8425, 8428, 8473, 8472
8248, 8428, 8431, 8474, 8473
8249, 8431, 8434, 8475, 8474
8250, 8434, 8437, 8476, 8475
8251, 8437, 8440, 8477, 8476
8252, 8440, 8443, 8478, 8477
8253, 8443, 8446, 8479, 8478
8254, 8446, 8449, 8480, 8479
8255, 8449, 8452, 8481, 8480
8256, 8452, 8455, 8482, 8481
8257, 8455, 8458, 8483, 8482
8258, 8458, 8461, 8484, 8483
8259, 8461, 8464, 8485, 8484
8260, 8464, 8467, 8486, 8485
8261, 8469, 8468, 8487, 8488
8262, 8468, 8470, 8489, 8487
8263, 8470, 8471, 8490, 8489
8264, 8471, 8472, 8491, 8490
8265, 8472, 8473, 8492, 8491
8266, 8473, 8474, 8493, 8492
8267, 8474, 8475, 8494, 8493
8268, 8475, 8476, 8495, 8494
8269, 8476, 8477, 8496, 8495
8270, 8477, 8478, 8497, 8496
8271, 8478, 8479, 8498, 8497
8272, 8479, 8480, 8499, 8498
8273, 8480, 8481, 8500, 8499
8274, 8481, 8482, 8501, 8500
8275, 8482, 8483, 8502, 8501
8276, 8483, 8484, 8503, 8502
8277, 8484, 8485, 8504, 8503
8278, 8485, 8486, 8505, 8504
8279, 8488, 8487, 8506, 8507
8280, 8487, 8489, 8508, 8506
8281, 8489, 8490, 8509, 8508
8282, 8490, 8491, 8510, 8509
8283, 8491, 8492, 8511, 8510
8284, 8492, 8493, 8512, 8511
8285, 8493, 8494, 8513, 8512
8286, 8494, 8495, 8514, 8513
8287, 8495, 8496, 8515, 8514
8288, 8496, 8497, 8516, 8515
8289, 8497, 8498, 8517, 8516
8290, 8498, 8499, 8518, 8517
8291, 8499, 8500, 8519, 8518
8292, 8500, 8501, 8520, 8519
8293, 8501, 8502, 8521, 8520
8294, 8502, 8503, 8522, 8521
8295, 8503, 8504, 8523, 8522
8296, 8504, 8505, 8524, 8523
8297, 8507, 8506, 8525, 8526
8298, 8506, 8508, 8527, 8525
8299, 8508, 8509, 8528, 8527
8300, 8509, 8510, 8529, 8528
8301, 8510, 8511, 8530, 8529
8302, 8511, 8512, 8531, 8530
8303, 8512, 8513, 8532, 8531
8304, 8513, 8514, 8533, 8532
8305, 8514, 8515, 8534, 8533
8306, 8515, 8516, 8535, 8534
8307, 8516, 8517, 8536, 8535
8308, 8517, 8518, 8537, 8536
8309, 8518, 8519, 8538, 8537
8310, 8519, 8520, 8539, 8538
8311, 8520, 8521, 8540, 8539
8312, 8521, 8522, 8541, 8540
8313, 8522, 8523, 8542, 8541
8314, 8523, 8524, 8543, 8542
8315, 8526, 8525, 8544, 8545
8316, 8525, 8527, 8546, 8544
8317, 8527, 8528, 8547, 8546
8318, 8528, 8529, 8548, 8547
8319, 8529, 8530, 8549, 8548
8320, 8530, 8531, 8550, 8549
8321, 8531, 8532, 8551, 8550
8322, 8532, 8533, 8552, 8551
8323, 8533, 8534, 8553, 8552
8324, 8534, 8535, 8554, 8553
8325, 8535, 8536, 8555, 8554
8326, 8536, 8537, 8556, 8555
8327, 8537, 8538, 8557, 8556
8328, 8538, 8539, 8558, 8557
8329, 8539, 8540, 8559, 8558
8330, 8540, 8541, 8560, 8559
8331, 8541, 8542, 8561, 8560
8332, 8542, 8543, 8562, 8561
8333, 8545, 8544, 8563, 8564
8334, 8544, 8546, 8565, 8563
8335, 8546, 8547, 8566, 8565
8336, 8547, 8548, 8567, 8566
8337, 8548, 8549, 8568, 8567
8338, 8549, 8550, 8569, 8568
8339, 8550, 8551, 8570, 8569
8340, 8551, 8552, 8571, 8570
8341, 8552, 8553, 8572, 8571
8342, 8553, 8554, 8573, 8572
8343, 8554, 8555, 8574, 8573
8344, 8555, 8556, 8575, 8574
8345, 8556, 8557, 8576, 8575
8346, 8557, 8558, 8577, 8576
8347, 8558, 8559, 8578, 8577
8348, 8559, 8560, 8579, 8578
8349, 8560, 8561, 8580, 8579
8350, 8561, 8562, 8581, 8580
8351, 8564, 8563, 8582, 8583
8352, 8563, 8565, 8584, 8582
8353, 8565, 8566, 8585, 8584
8354, 8582, 8584, 8585, 8583
8355, 8566, 8567, 8586, 8585
8356, 8567, 8568, 8587, 8586
8357, 8568, 8569, 8588, 8587
8358, 8586, 8587, 8588, 8585
8359, 8569, 8570, 8589, 8588
8360, 8570, 8571, 8590, 8589
8361, 8571, 8572, 8591, 8590
8362, 8589, 8590, 8591, 8588
8363, 8572, 8573, 8592, 8591
8364, 8573, 8574, 8593, 8592
8365, 8574, 8575, 8594, 8593
8366, 8592, 8593, 8594, 8591
8367, 8575, 8576, 8595, 8594
8368, 8576, 8577, 8596, 8595
8369, 8577, 8578, 8597, 8596
8370, 8595, 8596, 8597, 8594
8371, 8578, 8579, 8598, 8597
8372, 8579, 8580, 8599, 8598
8373, 8580, 8581, 8600, 8599
8374, 8598, 8599, 8600, 8597
8375, 8583, 8585, 8603, 8602
8376, 8585, 8588, 8604, 8603
8377, 8588, 8591, 8605, 8604
8378, 8591, 8594, 8606, 8605
8379, 8594, 8597, 8607, 8606
8380, 8597, 8600, 8608, 8607
8381, 8601, 8602, 8603, 8604
8382, 8601, 8604, 8605, 8606
8383, 8601, 8606, 8607, 8608
*Elset, elset=Set-8, generate
    1,  8383,     1
** Section: Material
*Solid Section, elset=Set-8, material=Material
,
*End Part
**  
*Part, name=FLAT
*Node
      1,  -1.79999995,           0.
      2,  -1.77999997,           0.
      3,  -1.77999997, -0.0199999996
      4,  -1.79999995, -0.0199999996
      5,  -1.75999999,           0.
      6,  -1.75999999, -0.0199999996
      7,  -1.74000001,           0.
      8,  -1.74000001, -0.0199999996
      9,  -1.72000003,           0.
     10,  -1.72000003, -0.0199999996
     11,  -1.70000005,           0.
     12,  -1.70000005, -0.0199999996
     13,  -1.67999995,           0.
     14,  -1.67999995, -0.0199999996
     15,  -1.65999997,           0.
     16,  -1.65999997, -0.0199999996
     17,  -1.63999999,           0.
     18,  -1.63999999, -0.0199999996
     19,        -1.62,           0.
     20,        -1.62, -0.0199999996
     21,  -1.60000002,           0.
     22,  -1.60000002, -0.0199999996
     23,  -1.58000004,           0.
     24,  -1.58000004, -0.0199999996
     25,  -1.55999994,           0.
     26,  -1.55999994, -0.0199999996
     27,  -1.53999996,           0.
     28,  -1.53999996, -0.0199999996
     29,  -1.51999998,           0.
     30,  -1.51999998, -0.0199999996
     31,         -1.5,           0.
     32,         -1.5, -0.0199999996
     33,  -1.48000002,           0.
     34,  -1.48000002, -0.0199999996
     35,  -1.46000004,           0.
     36,  -1.46000004, -0.0199999996
     37,  -1.44000006,           0.
     38,  -1.44000006, -0.0199999996
     39,  -1.41999996,           0.
     40,  -1.41999996, -0.0199999996
     41,  -1.39999998,           0.
     42,  -1.39999998, -0.0199999996
     43,        -1.38,           0.
     44,        -1.38, -0.0199999996
     45,  -1.36000001,           0.
     46,  -1.36000001, -0.0199999996
     47,  -1.34000003,           0.
     48,  -1.34000003, -0.0199999996
     49,  -1.32000005,           0.
     50,  -1.32000005, -0.0199999996
     51,  -1.29999995,           0.
     52,  -1.29999995, -0.0199999996
     53,  -1.27999997,           0.
     54,  -1.27999997, -0.0199999996
     55,  -1.25999999,           0.
     56,  -1.25999999, -0.0199999996
     57,  -1.24000001,           0.
     58,  -1.24000001, -0.0199999996
     59,  -1.22000003,           0.
     60,  -1.22000003, -0.0199999996
     61,  -1.20000005,           0.
     62,  -1.20000005, -0.0199999996
     63,  -1.17999995,           0.
     64,  -1.17999995, -0.0199999996
     65,  -1.15999997,           0.
     66,  -1.15999997, -0.0199999996
     67,  -1.13999999,           0.
     68,  -1.13999999, -0.0199999996
     69,        -1.12,           0.
     70,        -1.12, -0.0199999996
     71,  -1.10000002,           0.
     72,  -1.10000002, -0.0199999996
     73,  -1.08000004,           0.
     74,  -1.08000004, -0.0199999996
     75,  -1.05999994,           0.
     76,  -1.05999994, -0.0199999996
     77,  -1.03999996,           0.
     78,  -1.03999996, -0.0199999996
     79,  -1.01999998,           0.
     80,  -1.01999998, -0.0199999996
     81,          -1.,           0.
     82,          -1., -0.0199999996
     83, -0.980000019,           0.
     84, -0.980000019, -0.0199999996
     85, -0.959999979,           0.
     86, -0.959999979, -0.0199999996
     87, -0.939999998,           0.
     88, -0.939999998, -0.0199999996
     89, -0.920000017,           0.
     90, -0.920000017, -0.0199999996
     91, -0.899999976,           0.
     92, -0.899999976, -0.0199999996
     93, -0.879999995,           0.
     94, -0.879999995, -0.0199999996
     95, -0.860000014,           0.
     96, -0.860000014, -0.0199999996
     97, -0.839999974,           0.
     98, -0.839999974, -0.0199999996
     99, -0.819999993,           0.
    100, -0.819999993, -0.0199999996
    101, -0.800000012,           0.
    102, -0.800000012, -0.0199999996
    103, -0.779999971,           0.
    104, -0.779999971, -0.0199999996
    105,  -0.75999999,           0.
    106,  -0.75999999, -0.0199999996
    107,  -0.74000001,           0.
    108,  -0.74000001, -0.0199999996
    109, -0.720000029,           0.
    110, -0.720000029, -0.0199999996
    111, -0.699999988,           0.
    112, -0.699999988, -0.0199999996
    113, -0.680000007,           0.
    114, -0.680000007, -0.0199999996
    115, -0.660000026,           0.
    116, -0.660000026, -0.0199999996
    117, -0.639999986,           0.
    118, -0.639999986, -0.0199999996
    119, -0.620000005,           0.
    120, -0.620000005, -0.0199999996
    121, -0.600000024,           0.
    122, -0.600000024, -0.0199999996
    123, -0.579999983,           0.
    124, -0.579999983, -0.0199999996
    125, -0.560000002,           0.
    126, -0.560000002, -0.0199999996
    127, -0.540000021,           0.
    128, -0.540000021, -0.0199999996
    129, -0.519999981,           0.
    130, -0.519999981, -0.0199999996
    131,         -0.5,           0.
    132,         -0.5, -0.0199999996
    133, -0.479999989,           0.
    134, -0.479999989, -0.0199999996
    135, -0.460000008,           0.
    136, -0.460000008, -0.0199999996
    137, -0.439999998,           0.
    138, -0.439999998, -0.0199999996
    139, -0.419999987,           0.
    140, -0.419999987, -0.0199999996
    141, -0.400000006,           0.
    142, -0.400000006, -0.0199999996
    143, -0.379999995,           0.
    144, -0.379999995, -0.0199999996
    145, -0.360000014,           0.
    146, -0.360000014, -0.0199999996
    147, -0.340000004,           0.
    148, -0.340000004, -0.0199999996
    149, -0.319999993,           0.
    150, -0.319999993, -0.0199999996
    151, -0.300000012,           0.
    152, -0.300000012, -0.0199999996
    153, -0.280000001,           0.
    154, -0.280000001, -0.0199999996
    155,  -0.25999999,           0.
    156,  -0.25999999, -0.0199999996
    157, -0.239999995,           0.
    158, -0.239999995, -0.0199999996
    159, -0.219999999,           0.
    160, -0.219999999, -0.0199999996
    161, -0.200000003,           0.
    162, -0.200000003, -0.0199999996
    163, -0.180000007,           0.
    164, -0.180000007, -0.0199999996
    165, -0.159999996,           0.
    166, -0.159999996, -0.0199999996
    167, -0.140000001,           0.
    168, -0.140000001, -0.0199999996
    169, -0.119999997,           0.
    170, -0.119999997, -0.0199999996
    171, -0.100000001,           0.
    172, -0.100000001, -0.0199999996
    173, -0.0799999982,           0.
    174, -0.0799999982, -0.0199999996
    175, -0.0599999987,           0.
    176, -0.0599999987, -0.0199999996
    177, -0.0399999991,           0.
    178, -0.0399999991, -0.0199999996
    179, -0.0199999996,           0.
    180, -0.0199999996, -0.0199999996
    181,           0.,           0.
    182,           0., -0.0199999996
    183, 0.0199999996,           0.
    184, 0.0199999996, -0.0199999996
    185, 0.0399999991,           0.
    186, 0.0399999991, -0.0199999996
    187, 0.0599999987,           0.
    188, 0.0599999987, -0.0199999996
    189, 0.0799999982,           0.
    190, 0.0799999982, -0.0199999996
    191,  0.100000001,           0.
    192,  0.100000001, -0.0199999996
    193,  0.119999997,           0.
    194,  0.119999997, -0.0199999996
    195,  0.140000001,           0.
    196,  0.140000001, -0.0199999996
    197,  0.159999996,           0.
    198,  0.159999996, -0.0199999996
    199,  0.180000007,           0.
    200,  0.180000007, -0.0199999996
    201,  0.200000003,           0.
    202,  0.200000003, -0.0199999996
    203,  0.219999999,           0.
    204,  0.219999999, -0.0199999996
    205,  0.239999995,           0.
    206,  0.239999995, -0.0199999996
    207,   0.25999999,           0.
    208,   0.25999999, -0.0199999996
    209,  0.280000001,           0.
    210,  0.280000001, -0.0199999996
    211,  0.300000012,           0.
    212,  0.300000012, -0.0199999996
    213,  0.319999993,           0.
    214,  0.319999993, -0.0199999996
    215,  0.340000004,           0.
    216,  0.340000004, -0.0199999996
    217,  0.360000014,           0.
    218,  0.360000014, -0.0199999996
    219,  0.379999995,           0.
    220,  0.379999995, -0.0199999996
    221,  0.400000006,           0.
    222,  0.400000006, -0.0199999996
    223,  0.419999987,           0.
    224,  0.419999987, -0.0199999996
    225,  0.439999998,           0.
    226,  0.439999998, -0.0199999996
    227,  0.460000008,           0.
    228,  0.460000008, -0.0199999996
    229,  0.479999989,           0.
    230,  0.479999989, -0.0199999996
    231,          0.5,           0.
    232,          0.5, -0.0199999996
    233,  0.519999981,           0.
    234,  0.519999981, -0.0199999996
    235,  0.540000021,           0.
    236,  0.540000021, -0.0199999996
    237,  0.560000002,           0.
    238,  0.560000002, -0.0199999996
    239,  0.579999983,           0.
    240,  0.579999983, -0.0199999996
    241,  0.600000024,           0.
    242,  0.600000024, -0.0199999996
    243,  0.620000005,           0.
    244,  0.620000005, -0.0199999996
    245,  0.639999986,           0.
    246,  0.639999986, -0.0199999996
    247,  0.660000026,           0.
    248,  0.660000026, -0.0199999996
    249,  0.680000007,           0.
    250,  0.680000007, -0.0199999996
    251,  0.699999988,           0.
    252,  0.699999988, -0.0199999996
    253,  0.720000029,           0.
    254,  0.720000029, -0.0199999996
    255,   0.74000001,           0.
    256,   0.74000001, -0.0199999996
    257,   0.75999999,           0.
    258,   0.75999999, -0.0199999996
    259,  0.779999971,           0.
    260,  0.779999971, -0.0199999996
    261,  0.800000012,           0.
    262,  0.800000012, -0.0199999996
    263,  0.819999993,           0.
    264,  0.819999993, -0.0199999996
    265,  0.839999974,           0.
    266,  0.839999974, -0.0199999996
    267,  0.860000014,           0.
    268,  0.860000014, -0.0199999996
    269,  0.879999995,           0.
    270,  0.879999995, -0.0199999996
    271,  0.899999976,           0.
    272,  0.899999976, -0.0199999996
    273,  0.920000017,           0.
    274,  0.920000017, -0.0199999996
    275,  0.939999998,           0.
    276,  0.939999998, -0.0199999996
    277,  0.959999979,           0.
    278,  0.959999979, -0.0199999996
    279,  0.980000019,           0.
    280,  0.980000019, -0.0199999996
    281,           1.,           0.
    282,           1., -0.0199999996
    283,   1.01999998,           0.
    284,   1.01999998, -0.0199999996
    285,   1.03999996,           0.
    286,   1.03999996, -0.0199999996
    287,   1.05999994,           0.
    288,   1.05999994, -0.0199999996
    289,   1.08000004,           0.
    290,   1.08000004, -0.0199999996
    291,   1.10000002,           0.
    292,   1.10000002, -0.0199999996
    293,         1.12,           0.
    294,         1.12, -0.0199999996
    295,   1.13999999,           0.
    296,   1.13999999, -0.0199999996
    297,   1.15999997,           0.
    298,   1.15999997, -0.0199999996
    299,   1.17999995,           0.
    300,   1.17999995, -0.0199999996
    301,   1.20000005,           0.
    302,   1.20000005, -0.0199999996
    303,   1.22000003,           0.
    304,   1.22000003, -0.0199999996
    305,   1.24000001,           0.
    306,   1.24000001, -0.0199999996
    307,   1.25999999,           0.
    308,   1.25999999, -0.0199999996
    309,   1.27999997,           0.
    310,   1.27999997, -0.0199999996
    311,   1.29999995,           0.
    312,   1.29999995, -0.0199999996
    313,   1.32000005,           0.
    314,   1.32000005, -0.0199999996
    315,   1.34000003,           0.
    316,   1.34000003, -0.0199999996
    317,   1.36000001,           0.
    318,   1.36000001, -0.0199999996
    319,         1.38,           0.
    320,         1.38, -0.0199999996
    321,   1.39999998,           0.
    322,   1.39999998, -0.0199999996
    323,   1.41999996,           0.
    324,   1.41999996, -0.0199999996
    325,   1.44000006,           0.
    326,   1.44000006, -0.0199999996
    327,   1.46000004,           0.
    328,   1.46000004, -0.0199999996
    329,   1.48000002,           0.
    330,   1.48000002, -0.0199999996
    331,          1.5,           0.
    332,          1.5, -0.0199999996
    333,   1.51999998,           0.
    334,   1.51999998, -0.0199999996
    335,   1.53999996,           0.
    336,   1.53999996, -0.0199999996
    337,   1.55999994,           0.
    338,   1.55999994, -0.0199999996
    339,   1.58000004,           0.
    340,   1.58000004, -0.0199999996
    341,   1.60000002,           0.
    342,   1.60000002, -0.0199999996
    343,         1.62,           0.
    344,         1.62, -0.0199999996
    345,   1.63999999,           0.
    346,   1.63999999, -0.0199999996
    347,   1.65999997,           0.
    348,   1.65999997, -0.0199999996
    349,   1.67999995,           0.
    350,   1.67999995, -0.0199999996
    351,   1.70000005,           0.
    352,   1.70000005, -0.0199999996
    353,   1.72000003,           0.
    354,   1.72000003, -0.0199999996
    355,   1.74000001,           0.
    356,   1.74000001, -0.0199999996
    357,   1.75999999,           0.
    358,   1.75999999, -0.0199999996
    359,   1.77999997,           0.
    360,   1.77999997, -0.0199999996
    361,   1.79999995,           0.
    362,   1.79999995, -0.0199999996
    363,  -1.77999997, -0.0399999991
    364,  -1.79999995, -0.0399999991
    365,  -1.75999999, -0.0399999991
    366,  -1.74000001, -0.0399999991
    367,  -1.72000003, -0.0399999991
    368,  -1.70000005, -0.0399999991
    369,  -1.67999995, -0.0399999991
    370,  -1.65999997, -0.0399999991
    371,  -1.63999999, -0.0399999991
    372,        -1.62, -0.0399999991
    373,  -1.60000002, -0.0399999991
    374,  -1.58000004, -0.0399999991
    375,  -1.55999994, -0.0399999991
    376,  -1.53999996, -0.0399999991
    377,  -1.51999998, -0.0399999991
    378,         -1.5, -0.0399999991
    379,  -1.48000002, -0.0399999991
    380,  -1.46000004, -0.0399999991
    381,  -1.44000006, -0.0399999991
    382,  -1.41999996, -0.0399999991
    383,  -1.39999998, -0.0399999991
    384,        -1.38, -0.0399999991
    385,  -1.36000001, -0.0399999991
    386,  -1.34000003, -0.0399999991
    387,  -1.32000005, -0.0399999991
    388,  -1.29999995, -0.0399999991
    389,  -1.27999997, -0.0399999991
    390,  -1.25999999, -0.0399999991
    391,  -1.24000001, -0.0399999991
    392,  -1.22000003, -0.0399999991
    393,  -1.20000005, -0.0399999991
    394,  -1.17999995, -0.0399999991
    395,  -1.15999997, -0.0399999991
    396,  -1.13999999, -0.0399999991
    397,        -1.12, -0.0399999991
    398,  -1.10000002, -0.0399999991
    399,  -1.08000004, -0.0399999991
    400,  -1.05999994, -0.0399999991
    401,  -1.03999996, -0.0399999991
    402,  -1.01999998, -0.0399999991
    403,          -1., -0.0399999991
    404, -0.980000019, -0.0399999991
    405, -0.959999979, -0.0399999991
    406, -0.939999998, -0.0399999991
    407, -0.920000017, -0.0399999991
    408, -0.899999976, -0.0399999991
    409, -0.879999995, -0.0399999991
    410, -0.860000014, -0.0399999991
    411, -0.839999974, -0.0399999991
    412, -0.819999993, -0.0399999991
    413, -0.800000012, -0.0399999991
    414, -0.779999971, -0.0399999991
    415,  -0.75999999, -0.0399999991
    416,  -0.74000001, -0.0399999991
    417, -0.720000029, -0.0399999991
    418, -0.699999988, -0.0399999991
    419, -0.680000007, -0.0399999991
    420, -0.660000026, -0.0399999991
    421, -0.639999986, -0.0399999991
    422, -0.620000005, -0.0399999991
    423, -0.600000024, -0.0399999991
    424, -0.579999983, -0.0399999991
    425, -0.560000002, -0.0399999991
    426, -0.540000021, -0.0399999991
    427, -0.519999981, -0.0399999991
    428,         -0.5, -0.0399999991
    429, -0.479999989, -0.0399999991
    430, -0.460000008, -0.0399999991
    431, -0.439999998, -0.0399999991
    432, -0.419999987, -0.0399999991
    433, -0.400000006, -0.0399999991
    434, -0.379999995, -0.0399999991
    435, -0.360000014, -0.0399999991
    436, -0.340000004, -0.0399999991
    437, -0.319999993, -0.0399999991
    438, -0.300000012, -0.0399999991
    439, -0.280000001, -0.0399999991
    440,  -0.25999999, -0.0399999991
    441, -0.239999995, -0.0399999991
    442, -0.219999999, -0.0399999991
    443, -0.200000003, -0.0399999991
    444, -0.180000007, -0.0399999991
    445, -0.159999996, -0.0399999991
    446, -0.140000001, -0.0399999991
    447, -0.119999997, -0.0399999991
    448, -0.100000001, -0.0399999991
    449, -0.0799999982, -0.0399999991
    450, -0.0599999987, -0.0399999991
    451, -0.0399999991, -0.0399999991
    452, -0.0199999996, -0.0399999991
    453,           0., -0.0399999991
    454, 0.0199999996, -0.0399999991
    455, 0.0399999991, -0.0399999991
    456, 0.0599999987, -0.0399999991
    457, 0.0799999982, -0.0399999991
    458,  0.100000001, -0.0399999991
    459,  0.119999997, -0.0399999991
    460,  0.140000001, -0.0399999991
    461,  0.159999996, -0.0399999991
    462,  0.180000007, -0.0399999991
    463,  0.200000003, -0.0399999991
    464,  0.219999999, -0.0399999991
    465,  0.239999995, -0.0399999991
    466,   0.25999999, -0.0399999991
    467,  0.280000001, -0.0399999991
    468,  0.300000012, -0.0399999991
    469,  0.319999993, -0.0399999991
    470,  0.340000004, -0.0399999991
    471,  0.360000014, -0.0399999991
    472,  0.379999995, -0.0399999991
    473,  0.400000006, -0.0399999991
    474,  0.419999987, -0.0399999991
    475,  0.439999998, -0.0399999991
    476,  0.460000008, -0.0399999991
    477,  0.479999989, -0.0399999991
    478,          0.5, -0.0399999991
    479,  0.519999981, -0.0399999991
    480,  0.540000021, -0.0399999991
    481,  0.560000002, -0.0399999991
    482,  0.579999983, -0.0399999991
    483,  0.600000024, -0.0399999991
    484,  0.620000005, -0.0399999991
    485,  0.639999986, -0.0399999991
    486,  0.660000026, -0.0399999991
    487,  0.680000007, -0.0399999991
    488,  0.699999988, -0.0399999991
    489,  0.720000029, -0.0399999991
    490,   0.74000001, -0.0399999991
    491,   0.75999999, -0.0399999991
    492,  0.779999971, -0.0399999991
    493,  0.800000012, -0.0399999991
    494,  0.819999993, -0.0399999991
    495,  0.839999974, -0.0399999991
    496,  0.860000014, -0.0399999991
    497,  0.879999995, -0.0399999991
    498,  0.899999976, -0.0399999991
    499,  0.920000017, -0.0399999991
    500,  0.939999998, -0.0399999991
    501,  0.959999979, -0.0399999991
    502,  0.980000019, -0.0399999991
    503,           1., -0.0399999991
    504,   1.01999998, -0.0399999991
    505,   1.03999996, -0.0399999991
    506,   1.05999994, -0.0399999991
    507,   1.08000004, -0.0399999991
    508,   1.10000002, -0.0399999991
    509,         1.12, -0.0399999991
    510,   1.13999999, -0.0399999991
    511,   1.15999997, -0.0399999991
    512,   1.17999995, -0.0399999991
    513,   1.20000005, -0.0399999991
    514,   1.22000003, -0.0399999991
    515,   1.24000001, -0.0399999991
    516,   1.25999999, -0.0399999991
    517,   1.27999997, -0.0399999991
    518,   1.29999995, -0.0399999991
    519,   1.32000005, -0.0399999991
    520,   1.34000003, -0.0399999991
    521,   1.36000001, -0.0399999991
    522,         1.38, -0.0399999991
    523,   1.39999998, -0.0399999991
    524,   1.41999996, -0.0399999991
    525,   1.44000006, -0.0399999991
    526,   1.46000004, -0.0399999991
    527,   1.48000002, -0.0399999991
    528,          1.5, -0.0399999991
    529,   1.51999998, -0.0399999991
    530,   1.53999996, -0.0399999991
    531,   1.55999994, -0.0399999991
    532,   1.58000004, -0.0399999991
    533,   1.60000002, -0.0399999991
    534,         1.62, -0.0399999991
    535,   1.63999999, -0.0399999991
    536,   1.65999997, -0.0399999991
    537,   1.67999995, -0.0399999991
    538,   1.70000005, -0.0399999991
    539,   1.72000003, -0.0399999991
    540,   1.74000001, -0.0399999991
    541,   1.75999999, -0.0399999991
    542,   1.77999997, -0.0399999991
    543,   1.79999995, -0.0399999991
    544,  -1.77999997, -0.0599999987
    545,  -1.79999995, -0.0599999987
    546,  -1.75999999, -0.0599999987
    547,  -1.74000001, -0.0599999987
    548,  -1.72000003, -0.0599999987
    549,  -1.70000005, -0.0599999987
    550,  -1.67999995, -0.0599999987
    551,  -1.65999997, -0.0599999987
    552,  -1.63999999, -0.0599999987
    553,        -1.62, -0.0599999987
    554,  -1.60000002, -0.0599999987
    555,  -1.58000004, -0.0599999987
    556,  -1.55999994, -0.0599999987
    557,  -1.53999996, -0.0599999987
    558,  -1.51999998, -0.0599999987
    559,         -1.5, -0.0599999987
    560,  -1.48000002, -0.0599999987
    561,  -1.46000004, -0.0599999987
    562,  -1.44000006, -0.0599999987
    563,  -1.41999996, -0.0599999987
    564,  -1.39999998, -0.0599999987
    565,        -1.38, -0.0599999987
    566,  -1.36000001, -0.0599999987
    567,  -1.34000003, -0.0599999987
    568,  -1.32000005, -0.0599999987
    569,  -1.29999995, -0.0599999987
    570,  -1.27999997, -0.0599999987
    571,  -1.25999999, -0.0599999987
    572,  -1.24000001, -0.0599999987
    573,  -1.22000003, -0.0599999987
    574,  -1.20000005, -0.0599999987
    575,  -1.17999995, -0.0599999987
    576,  -1.15999997, -0.0599999987
    577,  -1.13999999, -0.0599999987
    578,        -1.12, -0.0599999987
    579,  -1.10000002, -0.0599999987
    580,  -1.08000004, -0.0599999987
    581,  -1.05999994, -0.0599999987
    582,  -1.03999996, -0.0599999987
    583,  -1.01999998, -0.0599999987
    584,          -1., -0.0599999987
    585, -0.980000019, -0.0599999987
    586, -0.959999979, -0.0599999987
    587, -0.939999998, -0.0599999987
    588, -0.920000017, -0.0599999987
    589, -0.899999976, -0.0599999987
    590, -0.879999995, -0.0599999987
    591, -0.860000014, -0.0599999987
    592, -0.839999974, -0.0599999987
    593, -0.819999993, -0.0599999987
    594, -0.800000012, -0.0599999987
    595, -0.779999971, -0.0599999987
    596,  -0.75999999, -0.0599999987
    597,  -0.74000001, -0.0599999987
    598, -0.720000029, -0.0599999987
    599, -0.699999988, -0.0599999987
    600, -0.680000007, -0.0599999987
    601, -0.660000026, -0.0599999987
    602, -0.639999986, -0.0599999987
    603, -0.620000005, -0.0599999987
    604, -0.600000024, -0.0599999987
    605, -0.579999983, -0.0599999987
    606, -0.560000002, -0.0599999987
    607, -0.540000021, -0.0599999987
    608, -0.519999981, -0.0599999987
    609,         -0.5, -0.0599999987
    610, -0.479999989, -0.0599999987
    611, -0.460000008, -0.0599999987
    612, -0.439999998, -0.0599999987
    613, -0.419999987, -0.0599999987
    614, -0.400000006, -0.0599999987
    615, -0.379999995, -0.0599999987
    616, -0.360000014, -0.0599999987
    617, -0.340000004, -0.0599999987
    618, -0.319999993, -0.0599999987
    619, -0.300000012, -0.0599999987
    620, -0.280000001, -0.0599999987
    621,  -0.25999999, -0.0599999987
    622, -0.239999995, -0.0599999987
    623, -0.219999999, -0.0599999987
    624, -0.200000003, -0.0599999987
    625, -0.180000007, -0.0599999987
    626, -0.159999996, -0.0599999987
    627, -0.140000001, -0.0599999987
    628, -0.119999997, -0.0599999987
    629, -0.100000001, -0.0599999987
    630, -0.0799999982, -0.0599999987
    631, -0.0599999987, -0.0599999987
    632, -0.0399999991, -0.0599999987
    633, -0.0199999996, -0.0599999987
    634,           0., -0.0599999987
    635, 0.0199999996, -0.0599999987
    636, 0.0399999991, -0.0599999987
    637, 0.0599999987, -0.0599999987
    638, 0.0799999982, -0.0599999987
    639,  0.100000001, -0.0599999987
    640,  0.119999997, -0.0599999987
    641,  0.140000001, -0.0599999987
    642,  0.159999996, -0.0599999987
    643,  0.180000007, -0.0599999987
    644,  0.200000003, -0.0599999987
    645,  0.219999999, -0.0599999987
    646,  0.239999995, -0.0599999987
    647,   0.25999999, -0.0599999987
    648,  0.280000001, -0.0599999987
    649,  0.300000012, -0.0599999987
    650,  0.319999993, -0.0599999987
    651,  0.340000004, -0.0599999987
    652,  0.360000014, -0.0599999987
    653,  0.379999995, -0.0599999987
    654,  0.400000006, -0.0599999987
    655,  0.419999987, -0.0599999987
    656,  0.439999998, -0.0599999987
    657,  0.460000008, -0.0599999987
    658,  0.479999989, -0.0599999987
    659,          0.5, -0.0599999987
    660,  0.519999981, -0.0599999987
    661,  0.540000021, -0.0599999987
    662,  0.560000002, -0.0599999987
    663,  0.579999983, -0.0599999987
    664,  0.600000024, -0.0599999987
    665,  0.620000005, -0.0599999987
    666,  0.639999986, -0.0599999987
    667,  0.660000026, -0.0599999987
    668,  0.680000007, -0.0599999987
    669,  0.699999988, -0.0599999987
    670,  0.720000029, -0.0599999987
    671,   0.74000001, -0.0599999987
    672,   0.75999999, -0.0599999987
    673,  0.779999971, -0.0599999987
    674,  0.800000012, -0.0599999987
    675,  0.819999993, -0.0599999987
    676,  0.839999974, -0.0599999987
    677,  0.860000014, -0.0599999987
    678,  0.879999995, -0.0599999987
    679,  0.899999976, -0.0599999987
    680,  0.920000017, -0.0599999987
    681,  0.939999998, -0.0599999987
    682,  0.959999979, -0.0599999987
    683,  0.980000019, -0.0599999987
    684,           1., -0.0599999987
    685,   1.01999998, -0.0599999987
    686,   1.03999996, -0.0599999987
    687,   1.05999994, -0.0599999987
    688,   1.08000004, -0.0599999987
    689,   1.10000002, -0.0599999987
    690,         1.12, -0.0599999987
    691,   1.13999999, -0.0599999987
    692,   1.15999997, -0.0599999987
    693,   1.17999995, -0.0599999987
    694,   1.20000005, -0.0599999987
    695,   1.22000003, -0.0599999987
    696,   1.24000001, -0.0599999987
    697,   1.25999999, -0.0599999987
    698,   1.27999997, -0.0599999987
    699,   1.29999995, -0.0599999987
    700,   1.32000005, -0.0599999987
    701,   1.34000003, -0.0599999987
    702,   1.36000001, -0.0599999987
    703,         1.38, -0.0599999987
    704,   1.39999998, -0.0599999987
    705,   1.41999996, -0.0599999987
    706,   1.44000006, -0.0599999987
    707,   1.46000004, -0.0599999987
    708,   1.48000002, -0.0599999987
    709,          1.5, -0.0599999987
    710,   1.51999998, -0.0599999987
    711,   1.53999996, -0.0599999987
    712,   1.55999994, -0.0599999987
    713,   1.58000004, -0.0599999987
    714,   1.60000002, -0.0599999987
    715,         1.62, -0.0599999987
    716,   1.63999999, -0.0599999987
    717,   1.65999997, -0.0599999987
    718,   1.67999995, -0.0599999987
    719,   1.70000005, -0.0599999987
    720,   1.72000003, -0.0599999987
    721,   1.74000001, -0.0599999987
    722,   1.75999999, -0.0599999987
    723,   1.77999997, -0.0599999987
    724,   1.79999995, -0.0599999987
    725,  -1.77999997, -0.0799999982
    726,  -1.79999995, -0.0799999982
    727,  -1.75999999, -0.0799999982
    728,  -1.74000001, -0.0799999982
    729,  -1.72000003, -0.0799999982
    730,  -1.70000005, -0.0799999982
    731,  -1.67999995, -0.0799999982
    732,  -1.65999997, -0.0799999982
    733,  -1.63999999, -0.0799999982
    734,        -1.62, -0.0799999982
    735,  -1.60000002, -0.0799999982
    736,  -1.58000004, -0.0799999982
    737,  -1.55999994, -0.0799999982
    738,  -1.53999996, -0.0799999982
    739,  -1.51999998, -0.0799999982
    740,         -1.5, -0.0799999982
    741,  -1.48000002, -0.0799999982
    742,  -1.46000004, -0.0799999982
    743,  -1.44000006, -0.0799999982
    744,  -1.41999996, -0.0799999982
    745,  -1.39999998, -0.0799999982
    746,        -1.38, -0.0799999982
    747,  -1.36000001, -0.0799999982
    748,  -1.34000003, -0.0799999982
    749,  -1.32000005, -0.0799999982
    750,  -1.29999995, -0.0799999982
    751,  -1.27999997, -0.0799999982
    752,  -1.25999999, -0.0799999982
    753,  -1.24000001, -0.0799999982
    754,  -1.22000003, -0.0799999982
    755,  -1.20000005, -0.0799999982
    756,  -1.17999995, -0.0799999982
    757,  -1.15999997, -0.0799999982
    758,  -1.13999999, -0.0799999982
    759,        -1.12, -0.0799999982
    760,  -1.10000002, -0.0799999982
    761,  -1.08000004, -0.0799999982
    762,  -1.05999994, -0.0799999982
    763,  -1.03999996, -0.0799999982
    764,  -1.01999998, -0.0799999982
    765,          -1., -0.0799999982
    766, -0.980000019, -0.0799999982
    767, -0.959999979, -0.0799999982
    768, -0.939999998, -0.0799999982
    769, -0.920000017, -0.0799999982
    770, -0.899999976, -0.0799999982
    771, -0.879999995, -0.0799999982
    772, -0.860000014, -0.0799999982
    773, -0.839999974, -0.0799999982
    774, -0.819999993, -0.0799999982
    775, -0.800000012, -0.0799999982
    776, -0.779999971, -0.0799999982
    777,  -0.75999999, -0.0799999982
    778,  -0.74000001, -0.0799999982
    779, -0.720000029, -0.0799999982
    780, -0.699999988, -0.0799999982
    781, -0.680000007, -0.0799999982
    782, -0.660000026, -0.0799999982
    783, -0.639999986, -0.0799999982
    784, -0.620000005, -0.0799999982
    785, -0.600000024, -0.0799999982
    786, -0.579999983, -0.0799999982
    787, -0.560000002, -0.0799999982
    788, -0.540000021, -0.0799999982
    789, -0.519999981, -0.0799999982
    790,         -0.5, -0.0799999982
    791, -0.479999989, -0.0799999982
    792, -0.460000008, -0.0799999982
    793, -0.439999998, -0.0799999982
    794, -0.419999987, -0.0799999982
    795, -0.400000006, -0.0799999982
    796, -0.379999995, -0.0799999982
    797, -0.360000014, -0.0799999982
    798, -0.340000004, -0.0799999982
    799, -0.319999993, -0.0799999982
    800, -0.300000012, -0.0799999982
    801, -0.280000001, -0.0799999982
    802,  -0.25999999, -0.0799999982
    803, -0.239999995, -0.0799999982
    804, -0.219999999, -0.0799999982
    805, -0.200000003, -0.0799999982
    806, -0.180000007, -0.0799999982
    807, -0.159999996, -0.0799999982
    808, -0.140000001, -0.0799999982
    809, -0.119999997, -0.0799999982
    810, -0.100000001, -0.0799999982
    811, -0.0799999982, -0.0799999982
    812, -0.0599999987, -0.0799999982
    813, -0.0399999991, -0.0799999982
    814, -0.0199999996, -0.0799999982
    815,           0., -0.0799999982
    816, 0.0199999996, -0.0799999982
    817, 0.0399999991, -0.0799999982
    818, 0.0599999987, -0.0799999982
    819, 0.0799999982, -0.0799999982
    820,  0.100000001, -0.0799999982
    821,  0.119999997, -0.0799999982
    822,  0.140000001, -0.0799999982
    823,  0.159999996, -0.0799999982
    824,  0.180000007, -0.0799999982
    825,  0.200000003, -0.0799999982
    826,  0.219999999, -0.0799999982
    827,  0.239999995, -0.0799999982
    828,   0.25999999, -0.0799999982
    829,  0.280000001, -0.0799999982
    830,  0.300000012, -0.0799999982
    831,  0.319999993, -0.0799999982
    832,  0.340000004, -0.0799999982
    833,  0.360000014, -0.0799999982
    834,  0.379999995, -0.0799999982
    835,  0.400000006, -0.0799999982
    836,  0.419999987, -0.0799999982
    837,  0.439999998, -0.0799999982
    838,  0.460000008, -0.0799999982
    839,  0.479999989, -0.0799999982
    840,          0.5, -0.0799999982
    841,  0.519999981, -0.0799999982
    842,  0.540000021, -0.0799999982
    843,  0.560000002, -0.0799999982
    844,  0.579999983, -0.0799999982
    845,  0.600000024, -0.0799999982
    846,  0.620000005, -0.0799999982
    847,  0.639999986, -0.0799999982
    848,  0.660000026, -0.0799999982
    849,  0.680000007, -0.0799999982
    850,  0.699999988, -0.0799999982
    851,  0.720000029, -0.0799999982
    852,   0.74000001, -0.0799999982
    853,   0.75999999, -0.0799999982
    854,  0.779999971, -0.0799999982
    855,  0.800000012, -0.0799999982
    856,  0.819999993, -0.0799999982
    857,  0.839999974, -0.0799999982
    858,  0.860000014, -0.0799999982
    859,  0.879999995, -0.0799999982
    860,  0.899999976, -0.0799999982
    861,  0.920000017, -0.0799999982
    862,  0.939999998, -0.0799999982
    863,  0.959999979, -0.0799999982
    864,  0.980000019, -0.0799999982
    865,           1., -0.0799999982
    866,   1.01999998, -0.0799999982
    867,   1.03999996, -0.0799999982
    868,   1.05999994, -0.0799999982
    869,   1.08000004, -0.0799999982
    870,   1.10000002, -0.0799999982
    871,         1.12, -0.0799999982
    872,   1.13999999, -0.0799999982
    873,   1.15999997, -0.0799999982
    874,   1.17999995, -0.0799999982
    875,   1.20000005, -0.0799999982
    876,   1.22000003, -0.0799999982
    877,   1.24000001, -0.0799999982
    878,   1.25999999, -0.0799999982
    879,   1.27999997, -0.0799999982
    880,   1.29999995, -0.0799999982
    881,   1.32000005, -0.0799999982
    882,   1.34000003, -0.0799999982
    883,   1.36000001, -0.0799999982
    884,         1.38, -0.0799999982
    885,   1.39999998, -0.0799999982
    886,   1.41999996, -0.0799999982
    887,   1.44000006, -0.0799999982
    888,   1.46000004, -0.0799999982
    889,   1.48000002, -0.0799999982
    890,          1.5, -0.0799999982
    891,   1.51999998, -0.0799999982
    892,   1.53999996, -0.0799999982
    893,   1.55999994, -0.0799999982
    894,   1.58000004, -0.0799999982
    895,   1.60000002, -0.0799999982
    896,         1.62, -0.0799999982
    897,   1.63999999, -0.0799999982
    898,   1.65999997, -0.0799999982
    899,   1.67999995, -0.0799999982
    900,   1.70000005, -0.0799999982
    901,   1.72000003, -0.0799999982
    902,   1.74000001, -0.0799999982
    903,   1.75999999, -0.0799999982
    904,   1.77999997, -0.0799999982
    905,   1.79999995, -0.0799999982
    906,  -1.77999997, -0.100000001
    907,  -1.79999995, -0.100000001
    908,  -1.75999999, -0.100000001
    909,  -1.74000001, -0.100000001
    910,  -1.72000003, -0.100000001
    911,  -1.70000005, -0.100000001
    912,  -1.67999995, -0.100000001
    913,  -1.65999997, -0.100000001
    914,  -1.63999999, -0.100000001
    915,        -1.62, -0.100000001
    916,  -1.60000002, -0.100000001
    917,  -1.58000004, -0.100000001
    918,  -1.55999994, -0.100000001
    919,  -1.53999996, -0.100000001
    920,  -1.51999998, -0.100000001
    921,         -1.5, -0.100000001
    922,  -1.48000002, -0.100000001
    923,  -1.46000004, -0.100000001
    924,  -1.44000006, -0.100000001
    925,  -1.41999996, -0.100000001
    926,  -1.39999998, -0.100000001
    927,        -1.38, -0.100000001
    928,  -1.36000001, -0.100000001
    929,  -1.34000003, -0.100000001
    930,  -1.32000005, -0.100000001
    931,  -1.29999995, -0.100000001
    932,  -1.27999997, -0.100000001
    933,  -1.25999999, -0.100000001
    934,  -1.24000001, -0.100000001
    935,  -1.22000003, -0.100000001
    936,  -1.20000005, -0.100000001
    937,  -1.17999995, -0.100000001
    938,  -1.15999997, -0.100000001
    939,  -1.13999999, -0.100000001
    940,        -1.12, -0.100000001
    941,  -1.10000002, -0.100000001
    942,  -1.08000004, -0.100000001
    943,  -1.05999994, -0.100000001
    944,  -1.03999996, -0.100000001
    945,  -1.01999998, -0.100000001
    946,          -1., -0.100000001
    947, -0.980000019, -0.100000001
    948, -0.959999979, -0.100000001
    949, -0.939999998, -0.100000001
    950, -0.920000017, -0.100000001
    951, -0.899999976, -0.100000001
    952, -0.879999995, -0.100000001
    953, -0.860000014, -0.100000001
    954, -0.839999974, -0.100000001
    955, -0.819999993, -0.100000001
    956, -0.800000012, -0.100000001
    957, -0.779999971, -0.100000001
    958,  -0.75999999, -0.100000001
    959,  -0.74000001, -0.100000001
    960, -0.720000029, -0.100000001
    961, -0.699999988, -0.100000001
    962, -0.680000007, -0.100000001
    963, -0.660000026, -0.100000001
    964, -0.639999986, -0.100000001
    965, -0.620000005, -0.100000001
    966, -0.600000024, -0.100000001
    967, -0.579999983, -0.100000001
    968, -0.560000002, -0.100000001
    969, -0.540000021, -0.100000001
    970, -0.519999981, -0.100000001
    971,         -0.5, -0.100000001
    972, -0.479999989, -0.100000001
    973, -0.460000008, -0.100000001
    974, -0.439999998, -0.100000001
    975, -0.419999987, -0.100000001
    976, -0.400000006, -0.100000001
    977, -0.379999995, -0.100000001
    978, -0.360000014, -0.100000001
    979, -0.340000004, -0.100000001
    980, -0.319999993, -0.100000001
    981, -0.300000012, -0.100000001
    982, -0.280000001, -0.100000001
    983,  -0.25999999, -0.100000001
    984, -0.239999995, -0.100000001
    985, -0.219999999, -0.100000001
    986, -0.200000003, -0.100000001
    987, -0.180000007, -0.100000001
    988, -0.159999996, -0.100000001
    989, -0.140000001, -0.100000001
    990, -0.119999997, -0.100000001
    991, -0.100000001, -0.100000001
    992, -0.0799999982, -0.100000001
    993, -0.0599999987, -0.100000001
    994, -0.0399999991, -0.100000001
    995, -0.0199999996, -0.100000001
    996,           0., -0.100000001
    997, 0.0199999996, -0.100000001
    998, 0.0399999991, -0.100000001
    999, 0.0599999987, -0.100000001
   1000, 0.0799999982, -0.100000001
   1001,  0.100000001, -0.100000001
   1002,  0.119999997, -0.100000001
   1003,  0.140000001, -0.100000001
   1004,  0.159999996, -0.100000001
   1005,  0.180000007, -0.100000001
   1006,  0.200000003, -0.100000001
   1007,  0.219999999, -0.100000001
   1008,  0.239999995, -0.100000001
   1009,   0.25999999, -0.100000001
   1010,  0.280000001, -0.100000001
   1011,  0.300000012, -0.100000001
   1012,  0.319999993, -0.100000001
   1013,  0.340000004, -0.100000001
   1014,  0.360000014, -0.100000001
   1015,  0.379999995, -0.100000001
   1016,  0.400000006, -0.100000001
   1017,  0.419999987, -0.100000001
   1018,  0.439999998, -0.100000001
   1019,  0.460000008, -0.100000001
   1020,  0.479999989, -0.100000001
   1021,          0.5, -0.100000001
   1022,  0.519999981, -0.100000001
   1023,  0.540000021, -0.100000001
   1024,  0.560000002, -0.100000001
   1025,  0.579999983, -0.100000001
   1026,  0.600000024, -0.100000001
   1027,  0.620000005, -0.100000001
   1028,  0.639999986, -0.100000001
   1029,  0.660000026, -0.100000001
   1030,  0.680000007, -0.100000001
   1031,  0.699999988, -0.100000001
   1032,  0.720000029, -0.100000001
   1033,   0.74000001, -0.100000001
   1034,   0.75999999, -0.100000001
   1035,  0.779999971, -0.100000001
   1036,  0.800000012, -0.100000001
   1037,  0.819999993, -0.100000001
   1038,  0.839999974, -0.100000001
   1039,  0.860000014, -0.100000001
   1040,  0.879999995, -0.100000001
   1041,  0.899999976, -0.100000001
   1042,  0.920000017, -0.100000001
   1043,  0.939999998, -0.100000001
   1044,  0.959999979, -0.100000001
   1045,  0.980000019, -0.100000001
   1046,           1., -0.100000001
   1047,   1.01999998, -0.100000001
   1048,   1.03999996, -0.100000001
   1049,   1.05999994, -0.100000001
   1050,   1.08000004, -0.100000001
   1051,   1.10000002, -0.100000001
   1052,         1.12, -0.100000001
   1053,   1.13999999, -0.100000001
   1054,   1.15999997, -0.100000001
   1055,   1.17999995, -0.100000001
   1056,   1.20000005, -0.100000001
   1057,   1.22000003, -0.100000001
   1058,   1.24000001, -0.100000001
   1059,   1.25999999, -0.100000001
   1060,   1.27999997, -0.100000001
   1061,   1.29999995, -0.100000001
   1062,   1.32000005, -0.100000001
   1063,   1.34000003, -0.100000001
   1064,   1.36000001, -0.100000001
   1065,         1.38, -0.100000001
   1066,   1.39999998, -0.100000001
   1067,   1.41999996, -0.100000001
   1068,   1.44000006, -0.100000001
   1069,   1.46000004, -0.100000001
   1070,   1.48000002, -0.100000001
   1071,          1.5, -0.100000001
   1072,   1.51999998, -0.100000001
   1073,   1.53999996, -0.100000001
   1074,   1.55999994, -0.100000001
   1075,   1.58000004, -0.100000001
   1076,   1.60000002, -0.100000001
   1077,         1.62, -0.100000001
   1078,   1.63999999, -0.100000001
   1079,   1.65999997, -0.100000001
   1080,   1.67999995, -0.100000001
   1081,   1.70000005, -0.100000001
   1082,   1.72000003, -0.100000001
   1083,   1.74000001, -0.100000001
   1084,   1.75999999, -0.100000001
   1085,   1.77999997, -0.100000001
   1086,   1.79999995, -0.100000001
   1087,  -1.77999997, -0.119999997
   1088,  -1.79999995, -0.119999997
   1089,  -1.75999999, -0.119999997
   1090,  -1.74000001, -0.119999997
   1091,  -1.72000003, -0.119999997
   1092,  -1.70000005, -0.119999997
   1093,  -1.67999995, -0.119999997
   1094,  -1.65999997, -0.119999997
   1095,  -1.63999999, -0.119999997
   1096,        -1.62, -0.119999997
   1097,  -1.60000002, -0.119999997
   1098,  -1.58000004, -0.119999997
   1099,  -1.55999994, -0.119999997
   1100,  -1.53999996, -0.119999997
   1101,  -1.51999998, -0.119999997
   1102,         -1.5, -0.119999997
   1103,  -1.48000002, -0.119999997
   1104,  -1.46000004, -0.119999997
   1105,  -1.44000006, -0.119999997
   1106,  -1.41999996, -0.119999997
   1107,  -1.39999998, -0.119999997
   1108,        -1.38, -0.119999997
   1109,  -1.36000001, -0.119999997
   1110,  -1.34000003, -0.119999997
   1111,  -1.32000005, -0.119999997
   1112,  -1.29999995, -0.119999997
   1113,  -1.27999997, -0.119999997
   1114,  -1.25999999, -0.119999997
   1115,  -1.24000001, -0.119999997
   1116,  -1.22000003, -0.119999997
   1117,  -1.20000005, -0.119999997
   1118,  -1.17999995, -0.119999997
   1119,  -1.15999997, -0.119999997
   1120,  -1.13999999, -0.119999997
   1121,        -1.12, -0.119999997
   1122,  -1.10000002, -0.119999997
   1123,  -1.08000004, -0.119999997
   1124,  -1.05999994, -0.119999997
   1125,  -1.03999996, -0.119999997
   1126,  -1.01999998, -0.119999997
   1127,          -1., -0.119999997
   1128, -0.980000019, -0.119999997
   1129, -0.959999979, -0.119999997
   1130, -0.939999998, -0.119999997
   1131, -0.920000017, -0.119999997
   1132, -0.899999976, -0.119999997
   1133, -0.879999995, -0.119999997
   1134, -0.860000014, -0.119999997
   1135, -0.839999974, -0.119999997
   1136, -0.819999993, -0.119999997
   1137, -0.800000012, -0.119999997
   1138, -0.779999971, -0.119999997
   1139,  -0.75999999, -0.119999997
   1140,  -0.74000001, -0.119999997
   1141, -0.720000029, -0.119999997
   1142, -0.699999988, -0.119999997
   1143, -0.680000007, -0.119999997
   1144, -0.660000026, -0.119999997
   1145, -0.639999986, -0.119999997
   1146, -0.620000005, -0.119999997
   1147, -0.600000024, -0.119999997
   1148, -0.579999983, -0.119999997
   1149, -0.560000002, -0.119999997
   1150, -0.540000021, -0.119999997
   1151, -0.519999981, -0.119999997
   1152,         -0.5, -0.119999997
   1153, -0.479999989, -0.119999997
   1154, -0.460000008, -0.119999997
   1155, -0.439999998, -0.119999997
   1156, -0.419999987, -0.119999997
   1157, -0.400000006, -0.119999997
   1158, -0.379999995, -0.119999997
   1159, -0.360000014, -0.119999997
   1160, -0.340000004, -0.119999997
   1161, -0.319999993, -0.119999997
   1162, -0.300000012, -0.119999997
   1163, -0.280000001, -0.119999997
   1164,  -0.25999999, -0.119999997
   1165, -0.239999995, -0.119999997
   1166, -0.219999999, -0.119999997
   1167, -0.200000003, -0.119999997
   1168, -0.180000007, -0.119999997
   1169, -0.159999996, -0.119999997
   1170, -0.140000001, -0.119999997
   1171, -0.119999997, -0.119999997
   1172, -0.100000001, -0.119999997
   1173, -0.0799999982, -0.119999997
   1174, -0.0599999987, -0.119999997
   1175, -0.0399999991, -0.119999997
   1176, -0.0199999996, -0.119999997
   1177,           0., -0.119999997
   1178, 0.0199999996, -0.119999997
   1179, 0.0399999991, -0.119999997
   1180, 0.0599999987, -0.119999997
   1181, 0.0799999982, -0.119999997
   1182,  0.100000001, -0.119999997
   1183,  0.119999997, -0.119999997
   1184,  0.140000001, -0.119999997
   1185,  0.159999996, -0.119999997
   1186,  0.180000007, -0.119999997
   1187,  0.200000003, -0.119999997
   1188,  0.219999999, -0.119999997
   1189,  0.239999995, -0.119999997
   1190,   0.25999999, -0.119999997
   1191,  0.280000001, -0.119999997
   1192,  0.300000012, -0.119999997
   1193,  0.319999993, -0.119999997
   1194,  0.340000004, -0.119999997
   1195,  0.360000014, -0.119999997
   1196,  0.379999995, -0.119999997
   1197,  0.400000006, -0.119999997
   1198,  0.419999987, -0.119999997
   1199,  0.439999998, -0.119999997
   1200,  0.460000008, -0.119999997
   1201,  0.479999989, -0.119999997
   1202,          0.5, -0.119999997
   1203,  0.519999981, -0.119999997
   1204,  0.540000021, -0.119999997
   1205,  0.560000002, -0.119999997
   1206,  0.579999983, -0.119999997
   1207,  0.600000024, -0.119999997
   1208,  0.620000005, -0.119999997
   1209,  0.639999986, -0.119999997
   1210,  0.660000026, -0.119999997
   1211,  0.680000007, -0.119999997
   1212,  0.699999988, -0.119999997
   1213,  0.720000029, -0.119999997
   1214,   0.74000001, -0.119999997
   1215,   0.75999999, -0.119999997
   1216,  0.779999971, -0.119999997
   1217,  0.800000012, -0.119999997
   1218,  0.819999993, -0.119999997
   1219,  0.839999974, -0.119999997
   1220,  0.860000014, -0.119999997
   1221,  0.879999995, -0.119999997
   1222,  0.899999976, -0.119999997
   1223,  0.920000017, -0.119999997
   1224,  0.939999998, -0.119999997
   1225,  0.959999979, -0.119999997
   1226,  0.980000019, -0.119999997
   1227,           1., -0.119999997
   1228,   1.01999998, -0.119999997
   1229,   1.03999996, -0.119999997
   1230,   1.05999994, -0.119999997
   1231,   1.08000004, -0.119999997
   1232,   1.10000002, -0.119999997
   1233,         1.12, -0.119999997
   1234,   1.13999999, -0.119999997
   1235,   1.15999997, -0.119999997
   1236,   1.17999995, -0.119999997
   1237,   1.20000005, -0.119999997
   1238,   1.22000003, -0.119999997
   1239,   1.24000001, -0.119999997
   1240,   1.25999999, -0.119999997
   1241,   1.27999997, -0.119999997
   1242,   1.29999995, -0.119999997
   1243,   1.32000005, -0.119999997
   1244,   1.34000003, -0.119999997
   1245,   1.36000001, -0.119999997
   1246,         1.38, -0.119999997
   1247,   1.39999998, -0.119999997
   1248,   1.41999996, -0.119999997
   1249,   1.44000006, -0.119999997
   1250,   1.46000004, -0.119999997
   1251,   1.48000002, -0.119999997
   1252,          1.5, -0.119999997
   1253,   1.51999998, -0.119999997
   1254,   1.53999996, -0.119999997
   1255,   1.55999994, -0.119999997
   1256,   1.58000004, -0.119999997
   1257,   1.60000002, -0.119999997
   1258,         1.62, -0.119999997
   1259,   1.63999999, -0.119999997
   1260,   1.65999997, -0.119999997
   1261,   1.67999995, -0.119999997
   1262,   1.70000005, -0.119999997
   1263,   1.72000003, -0.119999997
   1264,   1.74000001, -0.119999997
   1265,   1.75999999, -0.119999997
   1266,   1.77999997, -0.119999997
   1267,   1.79999995, -0.119999997
   1268,  -1.77999997, -0.140000001
   1269,  -1.79999995, -0.140000001
   1270,  -1.75999999, -0.140000001
   1271,  -1.74000001, -0.140000001
   1272,  -1.72000003, -0.140000001
   1273,  -1.70000005, -0.140000001
   1274,  -1.67999995, -0.140000001
   1275,  -1.65999997, -0.140000001
   1276,  -1.63999999, -0.140000001
   1277,        -1.62, -0.140000001
   1278,  -1.60000002, -0.140000001
   1279,  -1.58000004, -0.140000001
   1280,  -1.55999994, -0.140000001
   1281,  -1.53999996, -0.140000001
   1282,  -1.51999998, -0.140000001
   1283,         -1.5, -0.140000001
   1284,  -1.48000002, -0.140000001
   1285,  -1.46000004, -0.140000001
   1286,  -1.44000006, -0.140000001
   1287,  -1.41999996, -0.140000001
   1288,  -1.39999998, -0.140000001
   1289,        -1.38, -0.140000001
   1290,  -1.36000001, -0.140000001
   1291,  -1.34000003, -0.140000001
   1292,  -1.32000005, -0.140000001
   1293,  -1.29999995, -0.140000001
   1294,  -1.27999997, -0.140000001
   1295,  -1.25999999, -0.140000001
   1296,  -1.24000001, -0.140000001
   1297,  -1.22000003, -0.140000001
   1298,  -1.20000005, -0.140000001
   1299,  -1.17999995, -0.140000001
   1300,  -1.15999997, -0.140000001
   1301,  -1.13999999, -0.140000001
   1302,        -1.12, -0.140000001
   1303,  -1.10000002, -0.140000001
   1304,  -1.08000004, -0.140000001
   1305,  -1.05999994, -0.140000001
   1306,  -1.03999996, -0.140000001
   1307,  -1.01999998, -0.140000001
   1308,          -1., -0.140000001
   1309, -0.980000019, -0.140000001
   1310, -0.959999979, -0.140000001
   1311, -0.939999998, -0.140000001
   1312, -0.920000017, -0.140000001
   1313, -0.899999976, -0.140000001
   1314, -0.879999995, -0.140000001
   1315, -0.860000014, -0.140000001
   1316, -0.839999974, -0.140000001
   1317, -0.819999993, -0.140000001
   1318, -0.800000012, -0.140000001
   1319, -0.779999971, -0.140000001
   1320,  -0.75999999, -0.140000001
   1321,  -0.74000001, -0.140000001
   1322, -0.720000029, -0.140000001
   1323, -0.699999988, -0.140000001
   1324, -0.680000007, -0.140000001
   1325, -0.660000026, -0.140000001
   1326, -0.639999986, -0.140000001
   1327, -0.620000005, -0.140000001
   1328, -0.600000024, -0.140000001
   1329, -0.579999983, -0.140000001
   1330, -0.560000002, -0.140000001
   1331, -0.540000021, -0.140000001
   1332, -0.519999981, -0.140000001
   1333,         -0.5, -0.140000001
   1334, -0.479999989, -0.140000001
   1335, -0.460000008, -0.140000001
   1336, -0.439999998, -0.140000001
   1337, -0.419999987, -0.140000001
   1338, -0.400000006, -0.140000001
   1339, -0.379999995, -0.140000001
   1340, -0.360000014, -0.140000001
   1341, -0.340000004, -0.140000001
   1342, -0.319999993, -0.140000001
   1343, -0.300000012, -0.140000001
   1344, -0.280000001, -0.140000001
   1345,  -0.25999999, -0.140000001
   1346, -0.239999995, -0.140000001
   1347, -0.219999999, -0.140000001
   1348, -0.200000003, -0.140000001
   1349, -0.180000007, -0.140000001
   1350, -0.159999996, -0.140000001
   1351, -0.140000001, -0.140000001
   1352, -0.119999997, -0.140000001
   1353, -0.100000001, -0.140000001
   1354, -0.0799999982, -0.140000001
   1355, -0.0599999987, -0.140000001
   1356, -0.0399999991, -0.140000001
   1357, -0.0199999996, -0.140000001
   1358,           0., -0.140000001
   1359, 0.0199999996, -0.140000001
   1360, 0.0399999991, -0.140000001
   1361, 0.0599999987, -0.140000001
   1362, 0.0799999982, -0.140000001
   1363,  0.100000001, -0.140000001
   1364,  0.119999997, -0.140000001
   1365,  0.140000001, -0.140000001
   1366,  0.159999996, -0.140000001
   1367,  0.180000007, -0.140000001
   1368,  0.200000003, -0.140000001
   1369,  0.219999999, -0.140000001
   1370,  0.239999995, -0.140000001
   1371,   0.25999999, -0.140000001
   1372,  0.280000001, -0.140000001
   1373,  0.300000012, -0.140000001
   1374,  0.319999993, -0.140000001
   1375,  0.340000004, -0.140000001
   1376,  0.360000014, -0.140000001
   1377,  0.379999995, -0.140000001
   1378,  0.400000006, -0.140000001
   1379,  0.419999987, -0.140000001
   1380,  0.439999998, -0.140000001
   1381,  0.460000008, -0.140000001
   1382,  0.479999989, -0.140000001
   1383,          0.5, -0.140000001
   1384,  0.519999981, -0.140000001
   1385,  0.540000021, -0.140000001
   1386,  0.560000002, -0.140000001
   1387,  0.579999983, -0.140000001
   1388,  0.600000024, -0.140000001
   1389,  0.620000005, -0.140000001
   1390,  0.639999986, -0.140000001
   1391,  0.660000026, -0.140000001
   1392,  0.680000007, -0.140000001
   1393,  0.699999988, -0.140000001
   1394,  0.720000029, -0.140000001
   1395,   0.74000001, -0.140000001
   1396,   0.75999999, -0.140000001
   1397,  0.779999971, -0.140000001
   1398,  0.800000012, -0.140000001
   1399,  0.819999993, -0.140000001
   1400,  0.839999974, -0.140000001
   1401,  0.860000014, -0.140000001
   1402,  0.879999995, -0.140000001
   1403,  0.899999976, -0.140000001
   1404,  0.920000017, -0.140000001
   1405,  0.939999998, -0.140000001
   1406,  0.959999979, -0.140000001
   1407,  0.980000019, -0.140000001
   1408,           1., -0.140000001
   1409,   1.01999998, -0.140000001
   1410,   1.03999996, -0.140000001
   1411,   1.05999994, -0.140000001
   1412,   1.08000004, -0.140000001
   1413,   1.10000002, -0.140000001
   1414,         1.12, -0.140000001
   1415,   1.13999999, -0.140000001
   1416,   1.15999997, -0.140000001
   1417,   1.17999995, -0.140000001
   1418,   1.20000005, -0.140000001
   1419,   1.22000003, -0.140000001
   1420,   1.24000001, -0.140000001
   1421,   1.25999999, -0.140000001
   1422,   1.27999997, -0.140000001
   1423,   1.29999995, -0.140000001
   1424,   1.32000005, -0.140000001
   1425,   1.34000003, -0.140000001
   1426,   1.36000001, -0.140000001
   1427,         1.38, -0.140000001
   1428,   1.39999998, -0.140000001
   1429,   1.41999996, -0.140000001
   1430,   1.44000006, -0.140000001
   1431,   1.46000004, -0.140000001
   1432,   1.48000002, -0.140000001
   1433,          1.5, -0.140000001
   1434,   1.51999998, -0.140000001
   1435,   1.53999996, -0.140000001
   1436,   1.55999994, -0.140000001
   1437,   1.58000004, -0.140000001
   1438,   1.60000002, -0.140000001
   1439,         1.62, -0.140000001
   1440,   1.63999999, -0.140000001
   1441,   1.65999997, -0.140000001
   1442,   1.67999995, -0.140000001
   1443,   1.70000005, -0.140000001
   1444,   1.72000003, -0.140000001
   1445,   1.74000001, -0.140000001
   1446,   1.75999999, -0.140000001
   1447,   1.77999997, -0.140000001
   1448,   1.79999995, -0.140000001
   1449,  -1.77999997, -0.159999996
   1450,  -1.79999995, -0.159999996
   1451,  -1.75999999, -0.159999996
   1452,  -1.74000001, -0.159999996
   1453,  -1.72000003, -0.159999996
   1454,  -1.70000005, -0.159999996
   1455,  -1.67999995, -0.159999996
   1456,  -1.65999997, -0.159999996
   1457,  -1.63999999, -0.159999996
   1458,        -1.62, -0.159999996
   1459,  -1.60000002, -0.159999996
   1460,  -1.58000004, -0.159999996
   1461,  -1.55999994, -0.159999996
   1462,  -1.53999996, -0.159999996
   1463,  -1.51999998, -0.159999996
   1464,         -1.5, -0.159999996
   1465,  -1.48000002, -0.159999996
   1466,  -1.46000004, -0.159999996
   1467,  -1.44000006, -0.159999996
   1468,  -1.41999996, -0.159999996
   1469,  -1.39999998, -0.159999996
   1470,        -1.38, -0.159999996
   1471,  -1.36000001, -0.159999996
   1472,  -1.34000003, -0.159999996
   1473,  -1.32000005, -0.159999996
   1474,  -1.29999995, -0.159999996
   1475,  -1.27999997, -0.159999996
   1476,  -1.25999999, -0.159999996
   1477,  -1.24000001, -0.159999996
   1478,  -1.22000003, -0.159999996
   1479,  -1.20000005, -0.159999996
   1480,  -1.17999995, -0.159999996
   1481,  -1.15999997, -0.159999996
   1482,  -1.13999999, -0.159999996
   1483,        -1.12, -0.159999996
   1484,  -1.10000002, -0.159999996
   1485,  -1.08000004, -0.159999996
   1486,  -1.05999994, -0.159999996
   1487,  -1.03999996, -0.159999996
   1488,  -1.01999998, -0.159999996
   1489,          -1., -0.159999996
   1490, -0.980000019, -0.159999996
   1491, -0.959999979, -0.159999996
   1492, -0.939999998, -0.159999996
   1493, -0.920000017, -0.159999996
   1494, -0.899999976, -0.159999996
   1495, -0.879999995, -0.159999996
   1496, -0.860000014, -0.159999996
   1497, -0.839999974, -0.159999996
   1498, -0.819999993, -0.159999996
   1499, -0.800000012, -0.159999996
   1500, -0.779999971, -0.159999996
   1501,  -0.75999999, -0.159999996
   1502,  -0.74000001, -0.159999996
   1503, -0.720000029, -0.159999996
   1504, -0.699999988, -0.159999996
   1505, -0.680000007, -0.159999996
   1506, -0.660000026, -0.159999996
   1507, -0.639999986, -0.159999996
   1508, -0.620000005, -0.159999996
   1509, -0.600000024, -0.159999996
   1510, -0.579999983, -0.159999996
   1511, -0.560000002, -0.159999996
   1512, -0.540000021, -0.159999996
   1513, -0.519999981, -0.159999996
   1514,         -0.5, -0.159999996
   1515, -0.479999989, -0.159999996
   1516, -0.460000008, -0.159999996
   1517, -0.439999998, -0.159999996
   1518, -0.419999987, -0.159999996
   1519, -0.400000006, -0.159999996
   1520, -0.379999995, -0.159999996
   1521, -0.360000014, -0.159999996
   1522, -0.340000004, -0.159999996
   1523, -0.319999993, -0.159999996
   1524, -0.300000012, -0.159999996
   1525, -0.280000001, -0.159999996
   1526,  -0.25999999, -0.159999996
   1527, -0.239999995, -0.159999996
   1528, -0.219999999, -0.159999996
   1529, -0.200000003, -0.159999996
   1530, -0.180000007, -0.159999996
   1531, -0.159999996, -0.159999996
   1532, -0.140000001, -0.159999996
   1533, -0.119999997, -0.159999996
   1534, -0.100000001, -0.159999996
   1535, -0.0799999982, -0.159999996
   1536, -0.0599999987, -0.159999996
   1537, -0.0399999991, -0.159999996
   1538, -0.0199999996, -0.159999996
   1539,           0., -0.159999996
   1540, 0.0199999996, -0.159999996
   1541, 0.0399999991, -0.159999996
   1542, 0.0599999987, -0.159999996
   1543, 0.0799999982, -0.159999996
   1544,  0.100000001, -0.159999996
   1545,  0.119999997, -0.159999996
   1546,  0.140000001, -0.159999996
   1547,  0.159999996, -0.159999996
   1548,  0.180000007, -0.159999996
   1549,  0.200000003, -0.159999996
   1550,  0.219999999, -0.159999996
   1551,  0.239999995, -0.159999996
   1552,   0.25999999, -0.159999996
   1553,  0.280000001, -0.159999996
   1554,  0.300000012, -0.159999996
   1555,  0.319999993, -0.159999996
   1556,  0.340000004, -0.159999996
   1557,  0.360000014, -0.159999996
   1558,  0.379999995, -0.159999996
   1559,  0.400000006, -0.159999996
   1560,  0.419999987, -0.159999996
   1561,  0.439999998, -0.159999996
   1562,  0.460000008, -0.159999996
   1563,  0.479999989, -0.159999996
   1564,          0.5, -0.159999996
   1565,  0.519999981, -0.159999996
   1566,  0.540000021, -0.159999996
   1567,  0.560000002, -0.159999996
   1568,  0.579999983, -0.159999996
   1569,  0.600000024, -0.159999996
   1570,  0.620000005, -0.159999996
   1571,  0.639999986, -0.159999996
   1572,  0.660000026, -0.159999996
   1573,  0.680000007, -0.159999996
   1574,  0.699999988, -0.159999996
   1575,  0.720000029, -0.159999996
   1576,   0.74000001, -0.159999996
   1577,   0.75999999, -0.159999996
   1578,  0.779999971, -0.159999996
   1579,  0.800000012, -0.159999996
   1580,  0.819999993, -0.159999996
   1581,  0.839999974, -0.159999996
   1582,  0.860000014, -0.159999996
   1583,  0.879999995, -0.159999996
   1584,  0.899999976, -0.159999996
   1585,  0.920000017, -0.159999996
   1586,  0.939999998, -0.159999996
   1587,  0.959999979, -0.159999996
   1588,  0.980000019, -0.159999996
   1589,           1., -0.159999996
   1590,   1.01999998, -0.159999996
   1591,   1.03999996, -0.159999996
   1592,   1.05999994, -0.159999996
   1593,   1.08000004, -0.159999996
   1594,   1.10000002, -0.159999996
   1595,         1.12, -0.159999996
   1596,   1.13999999, -0.159999996
   1597,   1.15999997, -0.159999996
   1598,   1.17999995, -0.159999996
   1599,   1.20000005, -0.159999996
   1600,   1.22000003, -0.159999996
   1601,   1.24000001, -0.159999996
   1602,   1.25999999, -0.159999996
   1603,   1.27999997, -0.159999996
   1604,   1.29999995, -0.159999996
   1605,   1.32000005, -0.159999996
   1606,   1.34000003, -0.159999996
   1607,   1.36000001, -0.159999996
   1608,         1.38, -0.159999996
   1609,   1.39999998, -0.159999996
   1610,   1.41999996, -0.159999996
   1611,   1.44000006, -0.159999996
   1612,   1.46000004, -0.159999996
   1613,   1.48000002, -0.159999996
   1614,          1.5, -0.159999996
   1615,   1.51999998, -0.159999996
   1616,   1.53999996, -0.159999996
   1617,   1.55999994, -0.159999996
   1618,   1.58000004, -0.159999996
   1619,   1.60000002, -0.159999996
   1620,         1.62, -0.159999996
   1621,   1.63999999, -0.159999996
   1622,   1.65999997, -0.159999996
   1623,   1.67999995, -0.159999996
   1624,   1.70000005, -0.159999996
   1625,   1.72000003, -0.159999996
   1626,   1.74000001, -0.159999996
   1627,   1.75999999, -0.159999996
   1628,   1.77999997, -0.159999996
   1629,   1.79999995, -0.159999996
   1630,  -1.77999997, -0.180000007
   1631,  -1.79999995, -0.180000007
   1632,  -1.75999999, -0.180000007
   1633,  -1.74000001, -0.180000007
   1634,  -1.72000003, -0.180000007
   1635,  -1.70000005, -0.180000007
   1636,  -1.67999995, -0.180000007
   1637,  -1.65999997, -0.180000007
   1638,  -1.63999999, -0.180000007
   1639,        -1.62, -0.180000007
   1640,  -1.60000002, -0.180000007
   1641,  -1.58000004, -0.180000007
   1642,  -1.55999994, -0.180000007
   1643,  -1.53999996, -0.180000007
   1644,  -1.51999998, -0.180000007
   1645,         -1.5, -0.180000007
   1646,  -1.48000002, -0.180000007
   1647,  -1.46000004, -0.180000007
   1648,  -1.44000006, -0.180000007
   1649,  -1.41999996, -0.180000007
   1650,  -1.39999998, -0.180000007
   1651,        -1.38, -0.180000007
   1652,  -1.36000001, -0.180000007
   1653,  -1.34000003, -0.180000007
   1654,  -1.32000005, -0.180000007
   1655,  -1.29999995, -0.180000007
   1656,  -1.27999997, -0.180000007
   1657,  -1.25999999, -0.180000007
   1658,  -1.24000001, -0.180000007
   1659,  -1.22000003, -0.180000007
   1660,  -1.20000005, -0.180000007
   1661,  -1.17999995, -0.180000007
   1662,  -1.15999997, -0.180000007
   1663,  -1.13999999, -0.180000007
   1664,        -1.12, -0.180000007
   1665,  -1.10000002, -0.180000007
   1666,  -1.08000004, -0.180000007
   1667,  -1.05999994, -0.180000007
   1668,  -1.03999996, -0.180000007
   1669,  -1.01999998, -0.180000007
   1670,          -1., -0.180000007
   1671, -0.980000019, -0.180000007
   1672, -0.959999979, -0.180000007
   1673, -0.939999998, -0.180000007
   1674, -0.920000017, -0.180000007
   1675, -0.899999976, -0.180000007
   1676, -0.879999995, -0.180000007
   1677, -0.860000014, -0.180000007
   1678, -0.839999974, -0.180000007
   1679, -0.819999993, -0.180000007
   1680, -0.800000012, -0.180000007
   1681, -0.779999971, -0.180000007
   1682,  -0.75999999, -0.180000007
   1683,  -0.74000001, -0.180000007
   1684, -0.720000029, -0.180000007
   1685, -0.699999988, -0.180000007
   1686, -0.680000007, -0.180000007
   1687, -0.660000026, -0.180000007
   1688, -0.639999986, -0.180000007
   1689, -0.620000005, -0.180000007
   1690, -0.600000024, -0.180000007
   1691, -0.579999983, -0.180000007
   1692, -0.560000002, -0.180000007
   1693, -0.540000021, -0.180000007
   1694, -0.519999981, -0.180000007
   1695,         -0.5, -0.180000007
   1696, -0.479999989, -0.180000007
   1697, -0.460000008, -0.180000007
   1698, -0.439999998, -0.180000007
   1699, -0.419999987, -0.180000007
   1700, -0.400000006, -0.180000007
   1701, -0.379999995, -0.180000007
   1702, -0.360000014, -0.180000007
   1703, -0.340000004, -0.180000007
   1704, -0.319999993, -0.180000007
   1705, -0.300000012, -0.180000007
   1706, -0.280000001, -0.180000007
   1707,  -0.25999999, -0.180000007
   1708, -0.239999995, -0.180000007
   1709, -0.219999999, -0.180000007
   1710, -0.200000003, -0.180000007
   1711, -0.180000007, -0.180000007
   1712, -0.159999996, -0.180000007
   1713, -0.140000001, -0.180000007
   1714, -0.119999997, -0.180000007
   1715, -0.100000001, -0.180000007
   1716, -0.0799999982, -0.180000007
   1717, -0.0599999987, -0.180000007
   1718, -0.0399999991, -0.180000007
   1719, -0.0199999996, -0.180000007
   1720,           0., -0.180000007
   1721, 0.0199999996, -0.180000007
   1722, 0.0399999991, -0.180000007
   1723, 0.0599999987, -0.180000007
   1724, 0.0799999982, -0.180000007
   1725,  0.100000001, -0.180000007
   1726,  0.119999997, -0.180000007
   1727,  0.140000001, -0.180000007
   1728,  0.159999996, -0.180000007
   1729,  0.180000007, -0.180000007
   1730,  0.200000003, -0.180000007
   1731,  0.219999999, -0.180000007
   1732,  0.239999995, -0.180000007
   1733,   0.25999999, -0.180000007
   1734,  0.280000001, -0.180000007
   1735,  0.300000012, -0.180000007
   1736,  0.319999993, -0.180000007
   1737,  0.340000004, -0.180000007
   1738,  0.360000014, -0.180000007
   1739,  0.379999995, -0.180000007
   1740,  0.400000006, -0.180000007
   1741,  0.419999987, -0.180000007
   1742,  0.439999998, -0.180000007
   1743,  0.460000008, -0.180000007
   1744,  0.479999989, -0.180000007
   1745,          0.5, -0.180000007
   1746,  0.519999981, -0.180000007
   1747,  0.540000021, -0.180000007
   1748,  0.560000002, -0.180000007
   1749,  0.579999983, -0.180000007
   1750,  0.600000024, -0.180000007
   1751,  0.620000005, -0.180000007
   1752,  0.639999986, -0.180000007
   1753,  0.660000026, -0.180000007
   1754,  0.680000007, -0.180000007
   1755,  0.699999988, -0.180000007
   1756,  0.720000029, -0.180000007
   1757,   0.74000001, -0.180000007
   1758,   0.75999999, -0.180000007
   1759,  0.779999971, -0.180000007
   1760,  0.800000012, -0.180000007
   1761,  0.819999993, -0.180000007
   1762,  0.839999974, -0.180000007
   1763,  0.860000014, -0.180000007
   1764,  0.879999995, -0.180000007
   1765,  0.899999976, -0.180000007
   1766,  0.920000017, -0.180000007
   1767,  0.939999998, -0.180000007
   1768,  0.959999979, -0.180000007
   1769,  0.980000019, -0.180000007
   1770,           1., -0.180000007
   1771,   1.01999998, -0.180000007
   1772,   1.03999996, -0.180000007
   1773,   1.05999994, -0.180000007
   1774,   1.08000004, -0.180000007
   1775,   1.10000002, -0.180000007
   1776,         1.12, -0.180000007
   1777,   1.13999999, -0.180000007
   1778,   1.15999997, -0.180000007
   1779,   1.17999995, -0.180000007
   1780,   1.20000005, -0.180000007
   1781,   1.22000003, -0.180000007
   1782,   1.24000001, -0.180000007
   1783,   1.25999999, -0.180000007
   1784,   1.27999997, -0.180000007
   1785,   1.29999995, -0.180000007
   1786,   1.32000005, -0.180000007
   1787,   1.34000003, -0.180000007
   1788,   1.36000001, -0.180000007
   1789,         1.38, -0.180000007
   1790,   1.39999998, -0.180000007
   1791,   1.41999996, -0.180000007
   1792,   1.44000006, -0.180000007
   1793,   1.46000004, -0.180000007
   1794,   1.48000002, -0.180000007
   1795,          1.5, -0.180000007
   1796,   1.51999998, -0.180000007
   1797,   1.53999996, -0.180000007
   1798,   1.55999994, -0.180000007
   1799,   1.58000004, -0.180000007
   1800,   1.60000002, -0.180000007
   1801,         1.62, -0.180000007
   1802,   1.63999999, -0.180000007
   1803,   1.65999997, -0.180000007
   1804,   1.67999995, -0.180000007
   1805,   1.70000005, -0.180000007
   1806,   1.72000003, -0.180000007
   1807,   1.74000001, -0.180000007
   1808,   1.75999999, -0.180000007
   1809,   1.77999997, -0.180000007
   1810,   1.79999995, -0.180000007
   1811,  -1.77999997, -0.200000003
   1812,  -1.79999995, -0.200000003
   1813,  -1.75999999, -0.200000003
   1814,  -1.74000001, -0.200000003
   1815,  -1.72000003, -0.200000003
   1816,  -1.70000005, -0.200000003
   1817,  -1.67999995, -0.200000003
   1818,  -1.65999997, -0.200000003
   1819,  -1.63999999, -0.200000003
   1820,        -1.62, -0.200000003
   1821,  -1.60000002, -0.200000003
   1822,  -1.58000004, -0.200000003
   1823,  -1.55999994, -0.200000003
   1824,  -1.53999996, -0.200000003
   1825,  -1.51999998, -0.200000003
   1826,         -1.5, -0.200000003
   1827,  -1.48000002, -0.200000003
   1828,  -1.46000004, -0.200000003
   1829,  -1.44000006, -0.200000003
   1830,  -1.41999996, -0.200000003
   1831,  -1.39999998, -0.200000003
   1832,        -1.38, -0.200000003
   1833,  -1.36000001, -0.200000003
   1834,  -1.34000003, -0.200000003
   1835,  -1.32000005, -0.200000003
   1836,  -1.29999995, -0.200000003
   1837,  -1.27999997, -0.200000003
   1838,  -1.25999999, -0.200000003
   1839,  -1.24000001, -0.200000003
   1840,  -1.22000003, -0.200000003
   1841,  -1.20000005, -0.200000003
   1842,  -1.17999995, -0.200000003
   1843,  -1.15999997, -0.200000003
   1844,  -1.13999999, -0.200000003
   1845,        -1.12, -0.200000003
   1846,  -1.10000002, -0.200000003
   1847,  -1.08000004, -0.200000003
   1848,  -1.05999994, -0.200000003
   1849,  -1.03999996, -0.200000003
   1850,  -1.01999998, -0.200000003
   1851,          -1., -0.200000003
   1852, -0.980000019, -0.200000003
   1853, -0.959999979, -0.200000003
   1854, -0.939999998, -0.200000003
   1855, -0.920000017, -0.200000003
   1856, -0.899999976, -0.200000003
   1857, -0.879999995, -0.200000003
   1858, -0.860000014, -0.200000003
   1859, -0.839999974, -0.200000003
   1860, -0.819999993, -0.200000003
   1861, -0.800000012, -0.200000003
   1862, -0.779999971, -0.200000003
   1863,  -0.75999999, -0.200000003
   1864,  -0.74000001, -0.200000003
   1865, -0.720000029, -0.200000003
   1866, -0.699999988, -0.200000003
   1867, -0.680000007, -0.200000003
   1868, -0.660000026, -0.200000003
   1869, -0.639999986, -0.200000003
   1870, -0.620000005, -0.200000003
   1871, -0.600000024, -0.200000003
   1872, -0.579999983, -0.200000003
   1873, -0.560000002, -0.200000003
   1874, -0.540000021, -0.200000003
   1875, -0.519999981, -0.200000003
   1876,         -0.5, -0.200000003
   1877, -0.479999989, -0.200000003
   1878, -0.460000008, -0.200000003
   1879, -0.439999998, -0.200000003
   1880, -0.419999987, -0.200000003
   1881, -0.400000006, -0.200000003
   1882, -0.379999995, -0.200000003
   1883, -0.360000014, -0.200000003
   1884, -0.340000004, -0.200000003
   1885, -0.319999993, -0.200000003
   1886, -0.300000012, -0.200000003
   1887, -0.280000001, -0.200000003
   1888,  -0.25999999, -0.200000003
   1889, -0.239999995, -0.200000003
   1890, -0.219999999, -0.200000003
   1891, -0.200000003, -0.200000003
   1892, -0.180000007, -0.200000003
   1893, -0.159999996, -0.200000003
   1894, -0.140000001, -0.200000003
   1895, -0.119999997, -0.200000003
   1896, -0.100000001, -0.200000003
   1897, -0.0799999982, -0.200000003
   1898, -0.0599999987, -0.200000003
   1899, -0.0399999991, -0.200000003
   1900, -0.0199999996, -0.200000003
   1901,           0., -0.200000003
   1902, 0.0199999996, -0.200000003
   1903, 0.0399999991, -0.200000003
   1904, 0.0599999987, -0.200000003
   1905, 0.0799999982, -0.200000003
   1906,  0.100000001, -0.200000003
   1907,  0.119999997, -0.200000003
   1908,  0.140000001, -0.200000003
   1909,  0.159999996, -0.200000003
   1910,  0.180000007, -0.200000003
   1911,  0.200000003, -0.200000003
   1912,  0.219999999, -0.200000003
   1913,  0.239999995, -0.200000003
   1914,   0.25999999, -0.200000003
   1915,  0.280000001, -0.200000003
   1916,  0.300000012, -0.200000003
   1917,  0.319999993, -0.200000003
   1918,  0.340000004, -0.200000003
   1919,  0.360000014, -0.200000003
   1920,  0.379999995, -0.200000003
   1921,  0.400000006, -0.200000003
   1922,  0.419999987, -0.200000003
   1923,  0.439999998, -0.200000003
   1924,  0.460000008, -0.200000003
   1925,  0.479999989, -0.200000003
   1926,          0.5, -0.200000003
   1927,  0.519999981, -0.200000003
   1928,  0.540000021, -0.200000003
   1929,  0.560000002, -0.200000003
   1930,  0.579999983, -0.200000003
   1931,  0.600000024, -0.200000003
   1932,  0.620000005, -0.200000003
   1933,  0.639999986, -0.200000003
   1934,  0.660000026, -0.200000003
   1935,  0.680000007, -0.200000003
   1936,  0.699999988, -0.200000003
   1937,  0.720000029, -0.200000003
   1938,   0.74000001, -0.200000003
   1939,   0.75999999, -0.200000003
   1940,  0.779999971, -0.200000003
   1941,  0.800000012, -0.200000003
   1942,  0.819999993, -0.200000003
   1943,  0.839999974, -0.200000003
   1944,  0.860000014, -0.200000003
   1945,  0.879999995, -0.200000003
   1946,  0.899999976, -0.200000003
   1947,  0.920000017, -0.200000003
   1948,  0.939999998, -0.200000003
   1949,  0.959999979, -0.200000003
   1950,  0.980000019, -0.200000003
   1951,           1., -0.200000003
   1952,   1.01999998, -0.200000003
   1953,   1.03999996, -0.200000003
   1954,   1.05999994, -0.200000003
   1955,   1.08000004, -0.200000003
   1956,   1.10000002, -0.200000003
   1957,         1.12, -0.200000003
   1958,   1.13999999, -0.200000003
   1959,   1.15999997, -0.200000003
   1960,   1.17999995, -0.200000003
   1961,   1.20000005, -0.200000003
   1962,   1.22000003, -0.200000003
   1963,   1.24000001, -0.200000003
   1964,   1.25999999, -0.200000003
   1965,   1.27999997, -0.200000003
   1966,   1.29999995, -0.200000003
   1967,   1.32000005, -0.200000003
   1968,   1.34000003, -0.200000003
   1969,   1.36000001, -0.200000003
   1970,         1.38, -0.200000003
   1971,   1.39999998, -0.200000003
   1972,   1.41999996, -0.200000003
   1973,   1.44000006, -0.200000003
   1974,   1.46000004, -0.200000003
   1975,   1.48000002, -0.200000003
   1976,          1.5, -0.200000003
   1977,   1.51999998, -0.200000003
   1978,   1.53999996, -0.200000003
   1979,   1.55999994, -0.200000003
   1980,   1.58000004, -0.200000003
   1981,   1.60000002, -0.200000003
   1982,         1.62, -0.200000003
   1983,   1.63999999, -0.200000003
   1984,   1.65999997, -0.200000003
   1985,   1.67999995, -0.200000003
   1986,   1.70000005, -0.200000003
   1987,   1.72000003, -0.200000003
   1988,   1.74000001, -0.200000003
   1989,   1.75999999, -0.200000003
   1990,   1.77999997, -0.200000003
   1991,   1.79999995, -0.200000003
   1992,  -1.77999997, -0.219999999
   1993,  -1.79999995, -0.219999999
   1994,  -1.75999999, -0.219999999
   1995,  -1.74000001, -0.219999999
   1996,  -1.72000003, -0.219999999
   1997,  -1.70000005, -0.219999999
   1998,  -1.67999995, -0.219999999
   1999,  -1.65999997, -0.219999999
   2000,  -1.63999999, -0.219999999
   2001,        -1.62, -0.219999999
   2002,  -1.60000002, -0.219999999
   2003,  -1.58000004, -0.219999999
   2004,  -1.55999994, -0.219999999
   2005,  -1.53999996, -0.219999999
   2006,  -1.51999998, -0.219999999
   2007,         -1.5, -0.219999999
   2008,  -1.48000002, -0.219999999
   2009,  -1.46000004, -0.219999999
   2010,  -1.44000006, -0.219999999
   2011,  -1.41999996, -0.219999999
   2012,  -1.39999998, -0.219999999
   2013,        -1.38, -0.219999999
   2014,  -1.36000001, -0.219999999
   2015,  -1.34000003, -0.219999999
   2016,  -1.32000005, -0.219999999
   2017,  -1.29999995, -0.219999999
   2018,  -1.27999997, -0.219999999
   2019,  -1.25999999, -0.219999999
   2020,  -1.24000001, -0.219999999
   2021,  -1.22000003, -0.219999999
   2022,  -1.20000005, -0.219999999
   2023,  -1.17999995, -0.219999999
   2024,  -1.15999997, -0.219999999
   2025,  -1.13999999, -0.219999999
   2026,        -1.12, -0.219999999
   2027,  -1.10000002, -0.219999999
   2028,  -1.08000004, -0.219999999
   2029,  -1.05999994, -0.219999999
   2030,  -1.03999996, -0.219999999
   2031,  -1.01999998, -0.219999999
   2032,          -1., -0.219999999
   2033, -0.980000019, -0.219999999
   2034, -0.959999979, -0.219999999
   2035, -0.939999998, -0.219999999
   2036, -0.920000017, -0.219999999
   2037, -0.899999976, -0.219999999
   2038, -0.879999995, -0.219999999
   2039, -0.860000014, -0.219999999
   2040, -0.839999974, -0.219999999
   2041, -0.819999993, -0.219999999
   2042, -0.800000012, -0.219999999
   2043, -0.779999971, -0.219999999
   2044,  -0.75999999, -0.219999999
   2045,  -0.74000001, -0.219999999
   2046, -0.720000029, -0.219999999
   2047, -0.699999988, -0.219999999
   2048, -0.680000007, -0.219999999
   2049, -0.660000026, -0.219999999
   2050, -0.639999986, -0.219999999
   2051, -0.620000005, -0.219999999
   2052, -0.600000024, -0.219999999
   2053, -0.579999983, -0.219999999
   2054, -0.560000002, -0.219999999
   2055, -0.540000021, -0.219999999
   2056, -0.519999981, -0.219999999
   2057,         -0.5, -0.219999999
   2058, -0.479999989, -0.219999999
   2059, -0.460000008, -0.219999999
   2060, -0.439999998, -0.219999999
   2061, -0.419999987, -0.219999999
   2062, -0.400000006, -0.219999999
   2063, -0.379999995, -0.219999999
   2064, -0.360000014, -0.219999999
   2065, -0.340000004, -0.219999999
   2066, -0.319999993, -0.219999999
   2067, -0.300000012, -0.219999999
   2068, -0.280000001, -0.219999999
   2069,  -0.25999999, -0.219999999
   2070, -0.239999995, -0.219999999
   2071, -0.219999999, -0.219999999
   2072, -0.200000003, -0.219999999
   2073, -0.180000007, -0.219999999
   2074, -0.159999996, -0.219999999
   2075, -0.140000001, -0.219999999
   2076, -0.119999997, -0.219999999
   2077, -0.100000001, -0.219999999
   2078, -0.0799999982, -0.219999999
   2079, -0.0599999987, -0.219999999
   2080, -0.0399999991, -0.219999999
   2081, -0.0199999996, -0.219999999
   2082,           0., -0.219999999
   2083, 0.0199999996, -0.219999999
   2084, 0.0399999991, -0.219999999
   2085, 0.0599999987, -0.219999999
   2086, 0.0799999982, -0.219999999
   2087,  0.100000001, -0.219999999
   2088,  0.119999997, -0.219999999
   2089,  0.140000001, -0.219999999
   2090,  0.159999996, -0.219999999
   2091,  0.180000007, -0.219999999
   2092,  0.200000003, -0.219999999
   2093,  0.219999999, -0.219999999
   2094,  0.239999995, -0.219999999
   2095,   0.25999999, -0.219999999
   2096,  0.280000001, -0.219999999
   2097,  0.300000012, -0.219999999
   2098,  0.319999993, -0.219999999
   2099,  0.340000004, -0.219999999
   2100,  0.360000014, -0.219999999
   2101,  0.379999995, -0.219999999
   2102,  0.400000006, -0.219999999
   2103,  0.419999987, -0.219999999
   2104,  0.439999998, -0.219999999
   2105,  0.460000008, -0.219999999
   2106,  0.479999989, -0.219999999
   2107,          0.5, -0.219999999
   2108,  0.519999981, -0.219999999
   2109,  0.540000021, -0.219999999
   2110,  0.560000002, -0.219999999
   2111,  0.579999983, -0.219999999
   2112,  0.600000024, -0.219999999
   2113,  0.620000005, -0.219999999
   2114,  0.639999986, -0.219999999
   2115,  0.660000026, -0.219999999
   2116,  0.680000007, -0.219999999
   2117,  0.699999988, -0.219999999
   2118,  0.720000029, -0.219999999
   2119,   0.74000001, -0.219999999
   2120,   0.75999999, -0.219999999
   2121,  0.779999971, -0.219999999
   2122,  0.800000012, -0.219999999
   2123,  0.819999993, -0.219999999
   2124,  0.839999974, -0.219999999
   2125,  0.860000014, -0.219999999
   2126,  0.879999995, -0.219999999
   2127,  0.899999976, -0.219999999
   2128,  0.920000017, -0.219999999
   2129,  0.939999998, -0.219999999
   2130,  0.959999979, -0.219999999
   2131,  0.980000019, -0.219999999
   2132,           1., -0.219999999
   2133,   1.01999998, -0.219999999
   2134,   1.03999996, -0.219999999
   2135,   1.05999994, -0.219999999
   2136,   1.08000004, -0.219999999
   2137,   1.10000002, -0.219999999
   2138,         1.12, -0.219999999
   2139,   1.13999999, -0.219999999
   2140,   1.15999997, -0.219999999
   2141,   1.17999995, -0.219999999
   2142,   1.20000005, -0.219999999
   2143,   1.22000003, -0.219999999
   2144,   1.24000001, -0.219999999
   2145,   1.25999999, -0.219999999
   2146,   1.27999997, -0.219999999
   2147,   1.29999995, -0.219999999
   2148,   1.32000005, -0.219999999
   2149,   1.34000003, -0.219999999
   2150,   1.36000001, -0.219999999
   2151,         1.38, -0.219999999
   2152,   1.39999998, -0.219999999
   2153,   1.41999996, -0.219999999
   2154,   1.44000006, -0.219999999
   2155,   1.46000004, -0.219999999
   2156,   1.48000002, -0.219999999
   2157,          1.5, -0.219999999
   2158,   1.51999998, -0.219999999
   2159,   1.53999996, -0.219999999
   2160,   1.55999994, -0.219999999
   2161,   1.58000004, -0.219999999
   2162,   1.60000002, -0.219999999
   2163,         1.62, -0.219999999
   2164,   1.63999999, -0.219999999
   2165,   1.65999997, -0.219999999
   2166,   1.67999995, -0.219999999
   2167,   1.70000005, -0.219999999
   2168,   1.72000003, -0.219999999
   2169,   1.74000001, -0.219999999
   2170,   1.75999999, -0.219999999
   2171,   1.77999997, -0.219999999
   2172,   1.79999995, -0.219999999
   2173,  -1.77999997, -0.239999995
   2174,  -1.79999995, -0.239999995
   2175,  -1.75999999, -0.239999995
   2176,  -1.74000001, -0.239999995
   2177,  -1.72000003, -0.239999995
   2178,  -1.70000005, -0.239999995
   2179,  -1.67999995, -0.239999995
   2180,  -1.65999997, -0.239999995
   2181,  -1.63999999, -0.239999995
   2182,        -1.62, -0.239999995
   2183,  -1.60000002, -0.239999995
   2184,  -1.58000004, -0.239999995
   2185,  -1.55999994, -0.239999995
   2186,  -1.53999996, -0.239999995
   2187,  -1.51999998, -0.239999995
   2188,         -1.5, -0.239999995
   2189,  -1.48000002, -0.239999995
   2190,  -1.46000004, -0.239999995
   2191,  -1.44000006, -0.239999995
   2192,  -1.41999996, -0.239999995
   2193,  -1.39999998, -0.239999995
   2194,        -1.38, -0.239999995
   2195,  -1.36000001, -0.239999995
   2196,  -1.34000003, -0.239999995
   2197,  -1.32000005, -0.239999995
   2198,  -1.29999995, -0.239999995
   2199,  -1.27999997, -0.239999995
   2200,  -1.25999999, -0.239999995
   2201,  -1.24000001, -0.239999995
   2202,  -1.22000003, -0.239999995
   2203,  -1.20000005, -0.239999995
   2204,  -1.17999995, -0.239999995
   2205,  -1.15999997, -0.239999995
   2206,  -1.13999999, -0.239999995
   2207,        -1.12, -0.239999995
   2208,  -1.10000002, -0.239999995
   2209,  -1.08000004, -0.239999995
   2210,  -1.05999994, -0.239999995
   2211,  -1.03999996, -0.239999995
   2212,  -1.01999998, -0.239999995
   2213,          -1., -0.239999995
   2214, -0.980000019, -0.239999995
   2215, -0.959999979, -0.239999995
   2216, -0.939999998, -0.239999995
   2217, -0.920000017, -0.239999995
   2218, -0.899999976, -0.239999995
   2219, -0.879999995, -0.239999995
   2220, -0.860000014, -0.239999995
   2221, -0.839999974, -0.239999995
   2222, -0.819999993, -0.239999995
   2223, -0.800000012, -0.239999995
   2224, -0.779999971, -0.239999995
   2225,  -0.75999999, -0.239999995
   2226,  -0.74000001, -0.239999995
   2227, -0.720000029, -0.239999995
   2228, -0.699999988, -0.239999995
   2229, -0.680000007, -0.239999995
   2230, -0.660000026, -0.239999995
   2231, -0.639999986, -0.239999995
   2232, -0.620000005, -0.239999995
   2233, -0.600000024, -0.239999995
   2234, -0.579999983, -0.239999995
   2235, -0.560000002, -0.239999995
   2236, -0.540000021, -0.239999995
   2237, -0.519999981, -0.239999995
   2238,         -0.5, -0.239999995
   2239, -0.479999989, -0.239999995
   2240, -0.460000008, -0.239999995
   2241, -0.439999998, -0.239999995
   2242, -0.419999987, -0.239999995
   2243, -0.400000006, -0.239999995
   2244, -0.379999995, -0.239999995
   2245, -0.360000014, -0.239999995
   2246, -0.340000004, -0.239999995
   2247, -0.319999993, -0.239999995
   2248, -0.300000012, -0.239999995
   2249, -0.280000001, -0.239999995
   2250,  -0.25999999, -0.239999995
   2251, -0.239999995, -0.239999995
   2252, -0.219999999, -0.239999995
   2253, -0.200000003, -0.239999995
   2254, -0.180000007, -0.239999995
   2255, -0.159999996, -0.239999995
   2256, -0.140000001, -0.239999995
   2257, -0.119999997, -0.239999995
   2258, -0.100000001, -0.239999995
   2259, -0.0799999982, -0.239999995
   2260, -0.0599999987, -0.239999995
   2261, -0.0399999991, -0.239999995
   2262, -0.0199999996, -0.239999995
   2263,           0., -0.239999995
   2264, 0.0199999996, -0.239999995
   2265, 0.0399999991, -0.239999995
   2266, 0.0599999987, -0.239999995
   2267, 0.0799999982, -0.239999995
   2268,  0.100000001, -0.239999995
   2269,  0.119999997, -0.239999995
   2270,  0.140000001, -0.239999995
   2271,  0.159999996, -0.239999995
   2272,  0.180000007, -0.239999995
   2273,  0.200000003, -0.239999995
   2274,  0.219999999, -0.239999995
   2275,  0.239999995, -0.239999995
   2276,   0.25999999, -0.239999995
   2277,  0.280000001, -0.239999995
   2278,  0.300000012, -0.239999995
   2279,  0.319999993, -0.239999995
   2280,  0.340000004, -0.239999995
   2281,  0.360000014, -0.239999995
   2282,  0.379999995, -0.239999995
   2283,  0.400000006, -0.239999995
   2284,  0.419999987, -0.239999995
   2285,  0.439999998, -0.239999995
   2286,  0.460000008, -0.239999995
   2287,  0.479999989, -0.239999995
   2288,          0.5, -0.239999995
   2289,  0.519999981, -0.239999995
   2290,  0.540000021, -0.239999995
   2291,  0.560000002, -0.239999995
   2292,  0.579999983, -0.239999995
   2293,  0.600000024, -0.239999995
   2294,  0.620000005, -0.239999995
   2295,  0.639999986, -0.239999995
   2296,  0.660000026, -0.239999995
   2297,  0.680000007, -0.239999995
   2298,  0.699999988, -0.239999995
   2299,  0.720000029, -0.239999995
   2300,   0.74000001, -0.239999995
   2301,   0.75999999, -0.239999995
   2302,  0.779999971, -0.239999995
   2303,  0.800000012, -0.239999995
   2304,  0.819999993, -0.239999995
   2305,  0.839999974, -0.239999995
   2306,  0.860000014, -0.239999995
   2307,  0.879999995, -0.239999995
   2308,  0.899999976, -0.239999995
   2309,  0.920000017, -0.239999995
   2310,  0.939999998, -0.239999995
   2311,  0.959999979, -0.239999995
   2312,  0.980000019, -0.239999995
   2313,           1., -0.239999995
   2314,   1.01999998, -0.239999995
   2315,   1.03999996, -0.239999995
   2316,   1.05999994, -0.239999995
   2317,   1.08000004, -0.239999995
   2318,   1.10000002, -0.239999995
   2319,         1.12, -0.239999995
   2320,   1.13999999, -0.239999995
   2321,   1.15999997, -0.239999995
   2322,   1.17999995, -0.239999995
   2323,   1.20000005, -0.239999995
   2324,   1.22000003, -0.239999995
   2325,   1.24000001, -0.239999995
   2326,   1.25999999, -0.239999995
   2327,   1.27999997, -0.239999995
   2328,   1.29999995, -0.239999995
   2329,   1.32000005, -0.239999995
   2330,   1.34000003, -0.239999995
   2331,   1.36000001, -0.239999995
   2332,         1.38, -0.239999995
   2333,   1.39999998, -0.239999995
   2334,   1.41999996, -0.239999995
   2335,   1.44000006, -0.239999995
   2336,   1.46000004, -0.239999995
   2337,   1.48000002, -0.239999995
   2338,          1.5, -0.239999995
   2339,   1.51999998, -0.239999995
   2340,   1.53999996, -0.239999995
   2341,   1.55999994, -0.239999995
   2342,   1.58000004, -0.239999995
   2343,   1.60000002, -0.239999995
   2344,         1.62, -0.239999995
   2345,   1.63999999, -0.239999995
   2346,   1.65999997, -0.239999995
   2347,   1.67999995, -0.239999995
   2348,   1.70000005, -0.239999995
   2349,   1.72000003, -0.239999995
   2350,   1.74000001, -0.239999995
   2351,   1.75999999, -0.239999995
   2352,   1.77999997, -0.239999995
   2353,   1.79999995, -0.239999995
   2354,  -1.77999997,  -0.25999999
   2355,  -1.79999995,  -0.25999999
   2356,  -1.75999999,  -0.25999999
   2357,  -1.74000001,  -0.25999999
   2358,  -1.72000003,  -0.25999999
   2359,  -1.70000005,  -0.25999999
   2360,  -1.67999995,  -0.25999999
   2361,  -1.65999997,  -0.25999999
   2362,  -1.63999999,  -0.25999999
   2363,        -1.62,  -0.25999999
   2364,  -1.60000002,  -0.25999999
   2365,  -1.58000004,  -0.25999999
   2366,  -1.55999994,  -0.25999999
   2367,  -1.53999996,  -0.25999999
   2368,  -1.51999998,  -0.25999999
   2369,         -1.5,  -0.25999999
   2370,  -1.48000002,  -0.25999999
   2371,  -1.46000004,  -0.25999999
   2372,  -1.44000006,  -0.25999999
   2373,  -1.41999996,  -0.25999999
   2374,  -1.39999998,  -0.25999999
   2375,        -1.38,  -0.25999999
   2376,  -1.36000001,  -0.25999999
   2377,  -1.34000003,  -0.25999999
   2378,  -1.32000005,  -0.25999999
   2379,  -1.29999995,  -0.25999999
   2380,  -1.27999997,  -0.25999999
   2381,  -1.25999999,  -0.25999999
   2382,  -1.24000001,  -0.25999999
   2383,  -1.22000003,  -0.25999999
   2384,  -1.20000005,  -0.25999999
   2385,  -1.17999995,  -0.25999999
   2386,  -1.15999997,  -0.25999999
   2387,  -1.13999999,  -0.25999999
   2388,        -1.12,  -0.25999999
   2389,  -1.10000002,  -0.25999999
   2390,  -1.08000004,  -0.25999999
   2391,  -1.05999994,  -0.25999999
   2392,  -1.03999996,  -0.25999999
   2393,  -1.01999998,  -0.25999999
   2394,          -1.,  -0.25999999
   2395, -0.980000019,  -0.25999999
   2396, -0.959999979,  -0.25999999
   2397, -0.939999998,  -0.25999999
   2398, -0.920000017,  -0.25999999
   2399, -0.899999976,  -0.25999999
   2400, -0.879999995,  -0.25999999
   2401, -0.860000014,  -0.25999999
   2402, -0.839999974,  -0.25999999
   2403, -0.819999993,  -0.25999999
   2404, -0.800000012,  -0.25999999
   2405, -0.779999971,  -0.25999999
   2406,  -0.75999999,  -0.25999999
   2407,  -0.74000001,  -0.25999999
   2408, -0.720000029,  -0.25999999
   2409, -0.699999988,  -0.25999999
   2410, -0.680000007,  -0.25999999
   2411, -0.660000026,  -0.25999999
   2412, -0.639999986,  -0.25999999
   2413, -0.620000005,  -0.25999999
   2414, -0.600000024,  -0.25999999
   2415, -0.579999983,  -0.25999999
   2416, -0.560000002,  -0.25999999
   2417, -0.540000021,  -0.25999999
   2418, -0.519999981,  -0.25999999
   2419,         -0.5,  -0.25999999
   2420, -0.479999989,  -0.25999999
   2421, -0.460000008,  -0.25999999
   2422, -0.439999998,  -0.25999999
   2423, -0.419999987,  -0.25999999
   2424, -0.400000006,  -0.25999999
   2425, -0.379999995,  -0.25999999
   2426, -0.360000014,  -0.25999999
   2427, -0.340000004,  -0.25999999
   2428, -0.319999993,  -0.25999999
   2429, -0.300000012,  -0.25999999
   2430, -0.280000001,  -0.25999999
   2431,  -0.25999999,  -0.25999999
   2432, -0.239999995,  -0.25999999
   2433, -0.219999999,  -0.25999999
   2434, -0.200000003,  -0.25999999
   2435, -0.180000007,  -0.25999999
   2436, -0.159999996,  -0.25999999
   2437, -0.140000001,  -0.25999999
   2438, -0.119999997,  -0.25999999
   2439, -0.100000001,  -0.25999999
   2440, -0.0799999982,  -0.25999999
   2441, -0.0599999987,  -0.25999999
   2442, -0.0399999991,  -0.25999999
   2443, -0.0199999996,  -0.25999999
   2444,           0.,  -0.25999999
   2445, 0.0199999996,  -0.25999999
   2446, 0.0399999991,  -0.25999999
   2447, 0.0599999987,  -0.25999999
   2448, 0.0799999982,  -0.25999999
   2449,  0.100000001,  -0.25999999
   2450,  0.119999997,  -0.25999999
   2451,  0.140000001,  -0.25999999
   2452,  0.159999996,  -0.25999999
   2453,  0.180000007,  -0.25999999
   2454,  0.200000003,  -0.25999999
   2455,  0.219999999,  -0.25999999
   2456,  0.239999995,  -0.25999999
   2457,   0.25999999,  -0.25999999
   2458,  0.280000001,  -0.25999999
   2459,  0.300000012,  -0.25999999
   2460,  0.319999993,  -0.25999999
   2461,  0.340000004,  -0.25999999
   2462,  0.360000014,  -0.25999999
   2463,  0.379999995,  -0.25999999
   2464,  0.400000006,  -0.25999999
   2465,  0.419999987,  -0.25999999
   2466,  0.439999998,  -0.25999999
   2467,  0.460000008,  -0.25999999
   2468,  0.479999989,  -0.25999999
   2469,          0.5,  -0.25999999
   2470,  0.519999981,  -0.25999999
   2471,  0.540000021,  -0.25999999
   2472,  0.560000002,  -0.25999999
   2473,  0.579999983,  -0.25999999
   2474,  0.600000024,  -0.25999999
   2475,  0.620000005,  -0.25999999
   2476,  0.639999986,  -0.25999999
   2477,  0.660000026,  -0.25999999
   2478,  0.680000007,  -0.25999999
   2479,  0.699999988,  -0.25999999
   2480,  0.720000029,  -0.25999999
   2481,   0.74000001,  -0.25999999
   2482,   0.75999999,  -0.25999999
   2483,  0.779999971,  -0.25999999
   2484,  0.800000012,  -0.25999999
   2485,  0.819999993,  -0.25999999
   2486,  0.839999974,  -0.25999999
   2487,  0.860000014,  -0.25999999
   2488,  0.879999995,  -0.25999999
   2489,  0.899999976,  -0.25999999
   2490,  0.920000017,  -0.25999999
   2491,  0.939999998,  -0.25999999
   2492,  0.959999979,  -0.25999999
   2493,  0.980000019,  -0.25999999
   2494,           1.,  -0.25999999
   2495,   1.01999998,  -0.25999999
   2496,   1.03999996,  -0.25999999
   2497,   1.05999994,  -0.25999999
   2498,   1.08000004,  -0.25999999
   2499,   1.10000002,  -0.25999999
   2500,         1.12,  -0.25999999
   2501,   1.13999999,  -0.25999999
   2502,   1.15999997,  -0.25999999
   2503,   1.17999995,  -0.25999999
   2504,   1.20000005,  -0.25999999
   2505,   1.22000003,  -0.25999999
   2506,   1.24000001,  -0.25999999
   2507,   1.25999999,  -0.25999999
   2508,   1.27999997,  -0.25999999
   2509,   1.29999995,  -0.25999999
   2510,   1.32000005,  -0.25999999
   2511,   1.34000003,  -0.25999999
   2512,   1.36000001,  -0.25999999
   2513,         1.38,  -0.25999999
   2514,   1.39999998,  -0.25999999
   2515,   1.41999996,  -0.25999999
   2516,   1.44000006,  -0.25999999
   2517,   1.46000004,  -0.25999999
   2518,   1.48000002,  -0.25999999
   2519,          1.5,  -0.25999999
   2520,   1.51999998,  -0.25999999
   2521,   1.53999996,  -0.25999999
   2522,   1.55999994,  -0.25999999
   2523,   1.58000004,  -0.25999999
   2524,   1.60000002,  -0.25999999
   2525,         1.62,  -0.25999999
   2526,   1.63999999,  -0.25999999
   2527,   1.65999997,  -0.25999999
   2528,   1.67999995,  -0.25999999
   2529,   1.70000005,  -0.25999999
   2530,   1.72000003,  -0.25999999
   2531,   1.74000001,  -0.25999999
   2532,   1.75999999,  -0.25999999
   2533,   1.77999997,  -0.25999999
   2534,   1.79999995,  -0.25999999
   2535,  -1.77999997, -0.280000001
   2536,  -1.79999995, -0.280000001
   2537,  -1.75999999, -0.280000001
   2538,  -1.74000001, -0.280000001
   2539,  -1.72000003, -0.280000001
   2540,  -1.70000005, -0.280000001
   2541,  -1.67999995, -0.280000001
   2542,  -1.65999997, -0.280000001
   2543,  -1.63999999, -0.280000001
   2544,        -1.62, -0.280000001
   2545,  -1.60000002, -0.280000001
   2546,  -1.58000004, -0.280000001
   2547,  -1.55999994, -0.280000001
   2548,  -1.53999996, -0.280000001
   2549,  -1.51999998, -0.280000001
   2550,         -1.5, -0.280000001
   2551,  -1.48000002, -0.280000001
   2552,  -1.46000004, -0.280000001
   2553,  -1.44000006, -0.280000001
   2554,  -1.41999996, -0.280000001
   2555,  -1.39999998, -0.280000001
   2556,        -1.38, -0.280000001
   2557,  -1.36000001, -0.280000001
   2558,  -1.34000003, -0.280000001
   2559,  -1.32000005, -0.280000001
   2560,  -1.29999995, -0.280000001
   2561,  -1.27999997, -0.280000001
   2562,  -1.25999999, -0.280000001
   2563,  -1.24000001, -0.280000001
   2564,  -1.22000003, -0.280000001
   2565,  -1.20000005, -0.280000001
   2566,  -1.17999995, -0.280000001
   2567,  -1.15999997, -0.280000001
   2568,  -1.13999999, -0.280000001
   2569,        -1.12, -0.280000001
   2570,  -1.10000002, -0.280000001
   2571,  -1.08000004, -0.280000001
   2572,  -1.05999994, -0.280000001
   2573,  -1.03999996, -0.280000001
   2574,  -1.01999998, -0.280000001
   2575,          -1., -0.280000001
   2576, -0.980000019, -0.280000001
   2577, -0.959999979, -0.280000001
   2578, -0.939999998, -0.280000001
   2579, -0.920000017, -0.280000001
   2580, -0.899999976, -0.280000001
   2581, -0.879999995, -0.280000001
   2582, -0.860000014, -0.280000001
   2583, -0.839999974, -0.280000001
   2584, -0.819999993, -0.280000001
   2585, -0.800000012, -0.280000001
   2586, -0.779999971, -0.280000001
   2587,  -0.75999999, -0.280000001
   2588,  -0.74000001, -0.280000001
   2589, -0.720000029, -0.280000001
   2590, -0.699999988, -0.280000001
   2591, -0.680000007, -0.280000001
   2592, -0.660000026, -0.280000001
   2593, -0.639999986, -0.280000001
   2594, -0.620000005, -0.280000001
   2595, -0.600000024, -0.280000001
   2596, -0.579999983, -0.280000001
   2597, -0.560000002, -0.280000001
   2598, -0.540000021, -0.280000001
   2599, -0.519999981, -0.280000001
   2600,         -0.5, -0.280000001
   2601, -0.479999989, -0.280000001
   2602, -0.460000008, -0.280000001
   2603, -0.439999998, -0.280000001
   2604, -0.419999987, -0.280000001
   2605, -0.400000006, -0.280000001
   2606, -0.379999995, -0.280000001
   2607, -0.360000014, -0.280000001
   2608, -0.340000004, -0.280000001
   2609, -0.319999993, -0.280000001
   2610, -0.300000012, -0.280000001
   2611, -0.280000001, -0.280000001
   2612,  -0.25999999, -0.280000001
   2613, -0.239999995, -0.280000001
   2614, -0.219999999, -0.280000001
   2615, -0.200000003, -0.280000001
   2616, -0.180000007, -0.280000001
   2617, -0.159999996, -0.280000001
   2618, -0.140000001, -0.280000001
   2619, -0.119999997, -0.280000001
   2620, -0.100000001, -0.280000001
   2621, -0.0799999982, -0.280000001
   2622, -0.0599999987, -0.280000001
   2623, -0.0399999991, -0.280000001
   2624, -0.0199999996, -0.280000001
   2625,           0., -0.280000001
   2626, 0.0199999996, -0.280000001
   2627, 0.0399999991, -0.280000001
   2628, 0.0599999987, -0.280000001
   2629, 0.0799999982, -0.280000001
   2630,  0.100000001, -0.280000001
   2631,  0.119999997, -0.280000001
   2632,  0.140000001, -0.280000001
   2633,  0.159999996, -0.280000001
   2634,  0.180000007, -0.280000001
   2635,  0.200000003, -0.280000001
   2636,  0.219999999, -0.280000001
   2637,  0.239999995, -0.280000001
   2638,   0.25999999, -0.280000001
   2639,  0.280000001, -0.280000001
   2640,  0.300000012, -0.280000001
   2641,  0.319999993, -0.280000001
   2642,  0.340000004, -0.280000001
   2643,  0.360000014, -0.280000001
   2644,  0.379999995, -0.280000001
   2645,  0.400000006, -0.280000001
   2646,  0.419999987, -0.280000001
   2647,  0.439999998, -0.280000001
   2648,  0.460000008, -0.280000001
   2649,  0.479999989, -0.280000001
   2650,          0.5, -0.280000001
   2651,  0.519999981, -0.280000001
   2652,  0.540000021, -0.280000001
   2653,  0.560000002, -0.280000001
   2654,  0.579999983, -0.280000001
   2655,  0.600000024, -0.280000001
   2656,  0.620000005, -0.280000001
   2657,  0.639999986, -0.280000001
   2658,  0.660000026, -0.280000001
   2659,  0.680000007, -0.280000001
   2660,  0.699999988, -0.280000001
   2661,  0.720000029, -0.280000001
   2662,   0.74000001, -0.280000001
   2663,   0.75999999, -0.280000001
   2664,  0.779999971, -0.280000001
   2665,  0.800000012, -0.280000001
   2666,  0.819999993, -0.280000001
   2667,  0.839999974, -0.280000001
   2668,  0.860000014, -0.280000001
   2669,  0.879999995, -0.280000001
   2670,  0.899999976, -0.280000001
   2671,  0.920000017, -0.280000001
   2672,  0.939999998, -0.280000001
   2673,  0.959999979, -0.280000001
   2674,  0.980000019, -0.280000001
   2675,           1., -0.280000001
   2676,   1.01999998, -0.280000001
   2677,   1.03999996, -0.280000001
   2678,   1.05999994, -0.280000001
   2679,   1.08000004, -0.280000001
   2680,   1.10000002, -0.280000001
   2681,         1.12, -0.280000001
   2682,   1.13999999, -0.280000001
   2683,   1.15999997, -0.280000001
   2684,   1.17999995, -0.280000001
   2685,   1.20000005, -0.280000001
   2686,   1.22000003, -0.280000001
   2687,   1.24000001, -0.280000001
   2688,   1.25999999, -0.280000001
   2689,   1.27999997, -0.280000001
   2690,   1.29999995, -0.280000001
   2691,   1.32000005, -0.280000001
   2692,   1.34000003, -0.280000001
   2693,   1.36000001, -0.280000001
   2694,         1.38, -0.280000001
   2695,   1.39999998, -0.280000001
   2696,   1.41999996, -0.280000001
   2697,   1.44000006, -0.280000001
   2698,   1.46000004, -0.280000001
   2699,   1.48000002, -0.280000001
   2700,          1.5, -0.280000001
   2701,   1.51999998, -0.280000001
   2702,   1.53999996, -0.280000001
   2703,   1.55999994, -0.280000001
   2704,   1.58000004, -0.280000001
   2705,   1.60000002, -0.280000001
   2706,         1.62, -0.280000001
   2707,   1.63999999, -0.280000001
   2708,   1.65999997, -0.280000001
   2709,   1.67999995, -0.280000001
   2710,   1.70000005, -0.280000001
   2711,   1.72000003, -0.280000001
   2712,   1.74000001, -0.280000001
   2713,   1.75999999, -0.280000001
   2714,   1.77999997, -0.280000001
   2715,   1.79999995, -0.280000001
   2716,  -1.77999997, -0.300000012
   2717,  -1.79999995, -0.300000012
   2718,  -1.75999999, -0.300000012
   2719,  -1.74000001, -0.300000012
   2720,  -1.72000003, -0.300000012
   2721,  -1.70000005, -0.300000012
   2722,  -1.67999995, -0.300000012
   2723,  -1.65999997, -0.300000012
   2724,  -1.63999999, -0.300000012
   2725,        -1.62, -0.300000012
   2726,  -1.60000002, -0.300000012
   2727,  -1.58000004, -0.300000012
   2728,  -1.55999994, -0.300000012
   2729,  -1.53999996, -0.300000012
   2730,  -1.51999998, -0.300000012
   2731,         -1.5, -0.300000012
   2732,  -1.48000002, -0.300000012
   2733,  -1.46000004, -0.300000012
   2734,  -1.44000006, -0.300000012
   2735,  -1.41999996, -0.300000012
   2736,  -1.39999998, -0.300000012
   2737,        -1.38, -0.300000012
   2738,  -1.36000001, -0.300000012
   2739,  -1.34000003, -0.300000012
   2740,  -1.32000005, -0.300000012
   2741,  -1.29999995, -0.300000012
   2742,  -1.27999997, -0.300000012
   2743,  -1.25999999, -0.300000012
   2744,  -1.24000001, -0.300000012
   2745,  -1.22000003, -0.300000012
   2746,  -1.20000005, -0.300000012
   2747,  -1.17999995, -0.300000012
   2748,  -1.15999997, -0.300000012
   2749,  -1.13999999, -0.300000012
   2750,        -1.12, -0.300000012
   2751,  -1.10000002, -0.300000012
   2752,  -1.08000004, -0.300000012
   2753,  -1.05999994, -0.300000012
   2754,  -1.03999996, -0.300000012
   2755,  -1.01999998, -0.300000012
   2756,          -1., -0.300000012
   2757, -0.980000019, -0.300000012
   2758, -0.959999979, -0.300000012
   2759, -0.939999998, -0.300000012
   2760, -0.920000017, -0.300000012
   2761, -0.899999976, -0.300000012
   2762, -0.879999995, -0.300000012
   2763, -0.860000014, -0.300000012
   2764, -0.839999974, -0.300000012
   2765, -0.819999993, -0.300000012
   2766, -0.800000012, -0.300000012
   2767, -0.779999971, -0.300000012
   2768,  -0.75999999, -0.300000012
   2769,  -0.74000001, -0.300000012
   2770, -0.720000029, -0.300000012
   2771, -0.699999988, -0.300000012
   2772, -0.680000007, -0.300000012
   2773, -0.660000026, -0.300000012
   2774, -0.639999986, -0.300000012
   2775, -0.620000005, -0.300000012
   2776, -0.600000024, -0.300000012
   2777, -0.579999983, -0.300000012
   2778, -0.560000002, -0.300000012
   2779, -0.540000021, -0.300000012
   2780, -0.519999981, -0.300000012
   2781,         -0.5, -0.300000012
   2782, -0.479999989, -0.300000012
   2783, -0.460000008, -0.300000012
   2784, -0.439999998, -0.300000012
   2785, -0.419999987, -0.300000012
   2786, -0.400000006, -0.300000012
   2787, -0.379999995, -0.300000012
   2788, -0.360000014, -0.300000012
   2789, -0.340000004, -0.300000012
   2790, -0.319999993, -0.300000012
   2791, -0.300000012, -0.300000012
   2792, -0.280000001, -0.300000012
   2793,  -0.25999999, -0.300000012
   2794, -0.239999995, -0.300000012
   2795, -0.219999999, -0.300000012
   2796, -0.200000003, -0.300000012
   2797, -0.180000007, -0.300000012
   2798, -0.159999996, -0.300000012
   2799, -0.140000001, -0.300000012
   2800, -0.119999997, -0.300000012
   2801, -0.100000001, -0.300000012
   2802, -0.0799999982, -0.300000012
   2803, -0.0599999987, -0.300000012
   2804, -0.0399999991, -0.300000012
   2805, -0.0199999996, -0.300000012
   2806,           0., -0.300000012
   2807, 0.0199999996, -0.300000012
   2808, 0.0399999991, -0.300000012
   2809, 0.0599999987, -0.300000012
   2810, 0.0799999982, -0.300000012
   2811,  0.100000001, -0.300000012
   2812,  0.119999997, -0.300000012
   2813,  0.140000001, -0.300000012
   2814,  0.159999996, -0.300000012
   2815,  0.180000007, -0.300000012
   2816,  0.200000003, -0.300000012
   2817,  0.219999999, -0.300000012
   2818,  0.239999995, -0.300000012
   2819,   0.25999999, -0.300000012
   2820,  0.280000001, -0.300000012
   2821,  0.300000012, -0.300000012
   2822,  0.319999993, -0.300000012
   2823,  0.340000004, -0.300000012
   2824,  0.360000014, -0.300000012
   2825,  0.379999995, -0.300000012
   2826,  0.400000006, -0.300000012
   2827,  0.419999987, -0.300000012
   2828,  0.439999998, -0.300000012
   2829,  0.460000008, -0.300000012
   2830,  0.479999989, -0.300000012
   2831,          0.5, -0.300000012
   2832,  0.519999981, -0.300000012
   2833,  0.540000021, -0.300000012
   2834,  0.560000002, -0.300000012
   2835,  0.579999983, -0.300000012
   2836,  0.600000024, -0.300000012
   2837,  0.620000005, -0.300000012
   2838,  0.639999986, -0.300000012
   2839,  0.660000026, -0.300000012
   2840,  0.680000007, -0.300000012
   2841,  0.699999988, -0.300000012
   2842,  0.720000029, -0.300000012
   2843,   0.74000001, -0.300000012
   2844,   0.75999999, -0.300000012
   2845,  0.779999971, -0.300000012
   2846,  0.800000012, -0.300000012
   2847,  0.819999993, -0.300000012
   2848,  0.839999974, -0.300000012
   2849,  0.860000014, -0.300000012
   2850,  0.879999995, -0.300000012
   2851,  0.899999976, -0.300000012
   2852,  0.920000017, -0.300000012
   2853,  0.939999998, -0.300000012
   2854,  0.959999979, -0.300000012
   2855,  0.980000019, -0.300000012
   2856,           1., -0.300000012
   2857,   1.01999998, -0.300000012
   2858,   1.03999996, -0.300000012
   2859,   1.05999994, -0.300000012
   2860,   1.08000004, -0.300000012
   2861,   1.10000002, -0.300000012
   2862,         1.12, -0.300000012
   2863,   1.13999999, -0.300000012
   2864,   1.15999997, -0.300000012
   2865,   1.17999995, -0.300000012
   2866,   1.20000005, -0.300000012
   2867,   1.22000003, -0.300000012
   2868,   1.24000001, -0.300000012
   2869,   1.25999999, -0.300000012
   2870,   1.27999997, -0.300000012
   2871,   1.29999995, -0.300000012
   2872,   1.32000005, -0.300000012
   2873,   1.34000003, -0.300000012
   2874,   1.36000001, -0.300000012
   2875,         1.38, -0.300000012
   2876,   1.39999998, -0.300000012
   2877,   1.41999996, -0.300000012
   2878,   1.44000006, -0.300000012
   2879,   1.46000004, -0.300000012
   2880,   1.48000002, -0.300000012
   2881,          1.5, -0.300000012
   2882,   1.51999998, -0.300000012
   2883,   1.53999996, -0.300000012
   2884,   1.55999994, -0.300000012
   2885,   1.58000004, -0.300000012
   2886,   1.60000002, -0.300000012
   2887,         1.62, -0.300000012
   2888,   1.63999999, -0.300000012
   2889,   1.65999997, -0.300000012
   2890,   1.67999995, -0.300000012
   2891,   1.70000005, -0.300000012
   2892,   1.72000003, -0.300000012
   2893,   1.74000001, -0.300000012
   2894,   1.75999999, -0.300000012
   2895,   1.77999997, -0.300000012
   2896,   1.79999995, -0.300000012
   2897,  -1.86000001,           0.
   2898,  -1.84000003,           0.
   2899,  -1.84000003, -0.0199999996
   2900,  -1.86000001, -0.0199999996
   2901,  -1.82000005,           0.
   2902,  -1.82000005, -0.0199999996
   2903,   1.82000005,           0.
   2904,   1.82000005, -0.0199999996
   2905,   1.84000003,           0.
   2906,   1.84000003, -0.0199999996
   2907,   1.86000001,           0.
   2908,   1.86000001, -0.0199999996
   2909,  -1.84000003, -0.0399999991
   2910,  -1.86000001, -0.0399999991
   2911,  -1.82000005, -0.0399999991
   2912,   1.82000005, -0.0399999991
   2913,   1.84000003, -0.0399999991
   2914,   1.86000001, -0.0399999991
   2915,  -1.84000003, -0.0599999987
   2916,  -1.86000001, -0.0599999987
   2917,  -1.82000005, -0.0599999987
   2918,   1.82000005, -0.0599999987
   2919,   1.84000003, -0.0599999987
   2920,   1.86000001, -0.0599999987
   2921,  -1.84000003, -0.0799999982
   2922,  -1.86000001, -0.0799999982
   2923,  -1.82000005, -0.0799999982
   2924,   1.82000005, -0.0799999982
   2925,   1.84000003, -0.0799999982
   2926,   1.86000001, -0.0799999982
   2927,  -1.84000003, -0.100000001
   2928,  -1.86000001, -0.100000001
   2929,  -1.82000005, -0.100000001
   2930,   1.82000005, -0.100000001
   2931,   1.84000003, -0.100000001
   2932,   1.86000001, -0.100000001
   2933,  -1.84000003, -0.119999997
   2934,  -1.86000001, -0.119999997
   2935,  -1.82000005, -0.119999997
   2936,   1.82000005, -0.119999997
   2937,   1.84000003, -0.119999997
   2938,   1.86000001, -0.119999997
   2939,  -1.84000003, -0.140000001
   2940,  -1.86000001, -0.140000001
   2941,  -1.82000005, -0.140000001
   2942,   1.82000005, -0.140000001
   2943,   1.84000003, -0.140000001
   2944,   1.86000001, -0.140000001
   2945,  -1.84000003, -0.159999996
   2946,  -1.86000001, -0.159999996
   2947,  -1.82000005, -0.159999996
   2948,   1.82000005, -0.159999996
   2949,   1.84000003, -0.159999996
   2950,   1.86000001, -0.159999996
   2951,  -1.84000003, -0.180000007
   2952,  -1.86000001, -0.180000007
   2953,  -1.82000005, -0.180000007
   2954,   1.82000005, -0.180000007
   2955,   1.84000003, -0.180000007
   2956,   1.86000001, -0.180000007
   2957,  -1.84000003, -0.200000003
   2958,  -1.86000001, -0.200000003
   2959,  -1.82000005, -0.200000003
   2960,   1.82000005, -0.200000003
   2961,   1.84000003, -0.200000003
   2962,   1.86000001, -0.200000003
   2963,  -1.84000003, -0.219999999
   2964,  -1.86000001, -0.219999999
   2965,  -1.82000005, -0.219999999
   2966,   1.82000005, -0.219999999
   2967,   1.84000003, -0.219999999
   2968,   1.86000001, -0.219999999
   2969,  -1.84000003, -0.239999995
   2970,  -1.86000001, -0.239999995
   2971,  -1.82000005, -0.239999995
   2972,   1.82000005, -0.239999995
   2973,   1.84000003, -0.239999995
   2974,   1.86000001, -0.239999995
   2975,  -1.84000003,  -0.25999999
   2976,  -1.86000001,  -0.25999999
   2977,  -1.82000005,  -0.25999999
   2978,   1.82000005,  -0.25999999
   2979,   1.84000003,  -0.25999999
   2980,   1.86000001,  -0.25999999
   2981,  -1.84000003, -0.280000001
   2982,  -1.86000001, -0.280000001
   2983,  -1.82000005, -0.280000001
   2984,   1.82000005, -0.280000001
   2985,   1.84000003, -0.280000001
   2986,   1.86000001, -0.280000001
   2987,  -1.84000003, -0.300000012
   2988,  -1.86000001, -0.300000012
   2989,  -1.82000005, -0.300000012
   2990,   1.82000005, -0.300000012
   2991,   1.84000003, -0.300000012
   2992,   1.86000001, -0.300000012
   2993,  -1.84000003, -0.319999993
   2994,  -1.86000001, -0.319999993
   2995,  -1.82000005, -0.319999993
   2996,  -1.79999995, -0.319999993
   2997,  -1.77999997, -0.319999993
   2998,  -1.75999999, -0.319999993
   2999,  -1.74000001, -0.319999993
   3000,  -1.72000003, -0.319999993
   3001,  -1.70000005, -0.319999993
   3002,  -1.67999995, -0.319999993
   3003,  -1.65999997, -0.319999993
   3004,  -1.63999999, -0.319999993
   3005,        -1.62, -0.319999993
   3006,  -1.60000002, -0.319999993
   3007,  -1.58000004, -0.319999993
   3008,  -1.55999994, -0.319999993
   3009,  -1.53999996, -0.319999993
   3010,  -1.51999998, -0.319999993
   3011,         -1.5, -0.319999993
   3012,  -1.48000002, -0.319999993
   3013,  -1.46000004, -0.319999993
   3014,  -1.44000006, -0.319999993
   3015,  -1.41999996, -0.319999993
   3016,  -1.39999998, -0.319999993
   3017,        -1.38, -0.319999993
   3018,  -1.36000001, -0.319999993
   3019,  -1.34000003, -0.319999993
   3020,  -1.32000005, -0.319999993
   3021,  -1.29999995, -0.319999993
   3022,  -1.27999997, -0.319999993
   3023,  -1.25999999, -0.319999993
   3024,  -1.24000001, -0.319999993
   3025,  -1.22000003, -0.319999993
   3026,  -1.20000005, -0.319999993
   3027,  -1.17999995, -0.319999993
   3028,  -1.15999997, -0.319999993
   3029,  -1.13999999, -0.319999993
   3030,        -1.12, -0.319999993
   3031,  -1.10000002, -0.319999993
   3032,  -1.08000004, -0.319999993
   3033,  -1.05999994, -0.319999993
   3034,  -1.03999996, -0.319999993
   3035,  -1.01999998, -0.319999993
   3036,          -1., -0.319999993
   3037, -0.980000019, -0.319999993
   3038, -0.959999979, -0.319999993
   3039, -0.939999998, -0.319999993
   3040, -0.920000017, -0.319999993
   3041, -0.899999976, -0.319999993
   3042, -0.879999995, -0.319999993
   3043, -0.860000014, -0.319999993
   3044, -0.839999974, -0.319999993
   3045, -0.819999993, -0.319999993
   3046, -0.800000012, -0.319999993
   3047, -0.779999971, -0.319999993
   3048,  -0.75999999, -0.319999993
   3049,  -0.74000001, -0.319999993
   3050, -0.720000029, -0.319999993
   3051, -0.699999988, -0.319999993
   3052, -0.680000007, -0.319999993
   3053, -0.660000026, -0.319999993
   3054, -0.639999986, -0.319999993
   3055, -0.620000005, -0.319999993
   3056, -0.600000024, -0.319999993
   3057, -0.579999983, -0.319999993
   3058, -0.560000002, -0.319999993
   3059, -0.540000021, -0.319999993
   3060, -0.519999981, -0.319999993
   3061,         -0.5, -0.319999993
   3062, -0.479999989, -0.319999993
   3063, -0.460000008, -0.319999993
   3064, -0.439999998, -0.319999993
   3065, -0.419999987, -0.319999993
   3066, -0.400000006, -0.319999993
   3067, -0.379999995, -0.319999993
   3068, -0.360000014, -0.319999993
   3069, -0.340000004, -0.319999993
   3070, -0.319999993, -0.319999993
   3071, -0.300000012, -0.319999993
   3072, -0.280000001, -0.319999993
   3073,  -0.25999999, -0.319999993
   3074, -0.239999995, -0.319999993
   3075, -0.219999999, -0.319999993
   3076, -0.200000003, -0.319999993
   3077, -0.180000007, -0.319999993
   3078, -0.159999996, -0.319999993
   3079, -0.140000001, -0.319999993
   3080, -0.119999997, -0.319999993
   3081, -0.100000001, -0.319999993
   3082, -0.0799999982, -0.319999993
   3083, -0.0599999987, -0.319999993
   3084, -0.0399999991, -0.319999993
   3085, -0.0199999996, -0.319999993
   3086,           0., -0.319999993
   3087, 0.0199999996, -0.319999993
   3088, 0.0399999991, -0.319999993
   3089, 0.0599999987, -0.319999993
   3090, 0.0799999982, -0.319999993
   3091,  0.100000001, -0.319999993
   3092,  0.119999997, -0.319999993
   3093,  0.140000001, -0.319999993
   3094,  0.159999996, -0.319999993
   3095,  0.180000007, -0.319999993
   3096,  0.200000003, -0.319999993
   3097,  0.219999999, -0.319999993
   3098,  0.239999995, -0.319999993
   3099,   0.25999999, -0.319999993
   3100,  0.280000001, -0.319999993
   3101,  0.300000012, -0.319999993
   3102,  0.319999993, -0.319999993
   3103,  0.340000004, -0.319999993
   3104,  0.360000014, -0.319999993
   3105,  0.379999995, -0.319999993
   3106,  0.400000006, -0.319999993
   3107,  0.419999987, -0.319999993
   3108,  0.439999998, -0.319999993
   3109,  0.460000008, -0.319999993
   3110,  0.479999989, -0.319999993
   3111,          0.5, -0.319999993
   3112,  0.519999981, -0.319999993
   3113,  0.540000021, -0.319999993
   3114,  0.560000002, -0.319999993
   3115,  0.579999983, -0.319999993
   3116,  0.600000024, -0.319999993
   3117,  0.620000005, -0.319999993
   3118,  0.639999986, -0.319999993
   3119,  0.660000026, -0.319999993
   3120,  0.680000007, -0.319999993
   3121,  0.699999988, -0.319999993
   3122,  0.720000029, -0.319999993
   3123,   0.74000001, -0.319999993
   3124,   0.75999999, -0.319999993
   3125,  0.779999971, -0.319999993
   3126,  0.800000012, -0.319999993
   3127,  0.819999993, -0.319999993
   3128,  0.839999974, -0.319999993
   3129,  0.860000014, -0.319999993
   3130,  0.879999995, -0.319999993
   3131,  0.899999976, -0.319999993
   3132,  0.920000017, -0.319999993
   3133,  0.939999998, -0.319999993
   3134,  0.959999979, -0.319999993
   3135,  0.980000019, -0.319999993
   3136,           1., -0.319999993
   3137,   1.01999998, -0.319999993
   3138,   1.03999996, -0.319999993
   3139,   1.05999994, -0.319999993
   3140,   1.08000004, -0.319999993
   3141,   1.10000002, -0.319999993
   3142,         1.12, -0.319999993
   3143,   1.13999999, -0.319999993
   3144,   1.15999997, -0.319999993
   3145,   1.17999995, -0.319999993
   3146,   1.20000005, -0.319999993
   3147,   1.22000003, -0.319999993
   3148,   1.24000001, -0.319999993
   3149,   1.25999999, -0.319999993
   3150,   1.27999997, -0.319999993
   3151,   1.29999995, -0.319999993
   3152,   1.32000005, -0.319999993
   3153,   1.34000003, -0.319999993
   3154,   1.36000001, -0.319999993
   3155,         1.38, -0.319999993
   3156,   1.39999998, -0.319999993
   3157,   1.41999996, -0.319999993
   3158,   1.44000006, -0.319999993
   3159,   1.46000004, -0.319999993
   3160,   1.48000002, -0.319999993
   3161,          1.5, -0.319999993
   3162,   1.51999998, -0.319999993
   3163,   1.53999996, -0.319999993
   3164,   1.55999994, -0.319999993
   3165,   1.58000004, -0.319999993
   3166,   1.60000002, -0.319999993
   3167,         1.62, -0.319999993
   3168,   1.63999999, -0.319999993
   3169,   1.65999997, -0.319999993
   3170,   1.67999995, -0.319999993
   3171,   1.70000005, -0.319999993
   3172,   1.72000003, -0.319999993
   3173,   1.74000001, -0.319999993
   3174,   1.75999999, -0.319999993
   3175,   1.77999997, -0.319999993
   3176,   1.79999995, -0.319999993
   3177,   1.82000005, -0.319999993
   3178,   1.84000003, -0.319999993
   3179,   1.86000001, -0.319999993
   3180,  -1.84000003, -0.340000004
   3181,  -1.86000001, -0.340000004
   3182,  -1.82000005, -0.340000004
   3183,  -1.79999995, -0.340000004
   3184,  -1.77999997, -0.340000004
   3185,  -1.75999999, -0.340000004
   3186,  -1.74000001, -0.340000004
   3187,  -1.72000003, -0.340000004
   3188,  -1.70000005, -0.340000004
   3189,  -1.67999995, -0.340000004
   3190,  -1.65999997, -0.340000004
   3191,  -1.63999999, -0.340000004
   3192,        -1.62, -0.340000004
   3193,  -1.60000002, -0.340000004
   3194,  -1.58000004, -0.340000004
   3195,  -1.55999994, -0.340000004
   3196,  -1.53999996, -0.340000004
   3197,  -1.51999998, -0.340000004
   3198,         -1.5, -0.340000004
   3199,  -1.48000002, -0.340000004
   3200,  -1.46000004, -0.340000004
   3201,  -1.44000006, -0.340000004
   3202,  -1.41999996, -0.340000004
   3203,  -1.39999998, -0.340000004
   3204,        -1.38, -0.340000004
   3205,  -1.36000001, -0.340000004
   3206,  -1.34000003, -0.340000004
   3207,  -1.32000005, -0.340000004
   3208,  -1.29999995, -0.340000004
   3209,  -1.27999997, -0.340000004
   3210,  -1.25999999, -0.340000004
   3211,  -1.24000001, -0.340000004
   3212,  -1.22000003, -0.340000004
   3213,  -1.20000005, -0.340000004
   3214,  -1.17999995, -0.340000004
   3215,  -1.15999997, -0.340000004
   3216,  -1.13999999, -0.340000004
   3217,        -1.12, -0.340000004
   3218,  -1.10000002, -0.340000004
   3219,  -1.08000004, -0.340000004
   3220,  -1.05999994, -0.340000004
   3221,  -1.03999996, -0.340000004
   3222,  -1.01999998, -0.340000004
   3223,          -1., -0.340000004
   3224, -0.980000019, -0.340000004
   3225, -0.959999979, -0.340000004
   3226, -0.939999998, -0.340000004
   3227, -0.920000017, -0.340000004
   3228, -0.899999976, -0.340000004
   3229, -0.879999995, -0.340000004
   3230, -0.860000014, -0.340000004
   3231, -0.839999974, -0.340000004
   3232, -0.819999993, -0.340000004
   3233, -0.800000012, -0.340000004
   3234, -0.779999971, -0.340000004
   3235,  -0.75999999, -0.340000004
   3236,  -0.74000001, -0.340000004
   3237, -0.720000029, -0.340000004
   3238, -0.699999988, -0.340000004
   3239, -0.680000007, -0.340000004
   3240, -0.660000026, -0.340000004
   3241, -0.639999986, -0.340000004
   3242, -0.620000005, -0.340000004
   3243, -0.600000024, -0.340000004
   3244, -0.579999983, -0.340000004
   3245, -0.560000002, -0.340000004
   3246, -0.540000021, -0.340000004
   3247, -0.519999981, -0.340000004
   3248,         -0.5, -0.340000004
   3249, -0.479999989, -0.340000004
   3250, -0.460000008, -0.340000004
   3251, -0.439999998, -0.340000004
   3252, -0.419999987, -0.340000004
   3253, -0.400000006, -0.340000004
   3254, -0.379999995, -0.340000004
   3255, -0.360000014, -0.340000004
   3256, -0.340000004, -0.340000004
   3257, -0.319999993, -0.340000004
   3258, -0.300000012, -0.340000004
   3259, -0.280000001, -0.340000004
   3260,  -0.25999999, -0.340000004
   3261, -0.239999995, -0.340000004
   3262, -0.219999999, -0.340000004
   3263, -0.200000003, -0.340000004
   3264, -0.180000007, -0.340000004
   3265, -0.159999996, -0.340000004
   3266, -0.140000001, -0.340000004
   3267, -0.119999997, -0.340000004
   3268, -0.100000001, -0.340000004
   3269, -0.0799999982, -0.340000004
   3270, -0.0599999987, -0.340000004
   3271, -0.0399999991, -0.340000004
   3272, -0.0199999996, -0.340000004
   3273,           0., -0.340000004
   3274, 0.0199999996, -0.340000004
   3275, 0.0399999991, -0.340000004
   3276, 0.0599999987, -0.340000004
   3277, 0.0799999982, -0.340000004
   3278,  0.100000001, -0.340000004
   3279,  0.119999997, -0.340000004
   3280,  0.140000001, -0.340000004
   3281,  0.159999996, -0.340000004
   3282,  0.180000007, -0.340000004
   3283,  0.200000003, -0.340000004
   3284,  0.219999999, -0.340000004
   3285,  0.239999995, -0.340000004
   3286,   0.25999999, -0.340000004
   3287,  0.280000001, -0.340000004
   3288,  0.300000012, -0.340000004
   3289,  0.319999993, -0.340000004
   3290,  0.340000004, -0.340000004
   3291,  0.360000014, -0.340000004
   3292,  0.379999995, -0.340000004
   3293,  0.400000006, -0.340000004
   3294,  0.419999987, -0.340000004
   3295,  0.439999998, -0.340000004
   3296,  0.460000008, -0.340000004
   3297,  0.479999989, -0.340000004
   3298,          0.5, -0.340000004
   3299,  0.519999981, -0.340000004
   3300,  0.540000021, -0.340000004
   3301,  0.560000002, -0.340000004
   3302,  0.579999983, -0.340000004
   3303,  0.600000024, -0.340000004
   3304,  0.620000005, -0.340000004
   3305,  0.639999986, -0.340000004
   3306,  0.660000026, -0.340000004
   3307,  0.680000007, -0.340000004
   3308,  0.699999988, -0.340000004
   3309,  0.720000029, -0.340000004
   3310,   0.74000001, -0.340000004
   3311,   0.75999999, -0.340000004
   3312,  0.779999971, -0.340000004
   3313,  0.800000012, -0.340000004
   3314,  0.819999993, -0.340000004
   3315,  0.839999974, -0.340000004
   3316,  0.860000014, -0.340000004
   3317,  0.879999995, -0.340000004
   3318,  0.899999976, -0.340000004
   3319,  0.920000017, -0.340000004
   3320,  0.939999998, -0.340000004
   3321,  0.959999979, -0.340000004
   3322,  0.980000019, -0.340000004
   3323,           1., -0.340000004
   3324,   1.01999998, -0.340000004
   3325,   1.03999996, -0.340000004
   3326,   1.05999994, -0.340000004
   3327,   1.08000004, -0.340000004
   3328,   1.10000002, -0.340000004
   3329,         1.12, -0.340000004
   3330,   1.13999999, -0.340000004
   3331,   1.15999997, -0.340000004
   3332,   1.17999995, -0.340000004
   3333,   1.20000005, -0.340000004
   3334,   1.22000003, -0.340000004
   3335,   1.24000001, -0.340000004
   3336,   1.25999999, -0.340000004
   3337,   1.27999997, -0.340000004
   3338,   1.29999995, -0.340000004
   3339,   1.32000005, -0.340000004
   3340,   1.34000003, -0.340000004
   3341,   1.36000001, -0.340000004
   3342,         1.38, -0.340000004
   3343,   1.39999998, -0.340000004
   3344,   1.41999996, -0.340000004
   3345,   1.44000006, -0.340000004
   3346,   1.46000004, -0.340000004
   3347,   1.48000002, -0.340000004
   3348,          1.5, -0.340000004
   3349,   1.51999998, -0.340000004
   3350,   1.53999996, -0.340000004
   3351,   1.55999994, -0.340000004
   3352,   1.58000004, -0.340000004
   3353,   1.60000002, -0.340000004
   3354,         1.62, -0.340000004
   3355,   1.63999999, -0.340000004
   3356,   1.65999997, -0.340000004
   3357,   1.67999995, -0.340000004
   3358,   1.70000005, -0.340000004
   3359,   1.72000003, -0.340000004
   3360,   1.74000001, -0.340000004
   3361,   1.75999999, -0.340000004
   3362,   1.77999997, -0.340000004
   3363,   1.79999995, -0.340000004
   3364,   1.82000005, -0.340000004
   3365,   1.84000003, -0.340000004
   3366,   1.86000001, -0.340000004
   3367,  -1.84000003, -0.360000014
   3368,  -1.86000001, -0.360000014
   3369,  -1.82000005, -0.360000014
   3370,  -1.79999995, -0.360000014
   3371,  -1.77999997, -0.360000014
   3372,  -1.75999999, -0.360000014
   3373,  -1.74000001, -0.360000014
   3374,  -1.72000003, -0.360000014
   3375,  -1.70000005, -0.360000014
   3376,  -1.67999995, -0.360000014
   3377,  -1.65999997, -0.360000014
   3378,  -1.63999999, -0.360000014
   3379,        -1.62, -0.360000014
   3380,  -1.60000002, -0.360000014
   3381,  -1.58000004, -0.360000014
   3382,  -1.55999994, -0.360000014
   3383,  -1.53999996, -0.360000014
   3384,  -1.51999998, -0.360000014
   3385,         -1.5, -0.360000014
   3386,  -1.48000002, -0.360000014
   3387,  -1.46000004, -0.360000014
   3388,  -1.44000006, -0.360000014
   3389,  -1.41999996, -0.360000014
   3390,  -1.39999998, -0.360000014
   3391,        -1.38, -0.360000014
   3392,  -1.36000001, -0.360000014
   3393,  -1.34000003, -0.360000014
   3394,  -1.32000005, -0.360000014
   3395,  -1.29999995, -0.360000014
   3396,  -1.27999997, -0.360000014
   3397,  -1.25999999, -0.360000014
   3398,  -1.24000001, -0.360000014
   3399,  -1.22000003, -0.360000014
   3400,  -1.20000005, -0.360000014
   3401,  -1.17999995, -0.360000014
   3402,  -1.15999997, -0.360000014
   3403,  -1.13999999, -0.360000014
   3404,        -1.12, -0.360000014
   3405,  -1.10000002, -0.360000014
   3406,  -1.08000004, -0.360000014
   3407,  -1.05999994, -0.360000014
   3408,  -1.03999996, -0.360000014
   3409,  -1.01999998, -0.360000014
   3410,          -1., -0.360000014
   3411, -0.980000019, -0.360000014
   3412, -0.959999979, -0.360000014
   3413, -0.939999998, -0.360000014
   3414, -0.920000017, -0.360000014
   3415, -0.899999976, -0.360000014
   3416, -0.879999995, -0.360000014
   3417, -0.860000014, -0.360000014
   3418, -0.839999974, -0.360000014
   3419, -0.819999993, -0.360000014
   3420, -0.800000012, -0.360000014
   3421, -0.779999971, -0.360000014
   3422,  -0.75999999, -0.360000014
   3423,  -0.74000001, -0.360000014
   3424, -0.720000029, -0.360000014
   3425, -0.699999988, -0.360000014
   3426, -0.680000007, -0.360000014
   3427, -0.660000026, -0.360000014
   3428, -0.639999986, -0.360000014
   3429, -0.620000005, -0.360000014
   3430, -0.600000024, -0.360000014
   3431, -0.579999983, -0.360000014
   3432, -0.560000002, -0.360000014
   3433, -0.540000021, -0.360000014
   3434, -0.519999981, -0.360000014
   3435,         -0.5, -0.360000014
   3436, -0.479999989, -0.360000014
   3437, -0.460000008, -0.360000014
   3438, -0.439999998, -0.360000014
   3439, -0.419999987, -0.360000014
   3440, -0.400000006, -0.360000014
   3441, -0.379999995, -0.360000014
   3442, -0.360000014, -0.360000014
   3443, -0.340000004, -0.360000014
   3444, -0.319999993, -0.360000014
   3445, -0.300000012, -0.360000014
   3446, -0.280000001, -0.360000014
   3447,  -0.25999999, -0.360000014
   3448, -0.239999995, -0.360000014
   3449, -0.219999999, -0.360000014
   3450, -0.200000003, -0.360000014
   3451, -0.180000007, -0.360000014
   3452, -0.159999996, -0.360000014
   3453, -0.140000001, -0.360000014
   3454, -0.119999997, -0.360000014
   3455, -0.100000001, -0.360000014
   3456, -0.0799999982, -0.360000014
   3457, -0.0599999987, -0.360000014
   3458, -0.0399999991, -0.360000014
   3459, -0.0199999996, -0.360000014
   3460,           0., -0.360000014
   3461, 0.0199999996, -0.360000014
   3462, 0.0399999991, -0.360000014
   3463, 0.0599999987, -0.360000014
   3464, 0.0799999982, -0.360000014
   3465,  0.100000001, -0.360000014
   3466,  0.119999997, -0.360000014
   3467,  0.140000001, -0.360000014
   3468,  0.159999996, -0.360000014
   3469,  0.180000007, -0.360000014
   3470,  0.200000003, -0.360000014
   3471,  0.219999999, -0.360000014
   3472,  0.239999995, -0.360000014
   3473,   0.25999999, -0.360000014
   3474,  0.280000001, -0.360000014
   3475,  0.300000012, -0.360000014
   3476,  0.319999993, -0.360000014
   3477,  0.340000004, -0.360000014
   3478,  0.360000014, -0.360000014
   3479,  0.379999995, -0.360000014
   3480,  0.400000006, -0.360000014
   3481,  0.419999987, -0.360000014
   3482,  0.439999998, -0.360000014
   3483,  0.460000008, -0.360000014
   3484,  0.479999989, -0.360000014
   3485,          0.5, -0.360000014
   3486,  0.519999981, -0.360000014
   3487,  0.540000021, -0.360000014
   3488,  0.560000002, -0.360000014
   3489,  0.579999983, -0.360000014
   3490,  0.600000024, -0.360000014
   3491,  0.620000005, -0.360000014
   3492,  0.639999986, -0.360000014
   3493,  0.660000026, -0.360000014
   3494,  0.680000007, -0.360000014
   3495,  0.699999988, -0.360000014
   3496,  0.720000029, -0.360000014
   3497,   0.74000001, -0.360000014
   3498,   0.75999999, -0.360000014
   3499,  0.779999971, -0.360000014
   3500,  0.800000012, -0.360000014
   3501,  0.819999993, -0.360000014
   3502,  0.839999974, -0.360000014
   3503,  0.860000014, -0.360000014
   3504,  0.879999995, -0.360000014
   3505,  0.899999976, -0.360000014
   3506,  0.920000017, -0.360000014
   3507,  0.939999998, -0.360000014
   3508,  0.959999979, -0.360000014
   3509,  0.980000019, -0.360000014
   3510,           1., -0.360000014
   3511,   1.01999998, -0.360000014
   3512,   1.03999996, -0.360000014
   3513,   1.05999994, -0.360000014
   3514,   1.08000004, -0.360000014
   3515,   1.10000002, -0.360000014
   3516,         1.12, -0.360000014
   3517,   1.13999999, -0.360000014
   3518,   1.15999997, -0.360000014
   3519,   1.17999995, -0.360000014
   3520,   1.20000005, -0.360000014
   3521,   1.22000003, -0.360000014
   3522,   1.24000001, -0.360000014
   3523,   1.25999999, -0.360000014
   3524,   1.27999997, -0.360000014
   3525,   1.29999995, -0.360000014
   3526,   1.32000005, -0.360000014
   3527,   1.34000003, -0.360000014
   3528,   1.36000001, -0.360000014
   3529,         1.38, -0.360000014
   3530,   1.39999998, -0.360000014
   3531,   1.41999996, -0.360000014
   3532,   1.44000006, -0.360000014
   3533,   1.46000004, -0.360000014
   3534,   1.48000002, -0.360000014
   3535,          1.5, -0.360000014
   3536,   1.51999998, -0.360000014
   3537,   1.53999996, -0.360000014
   3538,   1.55999994, -0.360000014
   3539,   1.58000004, -0.360000014
   3540,   1.60000002, -0.360000014
   3541,         1.62, -0.360000014
   3542,   1.63999999, -0.360000014
   3543,   1.65999997, -0.360000014
   3544,   1.67999995, -0.360000014
   3545,   1.70000005, -0.360000014
   3546,   1.72000003, -0.360000014
   3547,   1.74000001, -0.360000014
   3548,   1.75999999, -0.360000014
   3549,   1.77999997, -0.360000014
   3550,   1.79999995, -0.360000014
   3551,   1.82000005, -0.360000014
   3552,   1.84000003, -0.360000014
   3553,   1.86000001, -0.360000014
   3554,  -1.84000003, -0.379999995
   3555,  -1.86000001, -0.419999987
   3556,  -1.82000005, -0.379999995
   3557,  -1.79999995, -0.419999987
   3558,  -1.77999997, -0.379999995
   3559,  -1.75999999, -0.379999995
   3560,  -1.74000001, -0.419999987
   3561,  -1.72000003, -0.379999995
   3562,  -1.70000005, -0.379999995
   3563,  -1.67999995, -0.419999987
   3564,  -1.65999997, -0.379999995
   3565,  -1.63999999, -0.379999995
   3566,        -1.62, -0.419999987
   3567,  -1.60000002, -0.379999995
   3568,  -1.58000004, -0.379999995
   3569,  -1.55999994, -0.419999987
   3570,  -1.53999996, -0.379999995
   3571,  -1.51999998, -0.379999995
   3572,         -1.5, -0.419999987
   3573,  -1.48000002, -0.379999995
   3574,  -1.46000004, -0.379999995
   3575,  -1.44000006, -0.419999987
   3576,  -1.41999996, -0.379999995
   3577,  -1.39999998, -0.379999995
   3578,        -1.38, -0.419999987
   3579,  -1.36000001, -0.379999995
   3580,  -1.34000003, -0.379999995
   3581,  -1.32000005, -0.419999987
   3582,  -1.29999995, -0.379999995
   3583,  -1.27999997, -0.379999995
   3584,  -1.25999999, -0.419999987
   3585,  -1.24000001, -0.379999995
   3586,  -1.22000003, -0.379999995
   3587,  -1.20000005, -0.419999987
   3588,  -1.17999995, -0.379999995
   3589,  -1.15999997, -0.379999995
   3590,  -1.13999999, -0.419999987
   3591,        -1.12, -0.379999995
   3592,  -1.10000002, -0.379999995
   3593,  -1.08000004, -0.419999987
   3594,  -1.05999994, -0.379999995
   3595,  -1.03999996, -0.379999995
   3596,  -1.01999998, -0.419999987
   3597,          -1., -0.379999995
   3598, -0.980000019, -0.379999995
   3599, -0.959999979, -0.419999987
   3600, -0.939999998, -0.379999995
   3601, -0.920000017, -0.379999995
   3602, -0.899999976, -0.419999987
   3603, -0.879999995, -0.379999995
   3604, -0.860000014, -0.379999995
   3605, -0.839999974, -0.419999987
   3606, -0.819999993, -0.379999995
   3607, -0.800000012, -0.379999995
   3608, -0.779999971, -0.419999987
   3609,  -0.75999999, -0.379999995
   3610,  -0.74000001, -0.379999995
   3611, -0.720000029, -0.419999987
   3612, -0.699999988, -0.379999995
   3613, -0.680000007, -0.379999995
   3614, -0.660000026, -0.419999987
   3615, -0.639999986, -0.379999995
   3616, -0.620000005, -0.379999995
   3617, -0.600000024, -0.419999987
   3618, -0.579999983, -0.379999995
   3619, -0.560000002, -0.379999995
   3620, -0.540000021, -0.419999987
   3621, -0.519999981, -0.379999995
   3622,         -0.5, -0.379999995
   3623, -0.479999989, -0.419999987
   3624, -0.460000008, -0.379999995
   3625, -0.439999998, -0.379999995
   3626, -0.419999987, -0.419999987
   3627, -0.400000006, -0.379999995
   3628, -0.379999995, -0.379999995
   3629, -0.360000014, -0.419999987
   3630, -0.340000004, -0.379999995
   3631, -0.319999993, -0.379999995
   3632, -0.300000012, -0.419999987
   3633, -0.280000001, -0.379999995
   3634,  -0.25999999, -0.379999995
   3635, -0.239999995, -0.419999987
   3636, -0.219999999, -0.379999995
   3637, -0.200000003, -0.379999995
   3638, -0.180000007, -0.419999987
   3639, -0.159999996, -0.379999995
   3640, -0.140000001, -0.379999995
   3641, -0.119999997, -0.419999987
   3642, -0.100000001, -0.379999995
   3643, -0.0799999982, -0.379999995
   3644, -0.0599999987, -0.419999987
   3645, -0.0399999991, -0.379999995
   3646, -0.0199999996, -0.379999995
   3647,           0., -0.419999987
   3648, 0.0199999996, -0.379999995
   3649, 0.0399999991, -0.379999995
   3650, 0.0599999987, -0.419999987
   3651, 0.0799999982, -0.379999995
   3652,  0.100000001, -0.379999995
   3653,  0.119999997, -0.419999987
   3654,  0.140000001, -0.379999995
   3655,  0.159999996, -0.379999995
   3656,  0.180000007, -0.419999987
   3657,  0.200000003, -0.379999995
   3658,  0.219999999, -0.379999995
   3659,  0.239999995, -0.419999987
   3660,   0.25999999, -0.379999995
   3661,  0.280000001, -0.379999995
   3662,  0.300000012, -0.419999987
   3663,  0.319999993, -0.379999995
   3664,  0.340000004, -0.379999995
   3665,  0.360000014, -0.419999987
   3666,  0.379999995, -0.379999995
   3667,  0.400000006, -0.379999995
   3668,  0.419999987, -0.419999987
   3669,  0.439999998, -0.379999995
   3670,  0.460000008, -0.379999995
   3671,  0.479999989, -0.419999987
   3672,          0.5, -0.379999995
   3673,  0.519999981, -0.379999995
   3674,  0.540000021, -0.419999987
   3675,  0.560000002, -0.379999995
   3676,  0.579999983, -0.379999995
   3677,  0.600000024, -0.419999987
   3678,  0.620000005, -0.379999995
   3679,  0.639999986, -0.379999995
   3680,  0.660000026, -0.419999987
   3681,  0.680000007, -0.379999995
   3682,  0.699999988, -0.379999995
   3683,  0.720000029, -0.419999987
   3684,   0.74000001, -0.379999995
   3685,   0.75999999, -0.379999995
   3686,  0.779999971, -0.419999987
   3687,  0.800000012, -0.379999995
   3688,  0.819999993, -0.379999995
   3689,  0.839999974, -0.419999987
   3690,  0.860000014, -0.379999995
   3691,  0.879999995, -0.379999995
   3692,  0.899999976, -0.419999987
   3693,  0.920000017, -0.379999995
   3694,  0.939999998, -0.379999995
   3695,  0.959999979, -0.419999987
   3696,  0.980000019, -0.379999995
   3697,           1., -0.379999995
   3698,   1.01999998, -0.419999987
   3699,   1.03999996, -0.379999995
   3700,   1.05999994, -0.379999995
   3701,   1.08000004, -0.419999987
   3702,   1.10000002, -0.379999995
   3703,         1.12, -0.379999995
   3704,   1.13999999, -0.419999987
   3705,   1.15999997, -0.379999995
   3706,   1.17999995, -0.379999995
   3707,   1.20000005, -0.419999987
   3708,   1.22000003, -0.379999995
   3709,   1.24000001, -0.379999995
   3710,   1.25999999, -0.419999987
   3711,   1.27999997, -0.379999995
   3712,   1.29999995, -0.379999995
   3713,   1.32000005, -0.419999987
   3714,   1.34000003, -0.379999995
   3715,   1.36000001, -0.379999995
   3716,         1.38, -0.419999987
   3717,   1.39999998, -0.379999995
   3718,   1.41999996, -0.379999995
   3719,   1.44000006, -0.419999987
   3720,   1.46000004, -0.379999995
   3721,   1.48000002, -0.379999995
   3722,          1.5, -0.419999987
   3723,   1.51999998, -0.379999995
   3724,   1.53999996, -0.379999995
   3725,   1.55999994, -0.419999987
   3726,   1.58000004, -0.379999995
   3727,   1.60000002, -0.379999995
   3728,         1.62, -0.419999987
   3729,   1.63999999, -0.379999995
   3730,   1.65999997, -0.379999995
   3731,   1.67999995, -0.419999987
   3732,   1.70000005, -0.379999995
   3733,   1.72000003, -0.379999995
   3734,   1.74000001, -0.419999987
   3735,   1.75999999, -0.379999995
   3736,   1.77999997, -0.379999995
   3737,   1.79999995, -0.419999987
   3738,   1.82000005, -0.379999995
   3739,   1.84000003, -0.379999995
   3740,   1.86000001, -0.419999987
   3741,        -1.88, -0.0199999996
   3742,  -1.91999996,           0.
   3743,        -1.88, -0.0399999991
   3744,  -1.91999996, -0.0599999987
   3745,         1.88, -0.0199999996
   3746,   1.91999996,           0.
   3747,         1.88, -0.0399999991
   3748,   1.91999996, -0.0599999987
   3749,        -1.88, -0.0799999982
   3750,        -1.88, -0.100000001
   3751,  -1.91999996, -0.119999997
   3752,         1.88, -0.0799999982
   3753,         1.88, -0.100000001
   3754,   1.91999996, -0.119999997
   3755,        -1.88, -0.140000001
   3756,        -1.88, -0.159999996
   3757,  -1.91999996, -0.180000007
   3758,         1.88, -0.140000001
   3759,         1.88, -0.159999996
   3760,   1.91999996, -0.180000007
   3761,        -1.88, -0.200000003
   3762,        -1.88, -0.219999999
   3763,  -1.91999996, -0.239999995
   3764,         1.88, -0.200000003
   3765,         1.88, -0.219999999
   3766,   1.91999996, -0.239999995
   3767,        -1.88,  -0.25999999
   3768,        -1.88, -0.280000001
   3769,  -1.91999996, -0.300000012
   3770,         1.88,  -0.25999999
   3771,         1.88, -0.280000001
   3772,   1.91999996, -0.300000012
   3773,        -1.88, -0.319999993
   3774,        -1.88, -0.340000004
   3775,  -1.91999996, -0.360000014
   3776,         1.88, -0.319999993
   3777,         1.88, -0.340000004
   3778,   1.91999996, -0.360000014
   3779,  -1.91999996, -0.419999987
   3780,   1.91999996, -0.419999987
   3781,  -2.16000009,           0.
   3782,   -2.0999999,           0.
   3783,   -2.0999999, -0.0599999987
   3784,  -2.16000009, -0.0599999987
   3785,  -2.03999996,           0.
   3786,  -2.03999996, -0.0599999987
   3787,  -1.98000002,           0.
   3788,  -1.98000002, -0.0599999987
   3789,   1.98000002,           0.
   3790,   1.98000002, -0.0599999987
   3791,   2.03999996,           0.
   3792,   2.03999996, -0.0599999987
   3793,    2.0999999,           0.
   3794,    2.0999999, -0.0599999987
   3795,   2.16000009,           0.
   3796,   2.16000009, -0.0599999987
   3797,   -2.0999999, -0.119999997
   3798,  -2.16000009, -0.119999997
   3799,  -2.03999996, -0.119999997
   3800,  -1.98000002, -0.119999997
   3801,   1.98000002, -0.119999997
   3802,   2.03999996, -0.119999997
   3803,    2.0999999, -0.119999997
   3804,   2.16000009, -0.119999997
   3805,   -2.0999999, -0.180000007
   3806,  -2.16000009, -0.180000007
   3807,  -2.03999996, -0.180000007
   3808,  -1.98000002, -0.180000007
   3809,   1.98000002, -0.180000007
   3810,   2.03999996, -0.180000007
   3811,    2.0999999, -0.180000007
   3812,   2.16000009, -0.180000007
   3813,   -2.0999999, -0.239999995
   3814,  -2.16000009, -0.239999995
   3815,  -2.03999996, -0.239999995
   3816,  -1.98000002, -0.239999995
   3817,   1.98000002, -0.239999995
   3818,   2.03999996, -0.239999995
   3819,    2.0999999, -0.239999995
   3820,   2.16000009, -0.239999995
   3821,   -2.0999999, -0.300000012
   3822,  -2.16000009, -0.300000012
   3823,  -2.03999996, -0.300000012
   3824,  -1.98000002, -0.300000012
   3825,   1.98000002, -0.300000012
   3826,   2.03999996, -0.300000012
   3827,    2.0999999, -0.300000012
   3828,   2.16000009, -0.300000012
   3829,   -2.0999999, -0.360000014
   3830,  -2.16000009, -0.360000014
   3831,  -2.03999996, -0.360000014
   3832,  -1.98000002, -0.360000014
   3833,   1.98000002, -0.360000014
   3834,   2.03999996, -0.360000014
   3835,    2.0999999, -0.360000014
   3836,   2.16000009, -0.360000014
   3837,   -2.0999999, -0.419999987
   3838,  -2.16000009, -0.419999987
   3839,  -2.03999996, -0.419999987
   3840,  -1.98000002, -0.419999987
   3841,   1.98000002, -0.419999987
   3842,   2.03999996, -0.419999987
   3843,    2.0999999, -0.419999987
   3844,   2.16000009, -0.419999987
   3845,   -2.0999999, -0.479999989
   3846,  -2.16000009, -0.479999989
   3847,  -2.03999996, -0.479999989
   3848,  -1.98000002, -0.479999989
   3849,  -1.91999996, -0.479999989
   3850,  -1.86000001, -0.479999989
   3851,  -1.79999995, -0.479999989
   3852,  -1.74000001, -0.479999989
   3853,  -1.67999995, -0.479999989
   3854,        -1.62, -0.479999989
   3855,  -1.55999994, -0.479999989
   3856,         -1.5, -0.479999989
   3857,  -1.44000006, -0.479999989
   3858,        -1.38, -0.479999989
   3859,  -1.32000005, -0.479999989
   3860,  -1.25999999, -0.479999989
   3861,  -1.20000005, -0.479999989
   3862,  -1.13999999, -0.479999989
   3863,  -1.08000004, -0.479999989
   3864,  -1.01999998, -0.479999989
   3865, -0.959999979, -0.479999989
   3866, -0.899999976, -0.479999989
   3867, -0.839999974, -0.479999989
   3868, -0.779999971, -0.479999989
   3869, -0.720000029, -0.479999989
   3870, -0.660000026, -0.479999989
   3871, -0.600000024, -0.479999989
   3872, -0.540000021, -0.479999989
   3873, -0.479999989, -0.479999989
   3874, -0.419999987, -0.479999989
   3875, -0.360000014, -0.479999989
   3876, -0.300000012, -0.479999989
   3877, -0.239999995, -0.479999989
   3878, -0.180000007, -0.479999989
   3879, -0.119999997, -0.479999989
   3880, -0.0599999987, -0.479999989
   3881,           0., -0.479999989
   3882, 0.0599999987, -0.479999989
   3883,  0.119999997, -0.479999989
   3884,  0.180000007, -0.479999989
   3885,  0.239999995, -0.479999989
   3886,  0.300000012, -0.479999989
   3887,  0.360000014, -0.479999989
   3888,  0.419999987, -0.479999989
   3889,  0.479999989, -0.479999989
   3890,  0.540000021, -0.479999989
   3891,  0.600000024, -0.479999989
   3892,  0.660000026, -0.479999989
   3893,  0.720000029, -0.479999989
   3894,  0.779999971, -0.479999989
   3895,  0.839999974, -0.479999989
   3896,  0.899999976, -0.479999989
   3897,  0.959999979, -0.479999989
   3898,   1.01999998, -0.479999989
   3899,   1.08000004, -0.479999989
   3900,   1.13999999, -0.479999989
   3901,   1.20000005, -0.479999989
   3902,   1.25999999, -0.479999989
   3903,   1.32000005, -0.479999989
   3904,         1.38, -0.479999989
   3905,   1.44000006, -0.479999989
   3906,          1.5, -0.479999989
   3907,   1.55999994, -0.479999989
   3908,         1.62, -0.479999989
   3909,   1.67999995, -0.479999989
   3910,   1.74000001, -0.479999989
   3911,   1.79999995, -0.479999989
   3912,   1.86000001, -0.479999989
   3913,   1.91999996, -0.479999989
   3914,   1.98000002, -0.479999989
   3915,   2.03999996, -0.479999989
   3916,    2.0999999, -0.479999989
   3917,   2.16000009, -0.479999989
   3918,   -2.0999999, -0.540000021
   3919,  -2.16000009, -0.540000021
   3920,  -2.03999996, -0.540000021
   3921,  -1.98000002, -0.540000021
   3922,  -1.91999996, -0.540000021
   3923,  -1.86000001, -0.540000021
   3924,  -1.79999995, -0.540000021
   3925,  -1.74000001, -0.540000021
   3926,  -1.67999995, -0.540000021
   3927,        -1.62, -0.540000021
   3928,  -1.55999994, -0.540000021
   3929,         -1.5, -0.540000021
   3930,  -1.44000006, -0.540000021
   3931,        -1.38, -0.540000021
   3932,  -1.32000005, -0.540000021
   3933,  -1.25999999, -0.540000021
   3934,  -1.20000005, -0.540000021
   3935,  -1.13999999, -0.540000021
   3936,  -1.08000004, -0.540000021
   3937,  -1.01999998, -0.540000021
   3938, -0.959999979, -0.540000021
   3939, -0.899999976, -0.540000021
   3940, -0.839999974, -0.540000021
   3941, -0.779999971, -0.540000021
   3942, -0.720000029, -0.540000021
   3943, -0.660000026, -0.540000021
   3944, -0.600000024, -0.540000021
   3945, -0.540000021, -0.540000021
   3946, -0.479999989, -0.540000021
   3947, -0.419999987, -0.540000021
   3948, -0.360000014, -0.540000021
   3949, -0.300000012, -0.540000021
   3950, -0.239999995, -0.540000021
   3951, -0.180000007, -0.540000021
   3952, -0.119999997, -0.540000021
   3953, -0.0599999987, -0.540000021
   3954,           0., -0.540000021
   3955, 0.0599999987, -0.540000021
   3956,  0.119999997, -0.540000021
   3957,  0.180000007, -0.540000021
   3958,  0.239999995, -0.540000021
   3959,  0.300000012, -0.540000021
   3960,  0.360000014, -0.540000021
   3961,  0.419999987, -0.540000021
   3962,  0.479999989, -0.540000021
   3963,  0.540000021, -0.540000021
   3964,  0.600000024, -0.540000021
   3965,  0.660000026, -0.540000021
   3966,  0.720000029, -0.540000021
   3967,  0.779999971, -0.540000021
   3968,  0.839999974, -0.540000021
   3969,  0.899999976, -0.540000021
   3970,  0.959999979, -0.540000021
   3971,   1.01999998, -0.540000021
   3972,   1.08000004, -0.540000021
   3973,   1.13999999, -0.540000021
   3974,   1.20000005, -0.540000021
   3975,   1.25999999, -0.540000021
   3976,   1.32000005, -0.540000021
   3977,         1.38, -0.540000021
   3978,   1.44000006, -0.540000021
   3979,          1.5, -0.540000021
   3980,   1.55999994, -0.540000021
   3981,         1.62, -0.540000021
   3982,   1.67999995, -0.540000021
   3983,   1.74000001, -0.540000021
   3984,   1.79999995, -0.540000021
   3985,   1.86000001, -0.540000021
   3986,   1.91999996, -0.540000021
   3987,   1.98000002, -0.540000021
   3988,   2.03999996, -0.540000021
   3989,    2.0999999, -0.540000021
   3990,   2.16000009, -0.540000021
   3991,   -2.0999999, -0.600000024
   3992,  -2.16000009, -0.720000029
   3993,  -2.03999996, -0.600000024
   3994,  -1.98000002, -0.720000029
   3995,  -1.91999996, -0.600000024
   3996,  -1.86000001, -0.600000024
   3997,  -1.79999995, -0.720000029
   3998,  -1.74000001, -0.600000024
   3999,  -1.67999995, -0.600000024
   4000,        -1.62, -0.720000029
   4001,  -1.55999994, -0.600000024
   4002,         -1.5, -0.600000024
   4003,  -1.44000006, -0.720000029
   4004,        -1.38, -0.600000024
   4005,  -1.32000005, -0.600000024
   4006,  -1.25999999, -0.720000029
   4007,  -1.20000005, -0.600000024
   4008,  -1.13999999, -0.600000024
   4009,  -1.08000004, -0.720000029
   4010,  -1.01999998, -0.600000024
   4011, -0.959999979, -0.600000024
   4012, -0.899999976, -0.720000029
   4013, -0.839999974, -0.600000024
   4014, -0.779999971, -0.600000024
   4015, -0.720000029, -0.720000029
   4016, -0.660000026, -0.600000024
   4017, -0.600000024, -0.600000024
   4018, -0.540000021, -0.720000029
   4019, -0.479999989, -0.600000024
   4020, -0.419999987, -0.600000024
   4021, -0.360000014, -0.720000029
   4022, -0.300000012, -0.600000024
   4023, -0.239999995, -0.600000024
   4024, -0.180000007, -0.720000029
   4025, -0.119999997, -0.600000024
   4026, -0.0599999987, -0.600000024
   4027,           0., -0.720000029
   4028, 0.0599999987, -0.600000024
   4029,  0.119999997, -0.600000024
   4030,  0.180000007, -0.720000029
   4031,  0.239999995, -0.600000024
   4032,  0.300000012, -0.600000024
   4033,  0.360000014, -0.720000029
   4034,  0.419999987, -0.600000024
   4035,  0.479999989, -0.600000024
   4036,  0.540000021, -0.720000029
   4037,  0.600000024, -0.600000024
   4038,  0.660000026, -0.600000024
   4039,  0.720000029, -0.720000029
   4040,  0.779999971, -0.600000024
   4041,  0.839999974, -0.600000024
   4042,  0.899999976, -0.720000029
   4043,  0.959999979, -0.600000024
   4044,   1.01999998, -0.600000024
   4045,   1.08000004, -0.720000029
   4046,   1.13999999, -0.600000024
   4047,   1.20000005, -0.600000024
   4048,   1.25999999, -0.720000029
   4049,   1.32000005, -0.600000024
   4050,         1.38, -0.600000024
   4051,   1.44000006, -0.720000029
   4052,          1.5, -0.600000024
   4053,   1.55999994, -0.600000024
   4054,         1.62, -0.720000029
   4055,   1.67999995, -0.600000024
   4056,   1.74000001, -0.600000024
   4057,   1.79999995, -0.720000029
   4058,   1.86000001, -0.600000024
   4059,   1.91999996, -0.600000024
   4060,   1.98000002, -0.720000029
   4061,   2.03999996, -0.600000024
   4062,    2.0999999, -0.600000024
   4063,   2.16000009, -0.720000029
   4064,  -2.22000003, -0.0599999987
   4065,  -2.33999991,           0.
   4066,  -2.22000003, -0.119999997
   4067,  -2.33999991, -0.180000007
   4068,   2.22000003, -0.0599999987
   4069,   2.33999991,           0.
   4070,   2.22000003, -0.119999997
   4071,   2.33999991, -0.180000007
   4072,  -2.22000003, -0.239999995
   4073,  -2.22000003, -0.300000012
   4074,  -2.33999991, -0.360000014
   4075,   2.22000003, -0.239999995
   4076,   2.22000003, -0.300000012
   4077,   2.33999991, -0.360000014
   4078,  -2.22000003, -0.419999987
   4079,  -2.22000003, -0.479999989
   4080,  -2.33999991, -0.540000021
   4081,   2.22000003, -0.419999987
   4082,   2.22000003, -0.479999989
   4083,   2.33999991, -0.540000021
   4084,  -2.33999991, -0.720000029
   4085,   2.33999991, -0.720000029
   4086,  -2.70000005,           0.
   4087,  -2.51999998,           0.
   4088,  -2.51999998, -0.180000007
   4089,  -2.70000005, -0.180000007
   4090,   2.51999998,           0.
   4091,   2.51999998, -0.180000007
   4092,   2.70000005,           0.
   4093,   2.70000005, -0.180000007
   4094,  -2.51999998, -0.360000014
   4095,  -2.70000005, -0.360000014
   4096,   2.51999998, -0.360000014
   4097,   2.70000005, -0.360000014
   4098,  -2.51999998, -0.540000021
   4099,  -2.70000005, -0.540000021
   4100,   2.51999998, -0.540000021
   4101,   2.70000005, -0.540000021
   4102,  -2.51999998, -0.720000029
   4103,  -2.70000005, -0.720000029
   4104,   2.51999998, -0.720000029
   4105,   2.70000005, -0.720000029
   4106,  -2.51999998, -0.899999976
   4107,  -2.70000005, -0.899999976
   4108,  -2.33999991, -0.899999976
   4109,  -2.16000009, -0.899999976
   4110,  -1.98000002, -0.899999976
   4111,  -1.79999995, -0.899999976
   4112,        -1.62, -0.899999976
   4113,  -1.44000006, -0.899999976
   4114,  -1.25999999, -0.899999976
   4115,  -1.08000004, -0.899999976
   4116, -0.899999976, -0.899999976
   4117, -0.720000029, -0.899999976
   4118, -0.540000021, -0.899999976
   4119, -0.360000014, -0.899999976
   4120, -0.180000007, -0.899999976
   4121,           0., -0.899999976
   4122,  0.180000007, -0.899999976
   4123,  0.360000014, -0.899999976
   4124,  0.540000021, -0.899999976
   4125,  0.720000029, -0.899999976
   4126,  0.899999976, -0.899999976
   4127,   1.08000004, -0.899999976
   4128,   1.25999999, -0.899999976
   4129,   1.44000006, -0.899999976
   4130,         1.62, -0.899999976
   4131,   1.79999995, -0.899999976
   4132,   1.98000002, -0.899999976
   4133,   2.16000009, -0.899999976
   4134,   2.33999991, -0.899999976
   4135,   2.51999998, -0.899999976
   4136,   2.70000005, -0.899999976
   4137,  -2.51999998,  -1.08000004
   4138,  -2.70000005,  -1.08000004
   4139,  -2.33999991,  -1.08000004
   4140,  -2.16000009,  -1.08000004
   4141,  -1.98000002,  -1.08000004
   4142,  -1.79999995,  -1.08000004
   4143,        -1.62,  -1.08000004
   4144,  -1.44000006,  -1.08000004
   4145,  -1.25999999,  -1.08000004
   4146,  -1.08000004,  -1.08000004
   4147, -0.899999976,  -1.08000004
   4148, -0.720000029,  -1.08000004
   4149, -0.540000021,  -1.08000004
   4150, -0.360000014,  -1.08000004
   4151, -0.180000007,  -1.08000004
   4152,           0.,  -1.08000004
   4153,  0.180000007,  -1.08000004
   4154,  0.360000014,  -1.08000004
   4155,  0.540000021,  -1.08000004
   4156,  0.720000029,  -1.08000004
   4157,  0.899999976,  -1.08000004
   4158,   1.08000004,  -1.08000004
   4159,   1.25999999,  -1.08000004
   4160,   1.44000006,  -1.08000004
   4161,         1.62,  -1.08000004
   4162,   1.79999995,  -1.08000004
   4163,   1.98000002,  -1.08000004
   4164,   2.16000009,  -1.08000004
   4165,   2.33999991,  -1.08000004
   4166,   2.51999998,  -1.08000004
   4167,   2.70000005,  -1.08000004
   4168,  -2.51999998,  -1.25999999
   4169,  -2.70000005,        -1.62
   4170,  -2.33999991,  -1.25999999
   4171,  -2.16000009,        -1.62
   4172,  -1.98000002,  -1.25999999
   4173,  -1.79999995,  -1.25999999
   4174,        -1.62,        -1.62
   4175,  -1.44000006,  -1.25999999
   4176,  -1.25999999,  -1.25999999
   4177,  -1.08000004,        -1.62
   4178, -0.899999976,  -1.25999999
   4179, -0.720000029,  -1.25999999
   4180, -0.540000021,        -1.62
   4181, -0.360000014,  -1.25999999
   4182, -0.180000007,  -1.25999999
   4183,           0.,        -1.62
   4184,  0.180000007,  -1.25999999
   4185,  0.360000014,  -1.25999999
   4186,  0.540000021,        -1.62
   4187,  0.720000029,  -1.25999999
   4188,  0.899999976,  -1.25999999
   4189,   1.08000004,        -1.62
   4190,   1.25999999,  -1.25999999
   4191,   1.44000006,  -1.25999999
   4192,         1.62,        -1.62
   4193,   1.79999995,  -1.25999999
   4194,   1.98000002,  -1.25999999
   4195,   2.16000009,        -1.62
   4196,   2.33999991,  -1.25999999
   4197,   2.51999998,  -1.25999999
   4198,   2.70000005,        -1.62
   4199,  -2.88000011, -0.180000007
   4200,  -3.24000001,           0.
   4201,  -2.88000011, -0.360000014
   4202,  -3.24000001, -0.540000021
   4203,   2.88000011, -0.180000007
   4204,   3.24000001,           0.
   4205,   2.88000011, -0.360000014
   4206,   3.24000001, -0.540000021
   4207,  -2.88000011, -0.720000029
   4208,  -2.88000011, -0.899999976
   4209,  -3.24000001,  -1.08000004
   4210,   2.88000011, -0.720000029
   4211,   2.88000011, -0.899999976
   4212,   3.24000001,  -1.08000004
   4213,  -3.24000001,        -1.62
   4214,   3.24000001,        -1.62
   4215,          -8.,           0.
   4216,   -7.4711113,           0.
   4217,   -7.4711113, -0.540000021
   4218,          -8., -0.540000021
   4219,  -6.94222212,           0.
   4220,  -6.94222212, -0.540000021
   4221,  -6.41333342,           0.
   4222,  -6.41333342, -0.540000021
   4223,  -5.88444424,           0.
   4224,  -5.88444424, -0.540000021
   4225,  -5.35555553,           0.
   4226,  -5.35555553, -0.540000021
   4227,  -4.82666683,           0.
   4228,  -4.82666683, -0.540000021
   4229,  -4.29777765,           0.
   4230,  -4.29777765, -0.540000021
   4231,  -3.76888895,           0.
   4232,  -3.76888895, -0.540000021
   4233,   -7.4711113,  -1.08000004
   4234,          -8.,  -1.08000004
   4235,  -6.94222212,  -1.08000004
   4236,  -6.41333342,  -1.08000004
   4237,  -5.88444424,  -1.08000004
   4238,  -5.35555553,  -1.08000004
   4239,  -4.82666683,  -1.08000004
   4240,  -4.29777765,  -1.08000004
   4241,  -3.76888895,  -1.08000004
   4242,   -7.4711113,        -1.62
   4243,          -8.,        -1.62
   4244,  -6.94222212,        -1.62
   4245,  -6.41333342,        -1.62
   4246,  -5.88444424,        -1.62
   4247,  -5.35555553,        -1.62
   4248,  -4.82666683,        -1.62
   4249,  -4.29777765,        -1.62
   4250,  -3.76888895,        -1.62
   4251,   3.76888895,           0.
   4252,   3.76888895, -0.540000021
   4253,   4.29777765,           0.
   4254,   4.29777765, -0.540000021
   4255,   4.82666683,           0.
   4256,   4.82666683, -0.540000021
   4257,   5.35555553,           0.
   4258,   5.35555553, -0.540000021
   4259,   5.88444424,           0.
   4260,   5.88444424, -0.540000021
   4261,   6.41333342,           0.
   4262,   6.41333342, -0.540000021
   4263,   6.94222212,           0.
   4264,   6.94222212, -0.540000021
   4265,    7.4711113,           0.
   4266,    7.4711113, -0.540000021
   4267,           8.,           0.
   4268,           8., -0.540000021
   4269,   3.76888895,  -1.08000004
   4270,   4.29777765,  -1.08000004
   4271,   4.82666683,  -1.08000004
   4272,   5.35555553,  -1.08000004
   4273,   5.88444424,  -1.08000004
   4274,   6.41333342,  -1.08000004
   4275,   6.94222212,  -1.08000004
   4276,    7.4711113,  -1.08000004
   4277,           8.,  -1.08000004
   4278,   3.76888895,        -1.62
   4279,   4.29777765,        -1.62
   4280,   4.82666683,        -1.62
   4281,   5.35555553,        -1.62
   4282,   5.88444424,        -1.62
   4283,   6.41333342,        -1.62
   4284,   6.94222212,        -1.62
   4285,    7.4711113,        -1.62
   4286,           8.,        -1.62
   4287,   -7.4711113,  -2.16631579
   4288,          -8.,  -2.16631579
   4289,  -6.94222212,  -2.16631579
   4290,  -6.41333342,  -2.16631579
   4291,  -5.88444424,  -2.16631579
   4292,  -5.35555553,  -2.16631579
   4293,  -4.82666683,  -2.16631579
   4294,  -4.29777765,  -2.16631579
   4295,  -3.76888895,  -2.16631579
   4296,  -3.24000001,  -2.16631579
   4297,  -2.70000005,  -2.16631579
   4298,  -2.16000009,  -2.16631579
   4299,        -1.62,  -2.16631579
   4300,  -1.08000004,  -2.16631579
   4301, -0.540000021,  -2.16631579
   4302,           0.,  -2.16631579
   4303,  0.540000021,  -2.16631579
   4304,   1.08000004,  -2.16631579
   4305,         1.62,  -2.16631579
   4306,   2.16000009,  -2.16631579
   4307,   2.70000005,  -2.16631579
   4308,   3.24000001,  -2.16631579
   4309,   3.76888895,  -2.16631579
   4310,   4.29777765,  -2.16631579
   4311,   4.82666683,  -2.16631579
   4312,   5.35555553,  -2.16631579
   4313,   5.88444424,  -2.16631579
   4314,   6.41333342,  -2.16631579
   4315,   6.94222212,  -2.16631579
   4316,    7.4711113,  -2.16631579
   4317,           8.,  -2.16631579
   4318,   -7.4711113,  -2.71263146
   4319,          -8.,  -2.71263146
   4320,  -6.94222212,  -2.71263146
   4321,  -6.41333342,  -2.71263146
   4322,  -5.88444424,  -2.71263146
   4323,  -5.35555553,  -2.71263146
   4324,  -4.82666683,  -2.71263146
   4325,  -4.29777765,  -2.71263146
   4326,  -3.76888895,  -2.71263146
   4327,  -3.24000001,  -2.71263146
   4328,  -2.70000005,  -2.71263146
   4329,  -2.16000009,  -2.71263146
   4330,        -1.62,  -2.71263146
   4331,  -1.08000004,  -2.71263146
   4332, -0.540000021,  -2.71263146
   4333,           0.,  -2.71263146
   4334,  0.540000021,  -2.71263146
   4335,   1.08000004,  -2.71263146
   4336,         1.62,  -2.71263146
   4337,   2.16000009,  -2.71263146
   4338,   2.70000005,  -2.71263146
   4339,   3.24000001,  -2.71263146
   4340,   3.76888895,  -2.71263146
   4341,   4.29777765,  -2.71263146
   4342,   4.82666683,  -2.71263146
   4343,   5.35555553,  -2.71263146
   4344,   5.88444424,  -2.71263146
   4345,   6.41333342,  -2.71263146
   4346,   6.94222212,  -2.71263146
   4347,    7.4711113,  -2.71263146
   4348,           8.,  -2.71263146
   4349,   -7.4711113,  -3.25894737
   4350,          -8.,  -3.25894737
   4351,  -6.94222212,  -3.25894737
   4352,  -6.41333342,  -3.25894737
   4353,  -5.88444424,  -3.25894737
   4354,  -5.35555553,  -3.25894737
   4355,  -4.82666683,  -3.25894737
   4356,  -4.29777765,  -3.25894737
   4357,  -3.76888895,  -3.25894737
   4358,  -3.24000001,  -3.25894737
   4359,  -2.70000005,  -3.25894737
   4360,  -2.16000009,  -3.25894737
   4361,        -1.62,  -3.25894737
   4362,  -1.08000004,  -3.25894737
   4363, -0.540000021,  -3.25894737
   4364,           0.,  -3.25894737
   4365,  0.540000021,  -3.25894737
   4366,   1.08000004,  -3.25894737
   4367,         1.62,  -3.25894737
   4368,   2.16000009,  -3.25894737
   4369,   2.70000005,  -3.25894737
   4370,   3.24000001,  -3.25894737
   4371,   3.76888895,  -3.25894737
   4372,   4.29777765,  -3.25894737
   4373,   4.82666683,  -3.25894737
   4374,   5.35555553,  -3.25894737
   4375,   5.88444424,  -3.25894737
   4376,   6.41333342,  -3.25894737
   4377,   6.94222212,  -3.25894737
   4378,    7.4711113,  -3.25894737
   4379,           8.,  -3.25894737
   4380,   -7.4711113,  -3.80526304
   4381,          -8.,  -3.80526304
   4382,  -6.94222212,  -3.80526304
   4383,  -6.41333342,  -3.80526304
   4384,  -5.88444424,  -3.80526304
   4385,  -5.35555553,  -3.80526304
   4386,  -4.82666683,  -3.80526304
   4387,  -4.29777765,  -3.80526304
   4388,  -3.76888895,  -3.80526304
   4389,  -3.24000001,  -3.80526304
   4390,  -2.70000005,  -3.80526304
   4391,  -2.16000009,  -3.80526304
   4392,        -1.62,  -3.80526304
   4393,  -1.08000004,  -3.80526304
   4394, -0.540000021,  -3.80526304
   4395,           0.,  -3.80526304
   4396,  0.540000021,  -3.80526304
   4397,   1.08000004,  -3.80526304
   4398,         1.62,  -3.80526304
   4399,   2.16000009,  -3.80526304
   4400,   2.70000005,  -3.80526304
   4401,   3.24000001,  -3.80526304
   4402,   3.76888895,  -3.80526304
   4403,   4.29777765,  -3.80526304
   4404,   4.82666683,  -3.80526304
   4405,   5.35555553,  -3.80526304
   4406,   5.88444424,  -3.80526304
   4407,   6.41333342,  -3.80526304
   4408,   6.94222212,  -3.80526304
   4409,    7.4711113,  -3.80526304
   4410,           8.,  -3.80526304
   4411,   -7.4711113,  -4.35157871
   4412,          -8.,  -4.35157871
   4413,  -6.94222212,  -4.35157871
   4414,  -6.41333342,  -4.35157871
   4415,  -5.88444424,  -4.35157871
   4416,  -5.35555553,  -4.35157871
   4417,  -4.82666683,  -4.35157871
   4418,  -4.29777765,  -4.35157871
   4419,  -3.76888895,  -4.35157871
   4420,  -3.24000001,  -4.35157871
   4421,  -2.70000005,  -4.35157871
   4422,  -2.16000009,  -4.35157871
   4423,        -1.62,  -4.35157871
   4424,  -1.08000004,  -4.35157871
   4425, -0.540000021,  -4.35157871
   4426,           0.,  -4.35157871
   4427,  0.540000021,  -4.35157871
   4428,   1.08000004,  -4.35157871
   4429,         1.62,  -4.35157871
   4430,   2.16000009,  -4.35157871
   4431,   2.70000005,  -4.35157871
   4432,   3.24000001,  -4.35157871
   4433,   3.76888895,  -4.35157871
   4434,   4.29777765,  -4.35157871
   4435,   4.82666683,  -4.35157871
   4436,   5.35555553,  -4.35157871
   4437,   5.88444424,  -4.35157871
   4438,   6.41333342,  -4.35157871
   4439,   6.94222212,  -4.35157871
   4440,    7.4711113,  -4.35157871
   4441,           8.,  -4.35157871
   4442,   -7.4711113,  -4.89789486
   4443,          -8.,  -4.89789486
   4444,  -6.94222212,  -4.89789486
   4445,  -6.41333342,  -4.89789486
   4446,  -5.88444424,  -4.89789486
   4447,  -5.35555553,  -4.89789486
   4448,  -4.82666683,  -4.89789486
   4449,  -4.29777765,  -4.89789486
   4450,  -3.76888895,  -4.89789486
   4451,  -3.24000001,  -4.89789486
   4452,  -2.70000005,  -4.89789486
   4453,  -2.16000009,  -4.89789486
   4454,        -1.62,  -4.89789486
   4455,  -1.08000004,  -4.89789486
   4456, -0.540000021,  -4.89789486
   4457,           0.,  -4.89789486
   4458,  0.540000021,  -4.89789486
   4459,   1.08000004,  -4.89789486
   4460,         1.62,  -4.89789486
   4461,   2.16000009,  -4.89789486
   4462,   2.70000005,  -4.89789486
   4463,   3.24000001,  -4.89789486
   4464,   3.76888895,  -4.89789486
   4465,   4.29777765,  -4.89789486
   4466,   4.82666683,  -4.89789486
   4467,   5.35555553,  -4.89789486
   4468,   5.88444424,  -4.89789486
   4469,   6.41333342,  -4.89789486
   4470,   6.94222212,  -4.89789486
   4471,    7.4711113,  -4.89789486
   4472,           8.,  -4.89789486
   4473,   -7.4711113,  -5.44421053
   4474,          -8.,  -5.44421053
   4475,  -6.94222212,  -5.44421053
   4476,  -6.41333342,  -5.44421053
   4477,  -5.88444424,  -5.44421053
   4478,  -5.35555553,  -5.44421053
   4479,  -4.82666683,  -5.44421053
   4480,  -4.29777765,  -5.44421053
   4481,  -3.76888895,  -5.44421053
   4482,  -3.24000001,  -5.44421053
   4483,  -2.70000005,  -5.44421053
   4484,  -2.16000009,  -5.44421053
   4485,        -1.62,  -5.44421053
   4486,  -1.08000004,  -5.44421053
   4487, -0.540000021,  -5.44421053
   4488,           0.,  -5.44421053
   4489,  0.540000021,  -5.44421053
   4490,   1.08000004,  -5.44421053
   4491,         1.62,  -5.44421053
   4492,   2.16000009,  -5.44421053
   4493,   2.70000005,  -5.44421053
   4494,   3.24000001,  -5.44421053
   4495,   3.76888895,  -5.44421053
   4496,   4.29777765,  -5.44421053
   4497,   4.82666683,  -5.44421053
   4498,   5.35555553,  -5.44421053
   4499,   5.88444424,  -5.44421053
   4500,   6.41333342,  -5.44421053
   4501,   6.94222212,  -5.44421053
   4502,    7.4711113,  -5.44421053
   4503,           8.,  -5.44421053
   4504,   -7.4711113,   -5.9905262
   4505,          -8.,   -5.9905262
   4506,  -6.94222212,   -5.9905262
   4507,  -6.41333342,   -5.9905262
   4508,  -5.88444424,   -5.9905262
   4509,  -5.35555553,   -5.9905262
   4510,  -4.82666683,   -5.9905262
   4511,  -4.29777765,   -5.9905262
   4512,  -3.76888895,   -5.9905262
   4513,  -3.24000001,   -5.9905262
   4514,  -2.70000005,   -5.9905262
   4515,  -2.16000009,   -5.9905262
   4516,        -1.62,   -5.9905262
   4517,  -1.08000004,   -5.9905262
   4518, -0.540000021,   -5.9905262
   4519,           0.,   -5.9905262
   4520,  0.540000021,   -5.9905262
   4521,   1.08000004,   -5.9905262
   4522,         1.62,   -5.9905262
   4523,   2.16000009,   -5.9905262
   4524,   2.70000005,   -5.9905262
   4525,   3.24000001,   -5.9905262
   4526,   3.76888895,   -5.9905262
   4527,   4.29777765,   -5.9905262
   4528,   4.82666683,   -5.9905262
   4529,   5.35555553,   -5.9905262
   4530,   5.88444424,   -5.9905262
   4531,   6.41333342,   -5.9905262
   4532,   6.94222212,   -5.9905262
   4533,    7.4711113,   -5.9905262
   4534,           8.,   -5.9905262
   4535,   -7.4711113,  -6.53684187
   4536,          -8.,  -6.53684187
   4537,  -6.94222212,  -6.53684187
   4538,  -6.41333342,  -6.53684187
   4539,  -5.88444424,  -6.53684187
   4540,  -5.35555553,  -6.53684187
   4541,  -4.82666683,  -6.53684187
   4542,  -4.29777765,  -6.53684187
   4543,  -3.76888895,  -6.53684187
   4544,  -3.24000001,  -6.53684187
   4545,  -2.70000005,  -6.53684187
   4546,  -2.16000009,  -6.53684187
   4547,        -1.62,  -6.53684187
   4548,  -1.08000004,  -6.53684187
   4549, -0.540000021,  -6.53684187
   4550,           0.,  -6.53684187
   4551,  0.540000021,  -6.53684187
   4552,   1.08000004,  -6.53684187
   4553,         1.62,  -6.53684187
   4554,   2.16000009,  -6.53684187
   4555,   2.70000005,  -6.53684187
   4556,   3.24000001,  -6.53684187
   4557,   3.76888895,  -6.53684187
   4558,   4.29777765,  -6.53684187
   4559,   4.82666683,  -6.53684187
   4560,   5.35555553,  -6.53684187
   4561,   5.88444424,  -6.53684187
   4562,   6.41333342,  -6.53684187
   4563,   6.94222212,  -6.53684187
   4564,    7.4711113,  -6.53684187
   4565,           8.,  -6.53684187
   4566,   -7.4711113,  -7.08315802
   4567,          -8.,  -7.08315802
   4568,  -6.94222212,  -7.08315802
   4569,  -6.41333342,  -7.08315802
   4570,  -5.88444424,  -7.08315802
   4571,  -5.35555553,  -7.08315802
   4572,  -4.82666683,  -7.08315802
   4573,  -4.29777765,  -7.08315802
   4574,  -3.76888895,  -7.08315802
   4575,  -3.24000001,  -7.08315802
   4576,  -2.70000005,  -7.08315802
   4577,  -2.16000009,  -7.08315802
   4578,        -1.62,  -7.08315802
   4579,  -1.08000004,  -7.08315802
   4580, -0.540000021,  -7.08315802
   4581,           0.,  -7.08315802
   4582,  0.540000021,  -7.08315802
   4583,   1.08000004,  -7.08315802
   4584,         1.62,  -7.08315802
   4585,   2.16000009,  -7.08315802
   4586,   2.70000005,  -7.08315802
   4587,   3.24000001,  -7.08315802
   4588,   3.76888895,  -7.08315802
   4589,   4.29777765,  -7.08315802
   4590,   4.82666683,  -7.08315802
   4591,   5.35555553,  -7.08315802
   4592,   5.88444424,  -7.08315802
   4593,   6.41333342,  -7.08315802
   4594,   6.94222212,  -7.08315802
   4595,    7.4711113,  -7.08315802
   4596,           8.,  -7.08315802
   4597,   -7.4711113,  -7.62947369
   4598,          -8.,  -7.62947369
   4599,  -6.94222212,  -7.62947369
   4600,  -6.41333342,  -7.62947369
   4601,  -5.88444424,  -7.62947369
   4602,  -5.35555553,  -7.62947369
   4603,  -4.82666683,  -7.62947369
   4604,  -4.29777765,  -7.62947369
   4605,  -3.76888895,  -7.62947369
   4606,  -3.24000001,  -7.62947369
   4607,  -2.70000005,  -7.62947369
   4608,  -2.16000009,  -7.62947369
   4609,        -1.62,  -7.62947369
   4610,  -1.08000004,  -7.62947369
   4611, -0.540000021,  -7.62947369
   4612,           0.,  -7.62947369
   4613,  0.540000021,  -7.62947369
   4614,   1.08000004,  -7.62947369
   4615,         1.62,  -7.62947369
   4616,   2.16000009,  -7.62947369
   4617,   2.70000005,  -7.62947369
   4618,   3.24000001,  -7.62947369
   4619,   3.76888895,  -7.62947369
   4620,   4.29777765,  -7.62947369
   4621,   4.82666683,  -7.62947369
   4622,   5.35555553,  -7.62947369
   4623,   5.88444424,  -7.62947369
   4624,   6.41333342,  -7.62947369
   4625,   6.94222212,  -7.62947369
   4626,    7.4711113,  -7.62947369
   4627,           8.,  -7.62947369
   4628,   -7.4711113,  -8.17578983
   4629,          -8.,  -8.17578983
   4630,  -6.94222212,  -8.17578983
   4631,  -6.41333342,  -8.17578983
   4632,  -5.88444424,  -8.17578983
   4633,  -5.35555553,  -8.17578983
   4634,  -4.82666683,  -8.17578983
   4635,  -4.29777765,  -8.17578983
   4636,  -3.76888895,  -8.17578983
   4637,  -3.24000001,  -8.17578983
   4638,  -2.70000005,  -8.17578983
   4639,  -2.16000009,  -8.17578983
   4640,        -1.62,  -8.17578983
   4641,  -1.08000004,  -8.17578983
   4642, -0.540000021,  -8.17578983
   4643,           0.,  -8.17578983
   4644,  0.540000021,  -8.17578983
   4645,   1.08000004,  -8.17578983
   4646,         1.62,  -8.17578983
   4647,   2.16000009,  -8.17578983
   4648,   2.70000005,  -8.17578983
   4649,   3.24000001,  -8.17578983
   4650,   3.76888895,  -8.17578983
   4651,   4.29777765,  -8.17578983
   4652,   4.82666683,  -8.17578983
   4653,   5.35555553,  -8.17578983
   4654,   5.88444424,  -8.17578983
   4655,   6.41333342,  -8.17578983
   4656,   6.94222212,  -8.17578983
   4657,    7.4711113,  -8.17578983
   4658,           8.,  -8.17578983
   4659,   -7.4711113,  -8.72210503
   4660,          -8.,  -8.72210503
   4661,  -6.94222212,  -8.72210503
   4662,  -6.41333342,  -8.72210503
   4663,  -5.88444424,  -8.72210503
   4664,  -5.35555553,  -8.72210503
   4665,  -4.82666683,  -8.72210503
   4666,  -4.29777765,  -8.72210503
   4667,  -3.76888895,  -8.72210503
   4668,  -3.24000001,  -8.72210503
   4669,  -2.70000005,  -8.72210503
   4670,  -2.16000009,  -8.72210503
   4671,        -1.62,  -8.72210503
   4672,  -1.08000004,  -8.72210503
   4673, -0.540000021,  -8.72210503
   4674,           0.,  -8.72210503
   4675,  0.540000021,  -8.72210503
   4676,   1.08000004,  -8.72210503
   4677,         1.62,  -8.72210503
   4678,   2.16000009,  -8.72210503
   4679,   2.70000005,  -8.72210503
   4680,   3.24000001,  -8.72210503
   4681,   3.76888895,  -8.72210503
   4682,   4.29777765,  -8.72210503
   4683,   4.82666683,  -8.72210503
   4684,   5.35555553,  -8.72210503
   4685,   5.88444424,  -8.72210503
   4686,   6.41333342,  -8.72210503
   4687,   6.94222212,  -8.72210503
   4688,    7.4711113,  -8.72210503
   4689,           8.,  -8.72210503
   4690,   -7.4711113,  -9.26842117
   4691,          -8.,  -9.26842117
   4692,  -6.94222212,  -9.26842117
   4693,  -6.41333342,  -9.26842117
   4694,  -5.88444424,  -9.26842117
   4695,  -5.35555553,  -9.26842117
   4696,  -4.82666683,  -9.26842117
   4697,  -4.29777765,  -9.26842117
   4698,  -3.76888895,  -9.26842117
   4699,  -3.24000001,  -9.26842117
   4700,  -2.70000005,  -9.26842117
   4701,  -2.16000009,  -9.26842117
   4702,        -1.62,  -9.26842117
   4703,  -1.08000004,  -9.26842117
   4704, -0.540000021,  -9.26842117
   4705,           0.,  -9.26842117
   4706,  0.540000021,  -9.26842117
   4707,   1.08000004,  -9.26842117
   4708,         1.62,  -9.26842117
   4709,   2.16000009,  -9.26842117
   4710,   2.70000005,  -9.26842117
   4711,   3.24000001,  -9.26842117
   4712,   3.76888895,  -9.26842117
   4713,   4.29777765,  -9.26842117
   4714,   4.82666683,  -9.26842117
   4715,   5.35555553,  -9.26842117
   4716,   5.88444424,  -9.26842117
   4717,   6.41333342,  -9.26842117
   4718,   6.94222212,  -9.26842117
   4719,    7.4711113,  -9.26842117
   4720,           8.,  -9.26842117
   4721,   -7.4711113,  -9.81473637
   4722,          -8.,  -9.81473637
   4723,  -6.94222212,  -9.81473637
   4724,  -6.41333342,  -9.81473637
   4725,  -5.88444424,  -9.81473637
   4726,  -5.35555553,  -9.81473637
   4727,  -4.82666683,  -9.81473637
   4728,  -4.29777765,  -9.81473637
   4729,  -3.76888895,  -9.81473637
   4730,  -3.24000001,  -9.81473637
   4731,  -2.70000005,  -9.81473637
   4732,  -2.16000009,  -9.81473637
   4733,        -1.62,  -9.81473637
   4734,  -1.08000004,  -9.81473637
   4735, -0.540000021,  -9.81473637
   4736,           0.,  -9.81473637
   4737,  0.540000021,  -9.81473637
   4738,   1.08000004,  -9.81473637
   4739,         1.62,  -9.81473637
   4740,   2.16000009,  -9.81473637
   4741,   2.70000005,  -9.81473637
   4742,   3.24000001,  -9.81473637
   4743,   3.76888895,  -9.81473637
   4744,   4.29777765,  -9.81473637
   4745,   4.82666683,  -9.81473637
   4746,   5.35555553,  -9.81473637
   4747,   5.88444424,  -9.81473637
   4748,   6.41333342,  -9.81473637
   4749,   6.94222212,  -9.81473637
   4750,    7.4711113,  -9.81473637
   4751,           8.,  -9.81473637
   4752,   -7.4711113,  -10.3610525
   4753,          -8.,  -10.3610525
   4754,  -6.94222212,  -10.3610525
   4755,  -6.41333342,  -10.3610525
   4756,  -5.88444424,  -10.3610525
   4757,  -5.35555553,  -10.3610525
   4758,  -4.82666683,  -10.3610525
   4759,  -4.29777765,  -10.3610525
   4760,  -3.76888895,  -10.3610525
   4761,  -3.24000001,  -10.3610525
   4762,  -2.70000005,  -10.3610525
   4763,  -2.16000009,  -10.3610525
   4764,        -1.62,  -10.3610525
   4765,  -1.08000004,  -10.3610525
   4766, -0.540000021,  -10.3610525
   4767,           0.,  -10.3610525
   4768,  0.540000021,  -10.3610525
   4769,   1.08000004,  -10.3610525
   4770,         1.62,  -10.3610525
   4771,   2.16000009,  -10.3610525
   4772,   2.70000005,  -10.3610525
   4773,   3.24000001,  -10.3610525
   4774,   3.76888895,  -10.3610525
   4775,   4.29777765,  -10.3610525
   4776,   4.82666683,  -10.3610525
   4777,   5.35555553,  -10.3610525
   4778,   5.88444424,  -10.3610525
   4779,   6.41333342,  -10.3610525
   4780,   6.94222212,  -10.3610525
   4781,    7.4711113,  -10.3610525
   4782,           8.,  -10.3610525
   4783,   -7.4711113,  -10.9073687
   4784,          -8.,  -10.9073687
   4785,  -6.94222212,  -10.9073687
   4786,  -6.41333342,  -10.9073687
   4787,  -5.88444424,  -10.9073687
   4788,  -5.35555553,  -10.9073687
   4789,  -4.82666683,  -10.9073687
   4790,  -4.29777765,  -10.9073687
   4791,  -3.76888895,  -10.9073687
   4792,  -3.24000001,  -10.9073687
   4793,  -2.70000005,  -10.9073687
   4794,  -2.16000009,  -10.9073687
   4795,        -1.62,  -10.9073687
   4796,  -1.08000004,  -10.9073687
   4797, -0.540000021,  -10.9073687
   4798,           0.,  -10.9073687
   4799,  0.540000021,  -10.9073687
   4800,   1.08000004,  -10.9073687
   4801,         1.62,  -10.9073687
   4802,   2.16000009,  -10.9073687
   4803,   2.70000005,  -10.9073687
   4804,   3.24000001,  -10.9073687
   4805,   3.76888895,  -10.9073687
   4806,   4.29777765,  -10.9073687
   4807,   4.82666683,  -10.9073687
   4808,   5.35555553,  -10.9073687
   4809,   5.88444424,  -10.9073687
   4810,   6.41333342,  -10.9073687
   4811,   6.94222212,  -10.9073687
   4812,    7.4711113,  -10.9073687
   4813,           8.,  -10.9073687
   4814,   -7.4711113,  -11.4536839
   4815,          -8.,  -11.4536839
   4816,  -6.94222212,  -11.4536839
   4817,  -6.41333342,  -11.4536839
   4818,  -5.88444424,  -11.4536839
   4819,  -5.35555553,  -11.4536839
   4820,  -4.82666683,  -11.4536839
   4821,  -4.29777765,  -11.4536839
   4822,  -3.76888895,  -11.4536839
   4823,  -3.24000001,  -11.4536839
   4824,  -2.70000005,  -11.4536839
   4825,  -2.16000009,  -11.4536839
   4826,        -1.62,  -11.4536839
   4827,  -1.08000004,  -11.4536839
   4828, -0.540000021,  -11.4536839
   4829,           0.,  -11.4536839
   4830,  0.540000021,  -11.4536839
   4831,   1.08000004,  -11.4536839
   4832,         1.62,  -11.4536839
   4833,   2.16000009,  -11.4536839
   4834,   2.70000005,  -11.4536839
   4835,   3.24000001,  -11.4536839
   4836,   3.76888895,  -11.4536839
   4837,   4.29777765,  -11.4536839
   4838,   4.82666683,  -11.4536839
   4839,   5.35555553,  -11.4536839
   4840,   5.88444424,  -11.4536839
   4841,   6.41333342,  -11.4536839
   4842,   6.94222212,  -11.4536839
   4843,    7.4711113,  -11.4536839
   4844,           8.,  -11.4536839
   4845,   -7.4711113,         -12.
   4846,          -8.,         -12.
   4847,  -6.94222212,         -12.
   4848,  -6.41333342,         -12.
   4849,  -5.88444424,         -12.
   4850,  -5.35555553,         -12.
   4851,  -4.82666683,         -12.
   4852,  -4.29777765,         -12.
   4853,  -3.76888895,         -12.
   4854,  -3.24000001,         -12.
   4855,  -2.70000005,         -12.
   4856,  -2.16000009,         -12.
   4857,        -1.62,         -12.
   4858,  -1.08000004,         -12.
   4859, -0.540000021,         -12.
   4860,           0.,         -12.
   4861,  0.540000021,         -12.
   4862,   1.08000004,         -12.
   4863,         1.62,         -12.
   4864,   2.16000009,         -12.
   4865,   2.70000005,         -12.
   4866,   3.24000001,         -12.
   4867,   3.76888895,         -12.
   4868,   4.29777765,         -12.
   4869,   4.82666683,         -12.
   4870,   5.35555553,         -12.
   4871,   5.88444424,         -12.
   4872,   6.41333342,         -12.
   4873,   6.94222212,         -12.
   4874,    7.4711113,         -12.
   4875,           8.,         -12.
*Element, type=CPE4
   1,    1,    4,    3,    2
   2,    2,    3,    6,    5
   3,    5,    6,    8,    7
   4,    7,    8,   10,    9
   5,    9,   10,   12,   11
   6,   11,   12,   14,   13
   7,   13,   14,   16,   15
   8,   15,   16,   18,   17
   9,   17,   18,   20,   19
  10,   19,   20,   22,   21
  11,   21,   22,   24,   23
  12,   23,   24,   26,   25
  13,   25,   26,   28,   27
  14,   27,   28,   30,   29
  15,   29,   30,   32,   31
  16,   31,   32,   34,   33
  17,   33,   34,   36,   35
  18,   35,   36,   38,   37
  19,   37,   38,   40,   39
  20,   39,   40,   42,   41
  21,   41,   42,   44,   43
  22,   43,   44,   46,   45
  23,   45,   46,   48,   47
  24,   47,   48,   50,   49
  25,   49,   50,   52,   51
  26,   51,   52,   54,   53
  27,   53,   54,   56,   55
  28,   55,   56,   58,   57
  29,   57,   58,   60,   59
  30,   59,   60,   62,   61
  31,   61,   62,   64,   63
  32,   63,   64,   66,   65
  33,   65,   66,   68,   67
  34,   67,   68,   70,   69
  35,   69,   70,   72,   71
  36,   71,   72,   74,   73
  37,   73,   74,   76,   75
  38,   75,   76,   78,   77
  39,   77,   78,   80,   79
  40,   79,   80,   82,   81
  41,   81,   82,   84,   83
  42,   83,   84,   86,   85
  43,   85,   86,   88,   87
  44,   87,   88,   90,   89
  45,   89,   90,   92,   91
  46,   91,   92,   94,   93
  47,   93,   94,   96,   95
  48,   95,   96,   98,   97
  49,   97,   98,  100,   99
  50,   99,  100,  102,  101
  51,  101,  102,  104,  103
  52,  103,  104,  106,  105
  53,  105,  106,  108,  107
  54,  107,  108,  110,  109
  55,  109,  110,  112,  111
  56,  111,  112,  114,  113
  57,  113,  114,  116,  115
  58,  115,  116,  118,  117
  59,  117,  118,  120,  119
  60,  119,  120,  122,  121
  61,  121,  122,  124,  123
  62,  123,  124,  126,  125
  63,  125,  126,  128,  127
  64,  127,  128,  130,  129
  65,  129,  130,  132,  131
  66,  131,  132,  134,  133
  67,  133,  134,  136,  135
  68,  135,  136,  138,  137
  69,  137,  138,  140,  139
  70,  139,  140,  142,  141
  71,  141,  142,  144,  143
  72,  143,  144,  146,  145
  73,  145,  146,  148,  147
  74,  147,  148,  150,  149
  75,  149,  150,  152,  151
  76,  151,  152,  154,  153
  77,  153,  154,  156,  155
  78,  155,  156,  158,  157
  79,  157,  158,  160,  159
  80,  159,  160,  162,  161
  81,  161,  162,  164,  163
  82,  163,  164,  166,  165
  83,  165,  166,  168,  167
  84,  167,  168,  170,  169
  85,  169,  170,  172,  171
  86,  171,  172,  174,  173
  87,  173,  174,  176,  175
  88,  175,  176,  178,  177
  89,  177,  178,  180,  179
  90,  179,  180,  182,  181
  91,  181,  182,  184,  183
  92,  183,  184,  186,  185
  93,  185,  186,  188,  187
  94,  187,  188,  190,  189
  95,  189,  190,  192,  191
  96,  191,  192,  194,  193
  97,  193,  194,  196,  195
  98,  195,  196,  198,  197
  99,  197,  198,  200,  199
 100,  199,  200,  202,  201
 101,  201,  202,  204,  203
 102,  203,  204,  206,  205
 103,  205,  206,  208,  207
 104,  207,  208,  210,  209
 105,  209,  210,  212,  211
 106,  211,  212,  214,  213
 107,  213,  214,  216,  215
 108,  215,  216,  218,  217
 109,  217,  218,  220,  219
 110,  219,  220,  222,  221
 111,  221,  222,  224,  223
 112,  223,  224,  226,  225
 113,  225,  226,  228,  227
 114,  227,  228,  230,  229
 115,  229,  230,  232,  231
 116,  231,  232,  234,  233
 117,  233,  234,  236,  235
 118,  235,  236,  238,  237
 119,  237,  238,  240,  239
 120,  239,  240,  242,  241
 121,  241,  242,  244,  243
 122,  243,  244,  246,  245
 123,  245,  246,  248,  247
 124,  247,  248,  250,  249
 125,  249,  250,  252,  251
 126,  251,  252,  254,  253
 127,  253,  254,  256,  255
 128,  255,  256,  258,  257
 129,  257,  258,  260,  259
 130,  259,  260,  262,  261
 131,  261,  262,  264,  263
 132,  263,  264,  266,  265
 133,  265,  266,  268,  267
 134,  267,  268,  270,  269
 135,  269,  270,  272,  271
 136,  271,  272,  274,  273
 137,  273,  274,  276,  275
 138,  275,  276,  278,  277
 139,  277,  278,  280,  279
 140,  279,  280,  282,  281
 141,  281,  282,  284,  283
 142,  283,  284,  286,  285
 143,  285,  286,  288,  287
 144,  287,  288,  290,  289
 145,  289,  290,  292,  291
 146,  291,  292,  294,  293
 147,  293,  294,  296,  295
 148,  295,  296,  298,  297
 149,  297,  298,  300,  299
 150,  299,  300,  302,  301
 151,  301,  302,  304,  303
 152,  303,  304,  306,  305
 153,  305,  306,  308,  307
 154,  307,  308,  310,  309
 155,  309,  310,  312,  311
 156,  311,  312,  314,  313
 157,  313,  314,  316,  315
 158,  315,  316,  318,  317
 159,  317,  318,  320,  319
 160,  319,  320,  322,  321
 161,  321,  322,  324,  323
 162,  323,  324,  326,  325
 163,  325,  326,  328,  327
 164,  327,  328,  330,  329
 165,  329,  330,  332,  331
 166,  331,  332,  334,  333
 167,  333,  334,  336,  335
 168,  335,  336,  338,  337
 169,  337,  338,  340,  339
 170,  339,  340,  342,  341
 171,  341,  342,  344,  343
 172,  343,  344,  346,  345
 173,  345,  346,  348,  347
 174,  347,  348,  350,  349
 175,  349,  350,  352,  351
 176,  351,  352,  354,  353
 177,  353,  354,  356,  355
 178,  355,  356,  358,  357
 179,  357,  358,  360,  359
 180,  359,  360,  362,  361
 181,    4,  364,  363,    3
 182,    3,  363,  365,    6
 183,    6,  365,  366,    8
 184,    8,  366,  367,   10
 185,   10,  367,  368,   12
 186,   12,  368,  369,   14
 187,   14,  369,  370,   16
 188,   16,  370,  371,   18
 189,   18,  371,  372,   20
 190,   20,  372,  373,   22
 191,   22,  373,  374,   24
 192,   24,  374,  375,   26
 193,   26,  375,  376,   28
 194,   28,  376,  377,   30
 195,   30,  377,  378,   32
 196,   32,  378,  379,   34
 197,   34,  379,  380,   36
 198,   36,  380,  381,   38
 199,   38,  381,  382,   40
 200,   40,  382,  383,   42
 201,   42,  383,  384,   44
 202,   44,  384,  385,   46
 203,   46,  385,  386,   48
 204,   48,  386,  387,   50
 205,   50,  387,  388,   52
 206,   52,  388,  389,   54
 207,   54,  389,  390,   56
 208,   56,  390,  391,   58
 209,   58,  391,  392,   60
 210,   60,  392,  393,   62
 211,   62,  393,  394,   64
 212,   64,  394,  395,   66
 213,   66,  395,  396,   68
 214,   68,  396,  397,   70
 215,   70,  397,  398,   72
 216,   72,  398,  399,   74
 217,   74,  399,  400,   76
 218,   76,  400,  401,   78
 219,   78,  401,  402,   80
 220,   80,  402,  403,   82
 221,   82,  403,  404,   84
 222,   84,  404,  405,   86
 223,   86,  405,  406,   88
 224,   88,  406,  407,   90
 225,   90,  407,  408,   92
 226,   92,  408,  409,   94
 227,   94,  409,  410,   96
 228,   96,  410,  411,   98
 229,   98,  411,  412,  100
 230,  100,  412,  413,  102
 231,  102,  413,  414,  104
 232,  104,  414,  415,  106
 233,  106,  415,  416,  108
 234,  108,  416,  417,  110
 235,  110,  417,  418,  112
 236,  112,  418,  419,  114
 237,  114,  419,  420,  116
 238,  116,  420,  421,  118
 239,  118,  421,  422,  120
 240,  120,  422,  423,  122
 241,  122,  423,  424,  124
 242,  124,  424,  425,  126
 243,  126,  425,  426,  128
 244,  128,  426,  427,  130
 245,  130,  427,  428,  132
 246,  132,  428,  429,  134
 247,  134,  429,  430,  136
 248,  136,  430,  431,  138
 249,  138,  431,  432,  140
 250,  140,  432,  433,  142
 251,  142,  433,  434,  144
 252,  144,  434,  435,  146
 253,  146,  435,  436,  148
 254,  148,  436,  437,  150
 255,  150,  437,  438,  152
 256,  152,  438,  439,  154
 257,  154,  439,  440,  156
 258,  156,  440,  441,  158
 259,  158,  441,  442,  160
 260,  160,  442,  443,  162
 261,  162,  443,  444,  164
 262,  164,  444,  445,  166
 263,  166,  445,  446,  168
 264,  168,  446,  447,  170
 265,  170,  447,  448,  172
 266,  172,  448,  449,  174
 267,  174,  449,  450,  176
 268,  176,  450,  451,  178
 269,  178,  451,  452,  180
 270,  180,  452,  453,  182
 271,  182,  453,  454,  184
 272,  184,  454,  455,  186
 273,  186,  455,  456,  188
 274,  188,  456,  457,  190
 275,  190,  457,  458,  192
 276,  192,  458,  459,  194
 277,  194,  459,  460,  196
 278,  196,  460,  461,  198
 279,  198,  461,  462,  200
 280,  200,  462,  463,  202
 281,  202,  463,  464,  204
 282,  204,  464,  465,  206
 283,  206,  465,  466,  208
 284,  208,  466,  467,  210
 285,  210,  467,  468,  212
 286,  212,  468,  469,  214
 287,  214,  469,  470,  216
 288,  216,  470,  471,  218
 289,  218,  471,  472,  220
 290,  220,  472,  473,  222
 291,  222,  473,  474,  224
 292,  224,  474,  475,  226
 293,  226,  475,  476,  228
 294,  228,  476,  477,  230
 295,  230,  477,  478,  232
 296,  232,  478,  479,  234
 297,  234,  479,  480,  236
 298,  236,  480,  481,  238
 299,  238,  481,  482,  240
 300,  240,  482,  483,  242
 301,  242,  483,  484,  244
 302,  244,  484,  485,  246
 303,  246,  485,  486,  248
 304,  248,  486,  487,  250
 305,  250,  487,  488,  252
 306,  252,  488,  489,  254
 307,  254,  489,  490,  256
 308,  256,  490,  491,  258
 309,  258,  491,  492,  260
 310,  260,  492,  493,  262
 311,  262,  493,  494,  264
 312,  264,  494,  495,  266
 313,  266,  495,  496,  268
 314,  268,  496,  497,  270
 315,  270,  497,  498,  272
 316,  272,  498,  499,  274
 317,  274,  499,  500,  276
 318,  276,  500,  501,  278
 319,  278,  501,  502,  280
 320,  280,  502,  503,  282
 321,  282,  503,  504,  284
 322,  284,  504,  505,  286
 323,  286,  505,  506,  288
 324,  288,  506,  507,  290
 325,  290,  507,  508,  292
 326,  292,  508,  509,  294
 327,  294,  509,  510,  296
 328,  296,  510,  511,  298
 329,  298,  511,  512,  300
 330,  300,  512,  513,  302
 331,  302,  513,  514,  304
 332,  304,  514,  515,  306
 333,  306,  515,  516,  308
 334,  308,  516,  517,  310
 335,  310,  517,  518,  312
 336,  312,  518,  519,  314
 337,  314,  519,  520,  316
 338,  316,  520,  521,  318
 339,  318,  521,  522,  320
 340,  320,  522,  523,  322
 341,  322,  523,  524,  324
 342,  324,  524,  525,  326
 343,  326,  525,  526,  328
 344,  328,  526,  527,  330
 345,  330,  527,  528,  332
 346,  332,  528,  529,  334
 347,  334,  529,  530,  336
 348,  336,  530,  531,  338
 349,  338,  531,  532,  340
 350,  340,  532,  533,  342
 351,  342,  533,  534,  344
 352,  344,  534,  535,  346
 353,  346,  535,  536,  348
 354,  348,  536,  537,  350
 355,  350,  537,  538,  352
 356,  352,  538,  539,  354
 357,  354,  539,  540,  356
 358,  356,  540,  541,  358
 359,  358,  541,  542,  360
 360,  360,  542,  543,  362
 361,  364,  545,  544,  363
 362,  363,  544,  546,  365
 363,  365,  546,  547,  366
 364,  366,  547,  548,  367
 365,  367,  548,  549,  368
 366,  368,  549,  550,  369
 367,  369,  550,  551,  370
 368,  370,  551,  552,  371
 369,  371,  552,  553,  372
 370,  372,  553,  554,  373
 371,  373,  554,  555,  374
 372,  374,  555,  556,  375
 373,  375,  556,  557,  376
 374,  376,  557,  558,  377
 375,  377,  558,  559,  378
 376,  378,  559,  560,  379
 377,  379,  560,  561,  380
 378,  380,  561,  562,  381
 379,  381,  562,  563,  382
 380,  382,  563,  564,  383
 381,  383,  564,  565,  384
 382,  384,  565,  566,  385
 383,  385,  566,  567,  386
 384,  386,  567,  568,  387
 385,  387,  568,  569,  388
 386,  388,  569,  570,  389
 387,  389,  570,  571,  390
 388,  390,  571,  572,  391
 389,  391,  572,  573,  392
 390,  392,  573,  574,  393
 391,  393,  574,  575,  394
 392,  394,  575,  576,  395
 393,  395,  576,  577,  396
 394,  396,  577,  578,  397
 395,  397,  578,  579,  398
 396,  398,  579,  580,  399
 397,  399,  580,  581,  400
 398,  400,  581,  582,  401
 399,  401,  582,  583,  402
 400,  402,  583,  584,  403
 401,  403,  584,  585,  404
 402,  404,  585,  586,  405
 403,  405,  586,  587,  406
 404,  406,  587,  588,  407
 405,  407,  588,  589,  408
 406,  408,  589,  590,  409
 407,  409,  590,  591,  410
 408,  410,  591,  592,  411
 409,  411,  592,  593,  412
 410,  412,  593,  594,  413
 411,  413,  594,  595,  414
 412,  414,  595,  596,  415
 413,  415,  596,  597,  416
 414,  416,  597,  598,  417
 415,  417,  598,  599,  418
 416,  418,  599,  600,  419
 417,  419,  600,  601,  420
 418,  420,  601,  602,  421
 419,  421,  602,  603,  422
 420,  422,  603,  604,  423
 421,  423,  604,  605,  424
 422,  424,  605,  606,  425
 423,  425,  606,  607,  426
 424,  426,  607,  608,  427
 425,  427,  608,  609,  428
 426,  428,  609,  610,  429
 427,  429,  610,  611,  430
 428,  430,  611,  612,  431
 429,  431,  612,  613,  432
 430,  432,  613,  614,  433
 431,  433,  614,  615,  434
 432,  434,  615,  616,  435
 433,  435,  616,  617,  436
 434,  436,  617,  618,  437
 435,  437,  618,  619,  438
 436,  438,  619,  620,  439
 437,  439,  620,  621,  440
 438,  440,  621,  622,  441
 439,  441,  622,  623,  442
 440,  442,  623,  624,  443
 441,  443,  624,  625,  444
 442,  444,  625,  626,  445
 443,  445,  626,  627,  446
 444,  446,  627,  628,  447
 445,  447,  628,  629,  448
 446,  448,  629,  630,  449
 447,  449,  630,  631,  450
 448,  450,  631,  632,  451
 449,  451,  632,  633,  452
 450,  452,  633,  634,  453
 451,  453,  634,  635,  454
 452,  454,  635,  636,  455
 453,  455,  636,  637,  456
 454,  456,  637,  638,  457
 455,  457,  638,  639,  458
 456,  458,  639,  640,  459
 457,  459,  640,  641,  460
 458,  460,  641,  642,  461
 459,  461,  642,  643,  462
 460,  462,  643,  644,  463
 461,  463,  644,  645,  464
 462,  464,  645,  646,  465
 463,  465,  646,  647,  466
 464,  466,  647,  648,  467
 465,  467,  648,  649,  468
 466,  468,  649,  650,  469
 467,  469,  650,  651,  470
 468,  470,  651,  652,  471
 469,  471,  652,  653,  472
 470,  472,  653,  654,  473
 471,  473,  654,  655,  474
 472,  474,  655,  656,  475
 473,  475,  656,  657,  476
 474,  476,  657,  658,  477
 475,  477,  658,  659,  478
 476,  478,  659,  660,  479
 477,  479,  660,  661,  480
 478,  480,  661,  662,  481
 479,  481,  662,  663,  482
 480,  482,  663,  664,  483
 481,  483,  664,  665,  484
 482,  484,  665,  666,  485
 483,  485,  666,  667,  486
 484,  486,  667,  668,  487
 485,  487,  668,  669,  488
 486,  488,  669,  670,  489
 487,  489,  670,  671,  490
 488,  490,  671,  672,  491
 489,  491,  672,  673,  492
 490,  492,  673,  674,  493
 491,  493,  674,  675,  494
 492,  494,  675,  676,  495
 493,  495,  676,  677,  496
 494,  496,  677,  678,  497
 495,  497,  678,  679,  498
 496,  498,  679,  680,  499
 497,  499,  680,  681,  500
 498,  500,  681,  682,  501
 499,  501,  682,  683,  502
 500,  502,  683,  684,  503
 501,  503,  684,  685,  504
 502,  504,  685,  686,  505
 503,  505,  686,  687,  506
 504,  506,  687,  688,  507
 505,  507,  688,  689,  508
 506,  508,  689,  690,  509
 507,  509,  690,  691,  510
 508,  510,  691,  692,  511
 509,  511,  692,  693,  512
 510,  512,  693,  694,  513
 511,  513,  694,  695,  514
 512,  514,  695,  696,  515
 513,  515,  696,  697,  516
 514,  516,  697,  698,  517
 515,  517,  698,  699,  518
 516,  518,  699,  700,  519
 517,  519,  700,  701,  520
 518,  520,  701,  702,  521
 519,  521,  702,  703,  522
 520,  522,  703,  704,  523
 521,  523,  704,  705,  524
 522,  524,  705,  706,  525
 523,  525,  706,  707,  526
 524,  526,  707,  708,  527
 525,  527,  708,  709,  528
 526,  528,  709,  710,  529
 527,  529,  710,  711,  530
 528,  530,  711,  712,  531
 529,  531,  712,  713,  532
 530,  532,  713,  714,  533
 531,  533,  714,  715,  534
 532,  534,  715,  716,  535
 533,  535,  716,  717,  536
 534,  536,  717,  718,  537
 535,  537,  718,  719,  538
 536,  538,  719,  720,  539
 537,  539,  720,  721,  540
 538,  540,  721,  722,  541
 539,  541,  722,  723,  542
 540,  542,  723,  724,  543
 541,  545,  726,  725,  544
 542,  544,  725,  727,  546
 543,  546,  727,  728,  547
 544,  547,  728,  729,  548
 545,  548,  729,  730,  549
 546,  549,  730,  731,  550
 547,  550,  731,  732,  551
 548,  551,  732,  733,  552
 549,  552,  733,  734,  553
 550,  553,  734,  735,  554
 551,  554,  735,  736,  555
 552,  555,  736,  737,  556
 553,  556,  737,  738,  557
 554,  557,  738,  739,  558
 555,  558,  739,  740,  559
 556,  559,  740,  741,  560
 557,  560,  741,  742,  561
 558,  561,  742,  743,  562
 559,  562,  743,  744,  563
 560,  563,  744,  745,  564
 561,  564,  745,  746,  565
 562,  565,  746,  747,  566
 563,  566,  747,  748,  567
 564,  567,  748,  749,  568
 565,  568,  749,  750,  569
 566,  569,  750,  751,  570
 567,  570,  751,  752,  571
 568,  571,  752,  753,  572
 569,  572,  753,  754,  573
 570,  573,  754,  755,  574
 571,  574,  755,  756,  575
 572,  575,  756,  757,  576
 573,  576,  757,  758,  577
 574,  577,  758,  759,  578
 575,  578,  759,  760,  579
 576,  579,  760,  761,  580
 577,  580,  761,  762,  581
 578,  581,  762,  763,  582
 579,  582,  763,  764,  583
 580,  583,  764,  765,  584
 581,  584,  765,  766,  585
 582,  585,  766,  767,  586
 583,  586,  767,  768,  587
 584,  587,  768,  769,  588
 585,  588,  769,  770,  589
 586,  589,  770,  771,  590
 587,  590,  771,  772,  591
 588,  591,  772,  773,  592
 589,  592,  773,  774,  593
 590,  593,  774,  775,  594
 591,  594,  775,  776,  595
 592,  595,  776,  777,  596
 593,  596,  777,  778,  597
 594,  597,  778,  779,  598
 595,  598,  779,  780,  599
 596,  599,  780,  781,  600
 597,  600,  781,  782,  601
 598,  601,  782,  783,  602
 599,  602,  783,  784,  603
 600,  603,  784,  785,  604
 601,  604,  785,  786,  605
 602,  605,  786,  787,  606
 603,  606,  787,  788,  607
 604,  607,  788,  789,  608
 605,  608,  789,  790,  609
 606,  609,  790,  791,  610
 607,  610,  791,  792,  611
 608,  611,  792,  793,  612
 609,  612,  793,  794,  613
 610,  613,  794,  795,  614
 611,  614,  795,  796,  615
 612,  615,  796,  797,  616
 613,  616,  797,  798,  617
 614,  617,  798,  799,  618
 615,  618,  799,  800,  619
 616,  619,  800,  801,  620
 617,  620,  801,  802,  621
 618,  621,  802,  803,  622
 619,  622,  803,  804,  623
 620,  623,  804,  805,  624
 621,  624,  805,  806,  625
 622,  625,  806,  807,  626
 623,  626,  807,  808,  627
 624,  627,  808,  809,  628
 625,  628,  809,  810,  629
 626,  629,  810,  811,  630
 627,  630,  811,  812,  631
 628,  631,  812,  813,  632
 629,  632,  813,  814,  633
 630,  633,  814,  815,  634
 631,  634,  815,  816,  635
 632,  635,  816,  817,  636
 633,  636,  817,  818,  637
 634,  637,  818,  819,  638
 635,  638,  819,  820,  639
 636,  639,  820,  821,  640
 637,  640,  821,  822,  641
 638,  641,  822,  823,  642
 639,  642,  823,  824,  643
 640,  643,  824,  825,  644
 641,  644,  825,  826,  645
 642,  645,  826,  827,  646
 643,  646,  827,  828,  647
 644,  647,  828,  829,  648
 645,  648,  829,  830,  649
 646,  649,  830,  831,  650
 647,  650,  831,  832,  651
 648,  651,  832,  833,  652
 649,  652,  833,  834,  653
 650,  653,  834,  835,  654
 651,  654,  835,  836,  655
 652,  655,  836,  837,  656
 653,  656,  837,  838,  657
 654,  657,  838,  839,  658
 655,  658,  839,  840,  659
 656,  659,  840,  841,  660
 657,  660,  841,  842,  661
 658,  661,  842,  843,  662
 659,  662,  843,  844,  663
 660,  663,  844,  845,  664
 661,  664,  845,  846,  665
 662,  665,  846,  847,  666
 663,  666,  847,  848,  667
 664,  667,  848,  849,  668
 665,  668,  849,  850,  669
 666,  669,  850,  851,  670
 667,  670,  851,  852,  671
 668,  671,  852,  853,  672
 669,  672,  853,  854,  673
 670,  673,  854,  855,  674
 671,  674,  855,  856,  675
 672,  675,  856,  857,  676
 673,  676,  857,  858,  677
 674,  677,  858,  859,  678
 675,  678,  859,  860,  679
 676,  679,  860,  861,  680
 677,  680,  861,  862,  681
 678,  681,  862,  863,  682
 679,  682,  863,  864,  683
 680,  683,  864,  865,  684
 681,  684,  865,  866,  685
 682,  685,  866,  867,  686
 683,  686,  867,  868,  687
 684,  687,  868,  869,  688
 685,  688,  869,  870,  689
 686,  689,  870,  871,  690
 687,  690,  871,  872,  691
 688,  691,  872,  873,  692
 689,  692,  873,  874,  693
 690,  693,  874,  875,  694
 691,  694,  875,  876,  695
 692,  695,  876,  877,  696
 693,  696,  877,  878,  697
 694,  697,  878,  879,  698
 695,  698,  879,  880,  699
 696,  699,  880,  881,  700
 697,  700,  881,  882,  701
 698,  701,  882,  883,  702
 699,  702,  883,  884,  703
 700,  703,  884,  885,  704
 701,  704,  885,  886,  705
 702,  705,  886,  887,  706
 703,  706,  887,  888,  707
 704,  707,  888,  889,  708
 705,  708,  889,  890,  709
 706,  709,  890,  891,  710
 707,  710,  891,  892,  711
 708,  711,  892,  893,  712
 709,  712,  893,  894,  713
 710,  713,  894,  895,  714
 711,  714,  895,  896,  715
 712,  715,  896,  897,  716
 713,  716,  897,  898,  717
 714,  717,  898,  899,  718
 715,  718,  899,  900,  719
 716,  719,  900,  901,  720
 717,  720,  901,  902,  721
 718,  721,  902,  903,  722
 719,  722,  903,  904,  723
 720,  723,  904,  905,  724
 721,  726,  907,  906,  725
 722,  725,  906,  908,  727
 723,  727,  908,  909,  728
 724,  728,  909,  910,  729
 725,  729,  910,  911,  730
 726,  730,  911,  912,  731
 727,  731,  912,  913,  732
 728,  732,  913,  914,  733
 729,  733,  914,  915,  734
 730,  734,  915,  916,  735
 731,  735,  916,  917,  736
 732,  736,  917,  918,  737
 733,  737,  918,  919,  738
 734,  738,  919,  920,  739
 735,  739,  920,  921,  740
 736,  740,  921,  922,  741
 737,  741,  922,  923,  742
 738,  742,  923,  924,  743
 739,  743,  924,  925,  744
 740,  744,  925,  926,  745
 741,  745,  926,  927,  746
 742,  746,  927,  928,  747
 743,  747,  928,  929,  748
 744,  748,  929,  930,  749
 745,  749,  930,  931,  750
 746,  750,  931,  932,  751
 747,  751,  932,  933,  752
 748,  752,  933,  934,  753
 749,  753,  934,  935,  754
 750,  754,  935,  936,  755
 751,  755,  936,  937,  756
 752,  756,  937,  938,  757
 753,  757,  938,  939,  758
 754,  758,  939,  940,  759
 755,  759,  940,  941,  760
 756,  760,  941,  942,  761
 757,  761,  942,  943,  762
 758,  762,  943,  944,  763
 759,  763,  944,  945,  764
 760,  764,  945,  946,  765
 761,  765,  946,  947,  766
 762,  766,  947,  948,  767
 763,  767,  948,  949,  768
 764,  768,  949,  950,  769
 765,  769,  950,  951,  770
 766,  770,  951,  952,  771
 767,  771,  952,  953,  772
 768,  772,  953,  954,  773
 769,  773,  954,  955,  774
 770,  774,  955,  956,  775
 771,  775,  956,  957,  776
 772,  776,  957,  958,  777
 773,  777,  958,  959,  778
 774,  778,  959,  960,  779
 775,  779,  960,  961,  780
 776,  780,  961,  962,  781
 777,  781,  962,  963,  782
 778,  782,  963,  964,  783
 779,  783,  964,  965,  784
 780,  784,  965,  966,  785
 781,  785,  966,  967,  786
 782,  786,  967,  968,  787
 783,  787,  968,  969,  788
 784,  788,  969,  970,  789
 785,  789,  970,  971,  790
 786,  790,  971,  972,  791
 787,  791,  972,  973,  792
 788,  792,  973,  974,  793
 789,  793,  974,  975,  794
 790,  794,  975,  976,  795
 791,  795,  976,  977,  796
 792,  796,  977,  978,  797
 793,  797,  978,  979,  798
 794,  798,  979,  980,  799
 795,  799,  980,  981,  800
 796,  800,  981,  982,  801
 797,  801,  982,  983,  802
 798,  802,  983,  984,  803
 799,  803,  984,  985,  804
 800,  804,  985,  986,  805
 801,  805,  986,  987,  806
 802,  806,  987,  988,  807
 803,  807,  988,  989,  808
 804,  808,  989,  990,  809
 805,  809,  990,  991,  810
 806,  810,  991,  992,  811
 807,  811,  992,  993,  812
 808,  812,  993,  994,  813
 809,  813,  994,  995,  814
 810,  814,  995,  996,  815
 811,  815,  996,  997,  816
 812,  816,  997,  998,  817
 813,  817,  998,  999,  818
 814,  818,  999, 1000,  819
 815,  819, 1000, 1001,  820
 816,  820, 1001, 1002,  821
 817,  821, 1002, 1003,  822
 818,  822, 1003, 1004,  823
 819,  823, 1004, 1005,  824
 820,  824, 1005, 1006,  825
 821,  825, 1006, 1007,  826
 822,  826, 1007, 1008,  827
 823,  827, 1008, 1009,  828
 824,  828, 1009, 1010,  829
 825,  829, 1010, 1011,  830
 826,  830, 1011, 1012,  831
 827,  831, 1012, 1013,  832
 828,  832, 1013, 1014,  833
 829,  833, 1014, 1015,  834
 830,  834, 1015, 1016,  835
 831,  835, 1016, 1017,  836
 832,  836, 1017, 1018,  837
 833,  837, 1018, 1019,  838
 834,  838, 1019, 1020,  839
 835,  839, 1020, 1021,  840
 836,  840, 1021, 1022,  841
 837,  841, 1022, 1023,  842
 838,  842, 1023, 1024,  843
 839,  843, 1024, 1025,  844
 840,  844, 1025, 1026,  845
 841,  845, 1026, 1027,  846
 842,  846, 1027, 1028,  847
 843,  847, 1028, 1029,  848
 844,  848, 1029, 1030,  849
 845,  849, 1030, 1031,  850
 846,  850, 1031, 1032,  851
 847,  851, 1032, 1033,  852
 848,  852, 1033, 1034,  853
 849,  853, 1034, 1035,  854
 850,  854, 1035, 1036,  855
 851,  855, 1036, 1037,  856
 852,  856, 1037, 1038,  857
 853,  857, 1038, 1039,  858
 854,  858, 1039, 1040,  859
 855,  859, 1040, 1041,  860
 856,  860, 1041, 1042,  861
 857,  861, 1042, 1043,  862
 858,  862, 1043, 1044,  863
 859,  863, 1044, 1045,  864
 860,  864, 1045, 1046,  865
 861,  865, 1046, 1047,  866
 862,  866, 1047, 1048,  867
 863,  867, 1048, 1049,  868
 864,  868, 1049, 1050,  869
 865,  869, 1050, 1051,  870
 866,  870, 1051, 1052,  871
 867,  871, 1052, 1053,  872
 868,  872, 1053, 1054,  873
 869,  873, 1054, 1055,  874
 870,  874, 1055, 1056,  875
 871,  875, 1056, 1057,  876
 872,  876, 1057, 1058,  877
 873,  877, 1058, 1059,  878
 874,  878, 1059, 1060,  879
 875,  879, 1060, 1061,  880
 876,  880, 1061, 1062,  881
 877,  881, 1062, 1063,  882
 878,  882, 1063, 1064,  883
 879,  883, 1064, 1065,  884
 880,  884, 1065, 1066,  885
 881,  885, 1066, 1067,  886
 882,  886, 1067, 1068,  887
 883,  887, 1068, 1069,  888
 884,  888, 1069, 1070,  889
 885,  889, 1070, 1071,  890
 886,  890, 1071, 1072,  891
 887,  891, 1072, 1073,  892
 888,  892, 1073, 1074,  893
 889,  893, 1074, 1075,  894
 890,  894, 1075, 1076,  895
 891,  895, 1076, 1077,  896
 892,  896, 1077, 1078,  897
 893,  897, 1078, 1079,  898
 894,  898, 1079, 1080,  899
 895,  899, 1080, 1081,  900
 896,  900, 1081, 1082,  901
 897,  901, 1082, 1083,  902
 898,  902, 1083, 1084,  903
 899,  903, 1084, 1085,  904
 900,  904, 1085, 1086,  905
 901,  907, 1088, 1087,  906
 902,  906, 1087, 1089,  908
 903,  908, 1089, 1090,  909
 904,  909, 1090, 1091,  910
 905,  910, 1091, 1092,  911
 906,  911, 1092, 1093,  912
 907,  912, 1093, 1094,  913
 908,  913, 1094, 1095,  914
 909,  914, 1095, 1096,  915
 910,  915, 1096, 1097,  916
 911,  916, 1097, 1098,  917
 912,  917, 1098, 1099,  918
 913,  918, 1099, 1100,  919
 914,  919, 1100, 1101,  920
 915,  920, 1101, 1102,  921
 916,  921, 1102, 1103,  922
 917,  922, 1103, 1104,  923
 918,  923, 1104, 1105,  924
 919,  924, 1105, 1106,  925
 920,  925, 1106, 1107,  926
 921,  926, 1107, 1108,  927
 922,  927, 1108, 1109,  928
 923,  928, 1109, 1110,  929
 924,  929, 1110, 1111,  930
 925,  930, 1111, 1112,  931
 926,  931, 1112, 1113,  932
 927,  932, 1113, 1114,  933
 928,  933, 1114, 1115,  934
 929,  934, 1115, 1116,  935
 930,  935, 1116, 1117,  936
 931,  936, 1117, 1118,  937
 932,  937, 1118, 1119,  938
 933,  938, 1119, 1120,  939
 934,  939, 1120, 1121,  940
 935,  940, 1121, 1122,  941
 936,  941, 1122, 1123,  942
 937,  942, 1123, 1124,  943
 938,  943, 1124, 1125,  944
 939,  944, 1125, 1126,  945
 940,  945, 1126, 1127,  946
 941,  946, 1127, 1128,  947
 942,  947, 1128, 1129,  948
 943,  948, 1129, 1130,  949
 944,  949, 1130, 1131,  950
 945,  950, 1131, 1132,  951
 946,  951, 1132, 1133,  952
 947,  952, 1133, 1134,  953
 948,  953, 1134, 1135,  954
 949,  954, 1135, 1136,  955
 950,  955, 1136, 1137,  956
 951,  956, 1137, 1138,  957
 952,  957, 1138, 1139,  958
 953,  958, 1139, 1140,  959
 954,  959, 1140, 1141,  960
 955,  960, 1141, 1142,  961
 956,  961, 1142, 1143,  962
 957,  962, 1143, 1144,  963
 958,  963, 1144, 1145,  964
 959,  964, 1145, 1146,  965
 960,  965, 1146, 1147,  966
 961,  966, 1147, 1148,  967
 962,  967, 1148, 1149,  968
 963,  968, 1149, 1150,  969
 964,  969, 1150, 1151,  970
 965,  970, 1151, 1152,  971
 966,  971, 1152, 1153,  972
 967,  972, 1153, 1154,  973
 968,  973, 1154, 1155,  974
 969,  974, 1155, 1156,  975
 970,  975, 1156, 1157,  976
 971,  976, 1157, 1158,  977
 972,  977, 1158, 1159,  978
 973,  978, 1159, 1160,  979
 974,  979, 1160, 1161,  980
 975,  980, 1161, 1162,  981
 976,  981, 1162, 1163,  982
 977,  982, 1163, 1164,  983
 978,  983, 1164, 1165,  984
 979,  984, 1165, 1166,  985
 980,  985, 1166, 1167,  986
 981,  986, 1167, 1168,  987
 982,  987, 1168, 1169,  988
 983,  988, 1169, 1170,  989
 984,  989, 1170, 1171,  990
 985,  990, 1171, 1172,  991
 986,  991, 1172, 1173,  992
 987,  992, 1173, 1174,  993
 988,  993, 1174, 1175,  994
 989,  994, 1175, 1176,  995
 990,  995, 1176, 1177,  996
 991,  996, 1177, 1178,  997
 992,  997, 1178, 1179,  998
 993,  998, 1179, 1180,  999
 994,  999, 1180, 1181, 1000
 995, 1000, 1181, 1182, 1001
 996, 1001, 1182, 1183, 1002
 997, 1002, 1183, 1184, 1003
 998, 1003, 1184, 1185, 1004
 999, 1004, 1185, 1186, 1005
1000, 1005, 1186, 1187, 1006
1001, 1006, 1187, 1188, 1007
1002, 1007, 1188, 1189, 1008
1003, 1008, 1189, 1190, 1009
1004, 1009, 1190, 1191, 1010
1005, 1010, 1191, 1192, 1011
1006, 1011, 1192, 1193, 1012
1007, 1012, 1193, 1194, 1013
1008, 1013, 1194, 1195, 1014
1009, 1014, 1195, 1196, 1015
1010, 1015, 1196, 1197, 1016
1011, 1016, 1197, 1198, 1017
1012, 1017, 1198, 1199, 1018
1013, 1018, 1199, 1200, 1019
1014, 1019, 1200, 1201, 1020
1015, 1020, 1201, 1202, 1021
1016, 1021, 1202, 1203, 1022
1017, 1022, 1203, 1204, 1023
1018, 1023, 1204, 1205, 1024
1019, 1024, 1205, 1206, 1025
1020, 1025, 1206, 1207, 1026
1021, 1026, 1207, 1208, 1027
1022, 1027, 1208, 1209, 1028
1023, 1028, 1209, 1210, 1029
1024, 1029, 1210, 1211, 1030
1025, 1030, 1211, 1212, 1031
1026, 1031, 1212, 1213, 1032
1027, 1032, 1213, 1214, 1033
1028, 1033, 1214, 1215, 1034
1029, 1034, 1215, 1216, 1035
1030, 1035, 1216, 1217, 1036
1031, 1036, 1217, 1218, 1037
1032, 1037, 1218, 1219, 1038
1033, 1038, 1219, 1220, 1039
1034, 1039, 1220, 1221, 1040
1035, 1040, 1221, 1222, 1041
1036, 1041, 1222, 1223, 1042
1037, 1042, 1223, 1224, 1043
1038, 1043, 1224, 1225, 1044
1039, 1044, 1225, 1226, 1045
1040, 1045, 1226, 1227, 1046
1041, 1046, 1227, 1228, 1047
1042, 1047, 1228, 1229, 1048
1043, 1048, 1229, 1230, 1049
1044, 1049, 1230, 1231, 1050
1045, 1050, 1231, 1232, 1051
1046, 1051, 1232, 1233, 1052
1047, 1052, 1233, 1234, 1053
1048, 1053, 1234, 1235, 1054
1049, 1054, 1235, 1236, 1055
1050, 1055, 1236, 1237, 1056
1051, 1056, 1237, 1238, 1057
1052, 1057, 1238, 1239, 1058
1053, 1058, 1239, 1240, 1059
1054, 1059, 1240, 1241, 1060
1055, 1060, 1241, 1242, 1061
1056, 1061, 1242, 1243, 1062
1057, 1062, 1243, 1244, 1063
1058, 1063, 1244, 1245, 1064
1059, 1064, 1245, 1246, 1065
1060, 1065, 1246, 1247, 1066
1061, 1066, 1247, 1248, 1067
1062, 1067, 1248, 1249, 1068
1063, 1068, 1249, 1250, 1069
1064, 1069, 1250, 1251, 1070
1065, 1070, 1251, 1252, 1071
1066, 1071, 1252, 1253, 1072
1067, 1072, 1253, 1254, 1073
1068, 1073, 1254, 1255, 1074
1069, 1074, 1255, 1256, 1075
1070, 1075, 1256, 1257, 1076
1071, 1076, 1257, 1258, 1077
1072, 1077, 1258, 1259, 1078
1073, 1078, 1259, 1260, 1079
1074, 1079, 1260, 1261, 1080
1075, 1080, 1261, 1262, 1081
1076, 1081, 1262, 1263, 1082
1077, 1082, 1263, 1264, 1083
1078, 1083, 1264, 1265, 1084
1079, 1084, 1265, 1266, 1085
1080, 1085, 1266, 1267, 1086
1081, 1088, 1269, 1268, 1087
1082, 1087, 1268, 1270, 1089
1083, 1089, 1270, 1271, 1090
1084, 1090, 1271, 1272, 1091
1085, 1091, 1272, 1273, 1092
1086, 1092, 1273, 1274, 1093
1087, 1093, 1274, 1275, 1094
1088, 1094, 1275, 1276, 1095
1089, 1095, 1276, 1277, 1096
1090, 1096, 1277, 1278, 1097
1091, 1097, 1278, 1279, 1098
1092, 1098, 1279, 1280, 1099
1093, 1099, 1280, 1281, 1100
1094, 1100, 1281, 1282, 1101
1095, 1101, 1282, 1283, 1102
1096, 1102, 1283, 1284, 1103
1097, 1103, 1284, 1285, 1104
1098, 1104, 1285, 1286, 1105
1099, 1105, 1286, 1287, 1106
1100, 1106, 1287, 1288, 1107
1101, 1107, 1288, 1289, 1108
1102, 1108, 1289, 1290, 1109
1103, 1109, 1290, 1291, 1110
1104, 1110, 1291, 1292, 1111
1105, 1111, 1292, 1293, 1112
1106, 1112, 1293, 1294, 1113
1107, 1113, 1294, 1295, 1114
1108, 1114, 1295, 1296, 1115
1109, 1115, 1296, 1297, 1116
1110, 1116, 1297, 1298, 1117
1111, 1117, 1298, 1299, 1118
1112, 1118, 1299, 1300, 1119
1113, 1119, 1300, 1301, 1120
1114, 1120, 1301, 1302, 1121
1115, 1121, 1302, 1303, 1122
1116, 1122, 1303, 1304, 1123
1117, 1123, 1304, 1305, 1124
1118, 1124, 1305, 1306, 1125
1119, 1125, 1306, 1307, 1126
1120, 1126, 1307, 1308, 1127
1121, 1127, 1308, 1309, 1128
1122, 1128, 1309, 1310, 1129
1123, 1129, 1310, 1311, 1130
1124, 1130, 1311, 1312, 1131
1125, 1131, 1312, 1313, 1132
1126, 1132, 1313, 1314, 1133
1127, 1133, 1314, 1315, 1134
1128, 1134, 1315, 1316, 1135
1129, 1135, 1316, 1317, 1136
1130, 1136, 1317, 1318, 1137
1131, 1137, 1318, 1319, 1138
1132, 1138, 1319, 1320, 1139
1133, 1139, 1320, 1321, 1140
1134, 1140, 1321, 1322, 1141
1135, 1141, 1322, 1323, 1142
1136, 1142, 1323, 1324, 1143
1137, 1143, 1324, 1325, 1144
1138, 1144, 1325, 1326, 1145
1139, 1145, 1326, 1327, 1146
1140, 1146, 1327, 1328, 1147
1141, 1147, 1328, 1329, 1148
1142, 1148, 1329, 1330, 1149
1143, 1149, 1330, 1331, 1150
1144, 1150, 1331, 1332, 1151
1145, 1151, 1332, 1333, 1152
1146, 1152, 1333, 1334, 1153
1147, 1153, 1334, 1335, 1154
1148, 1154, 1335, 1336, 1155
1149, 1155, 1336, 1337, 1156
1150, 1156, 1337, 1338, 1157
1151, 1157, 1338, 1339, 1158
1152, 1158, 1339, 1340, 1159
1153, 1159, 1340, 1341, 1160
1154, 1160, 1341, 1342, 1161
1155, 1161, 1342, 1343, 1162
1156, 1162, 1343, 1344, 1163
1157, 1163, 1344, 1345, 1164
1158, 1164, 1345, 1346, 1165
1159, 1165, 1346, 1347, 1166
1160, 1166, 1347, 1348, 1167
1161, 1167, 1348, 1349, 1168
1162, 1168, 1349, 1350, 1169
1163, 1169, 1350, 1351, 1170
1164, 1170, 1351, 1352, 1171
1165, 1171, 1352, 1353, 1172
1166, 1172, 1353, 1354, 1173
1167, 1173, 1354, 1355, 1174
1168, 1174, 1355, 1356, 1175
1169, 1175, 1356, 1357, 1176
1170, 1176, 1357, 1358, 1177
1171, 1177, 1358, 1359, 1178
1172, 1178, 1359, 1360, 1179
1173, 1179, 1360, 1361, 1180
1174, 1180, 1361, 1362, 1181
1175, 1181, 1362, 1363, 1182
1176, 1182, 1363, 1364, 1183
1177, 1183, 1364, 1365, 1184
1178, 1184, 1365, 1366, 1185
1179, 1185, 1366, 1367, 1186
1180, 1186, 1367, 1368, 1187
1181, 1187, 1368, 1369, 1188
1182, 1188, 1369, 1370, 1189
1183, 1189, 1370, 1371, 1190
1184, 1190, 1371, 1372, 1191
1185, 1191, 1372, 1373, 1192
1186, 1192, 1373, 1374, 1193
1187, 1193, 1374, 1375, 1194
1188, 1194, 1375, 1376, 1195
1189, 1195, 1376, 1377, 1196
1190, 1196, 1377, 1378, 1197
1191, 1197, 1378, 1379, 1198
1192, 1198, 1379, 1380, 1199
1193, 1199, 1380, 1381, 1200
1194, 1200, 1381, 1382, 1201
1195, 1201, 1382, 1383, 1202
1196, 1202, 1383, 1384, 1203
1197, 1203, 1384, 1385, 1204
1198, 1204, 1385, 1386, 1205
1199, 1205, 1386, 1387, 1206
1200, 1206, 1387, 1388, 1207
1201, 1207, 1388, 1389, 1208
1202, 1208, 1389, 1390, 1209
1203, 1209, 1390, 1391, 1210
1204, 1210, 1391, 1392, 1211
1205, 1211, 1392, 1393, 1212
1206, 1212, 1393, 1394, 1213
1207, 1213, 1394, 1395, 1214
1208, 1214, 1395, 1396, 1215
1209, 1215, 1396, 1397, 1216
1210, 1216, 1397, 1398, 1217
1211, 1217, 1398, 1399, 1218
1212, 1218, 1399, 1400, 1219
1213, 1219, 1400, 1401, 1220
1214, 1220, 1401, 1402, 1221
1215, 1221, 1402, 1403, 1222
1216, 1222, 1403, 1404, 1223
1217, 1223, 1404, 1405, 1224
1218, 1224, 1405, 1406, 1225
1219, 1225, 1406, 1407, 1226
1220, 1226, 1407, 1408, 1227
1221, 1227, 1408, 1409, 1228
1222, 1228, 1409, 1410, 1229
1223, 1229, 1410, 1411, 1230
1224, 1230, 1411, 1412, 1231
1225, 1231, 1412, 1413, 1232
1226, 1232, 1413, 1414, 1233
1227, 1233, 1414, 1415, 1234
1228, 1234, 1415, 1416, 1235
1229, 1235, 1416, 1417, 1236
1230, 1236, 1417, 1418, 1237
1231, 1237, 1418, 1419, 1238
1232, 1238, 1419, 1420, 1239
1233, 1239, 1420, 1421, 1240
1234, 1240, 1421, 1422, 1241
1235, 1241, 1422, 1423, 1242
1236, 1242, 1423, 1424, 1243
1237, 1243, 1424, 1425, 1244
1238, 1244, 1425, 1426, 1245
1239, 1245, 1426, 1427, 1246
1240, 1246, 1427, 1428, 1247
1241, 1247, 1428, 1429, 1248
1242, 1248, 1429, 1430, 1249
1243, 1249, 1430, 1431, 1250
1244, 1250, 1431, 1432, 1251
1245, 1251, 1432, 1433, 1252
1246, 1252, 1433, 1434, 1253
1247, 1253, 1434, 1435, 1254
1248, 1254, 1435, 1436, 1255
1249, 1255, 1436, 1437, 1256
1250, 1256, 1437, 1438, 1257
1251, 1257, 1438, 1439, 1258
1252, 1258, 1439, 1440, 1259
1253, 1259, 1440, 1441, 1260
1254, 1260, 1441, 1442, 1261
1255, 1261, 1442, 1443, 1262
1256, 1262, 1443, 1444, 1263
1257, 1263, 1444, 1445, 1264
1258, 1264, 1445, 1446, 1265
1259, 1265, 1446, 1447, 1266
1260, 1266, 1447, 1448, 1267
1261, 1269, 1450, 1449, 1268
1262, 1268, 1449, 1451, 1270
1263, 1270, 1451, 1452, 1271
1264, 1271, 1452, 1453, 1272
1265, 1272, 1453, 1454, 1273
1266, 1273, 1454, 1455, 1274
1267, 1274, 1455, 1456, 1275
1268, 1275, 1456, 1457, 1276
1269, 1276, 1457, 1458, 1277
1270, 1277, 1458, 1459, 1278
1271, 1278, 1459, 1460, 1279
1272, 1279, 1460, 1461, 1280
1273, 1280, 1461, 1462, 1281
1274, 1281, 1462, 1463, 1282
1275, 1282, 1463, 1464, 1283
1276, 1283, 1464, 1465, 1284
1277, 1284, 1465, 1466, 1285
1278, 1285, 1466, 1467, 1286
1279, 1286, 1467, 1468, 1287
1280, 1287, 1468, 1469, 1288
1281, 1288, 1469, 1470, 1289
1282, 1289, 1470, 1471, 1290
1283, 1290, 1471, 1472, 1291
1284, 1291, 1472, 1473, 1292
1285, 1292, 1473, 1474, 1293
1286, 1293, 1474, 1475, 1294
1287, 1294, 1475, 1476, 1295
1288, 1295, 1476, 1477, 1296
1289, 1296, 1477, 1478, 1297
1290, 1297, 1478, 1479, 1298
1291, 1298, 1479, 1480, 1299
1292, 1299, 1480, 1481, 1300
1293, 1300, 1481, 1482, 1301
1294, 1301, 1482, 1483, 1302
1295, 1302, 1483, 1484, 1303
1296, 1303, 1484, 1485, 1304
1297, 1304, 1485, 1486, 1305
1298, 1305, 1486, 1487, 1306
1299, 1306, 1487, 1488, 1307
1300, 1307, 1488, 1489, 1308
1301, 1308, 1489, 1490, 1309
1302, 1309, 1490, 1491, 1310
1303, 1310, 1491, 1492, 1311
1304, 1311, 1492, 1493, 1312
1305, 1312, 1493, 1494, 1313
1306, 1313, 1494, 1495, 1314
1307, 1314, 1495, 1496, 1315
1308, 1315, 1496, 1497, 1316
1309, 1316, 1497, 1498, 1317
1310, 1317, 1498, 1499, 1318
1311, 1318, 1499, 1500, 1319
1312, 1319, 1500, 1501, 1320
1313, 1320, 1501, 1502, 1321
1314, 1321, 1502, 1503, 1322
1315, 1322, 1503, 1504, 1323
1316, 1323, 1504, 1505, 1324
1317, 1324, 1505, 1506, 1325
1318, 1325, 1506, 1507, 1326
1319, 1326, 1507, 1508, 1327
1320, 1327, 1508, 1509, 1328
1321, 1328, 1509, 1510, 1329
1322, 1329, 1510, 1511, 1330
1323, 1330, 1511, 1512, 1331
1324, 1331, 1512, 1513, 1332
1325, 1332, 1513, 1514, 1333
1326, 1333, 1514, 1515, 1334
1327, 1334, 1515, 1516, 1335
1328, 1335, 1516, 1517, 1336
1329, 1336, 1517, 1518, 1337
1330, 1337, 1518, 1519, 1338
1331, 1338, 1519, 1520, 1339
1332, 1339, 1520, 1521, 1340
1333, 1340, 1521, 1522, 1341
1334, 1341, 1522, 1523, 1342
1335, 1342, 1523, 1524, 1343
1336, 1343, 1524, 1525, 1344
1337, 1344, 1525, 1526, 1345
1338, 1345, 1526, 1527, 1346
1339, 1346, 1527, 1528, 1347
1340, 1347, 1528, 1529, 1348
1341, 1348, 1529, 1530, 1349
1342, 1349, 1530, 1531, 1350
1343, 1350, 1531, 1532, 1351
1344, 1351, 1532, 1533, 1352
1345, 1352, 1533, 1534, 1353
1346, 1353, 1534, 1535, 1354
1347, 1354, 1535, 1536, 1355
1348, 1355, 1536, 1537, 1356
1349, 1356, 1537, 1538, 1357
1350, 1357, 1538, 1539, 1358
1351, 1358, 1539, 1540, 1359
1352, 1359, 1540, 1541, 1360
1353, 1360, 1541, 1542, 1361
1354, 1361, 1542, 1543, 1362
1355, 1362, 1543, 1544, 1363
1356, 1363, 1544, 1545, 1364
1357, 1364, 1545, 1546, 1365
1358, 1365, 1546, 1547, 1366
1359, 1366, 1547, 1548, 1367
1360, 1367, 1548, 1549, 1368
1361, 1368, 1549, 1550, 1369
1362, 1369, 1550, 1551, 1370
1363, 1370, 1551, 1552, 1371
1364, 1371, 1552, 1553, 1372
1365, 1372, 1553, 1554, 1373
1366, 1373, 1554, 1555, 1374
1367, 1374, 1555, 1556, 1375
1368, 1375, 1556, 1557, 1376
1369, 1376, 1557, 1558, 1377
1370, 1377, 1558, 1559, 1378
1371, 1378, 1559, 1560, 1379
1372, 1379, 1560, 1561, 1380
1373, 1380, 1561, 1562, 1381
1374, 1381, 1562, 1563, 1382
1375, 1382, 1563, 1564, 1383
1376, 1383, 1564, 1565, 1384
1377, 1384, 1565, 1566, 1385
1378, 1385, 1566, 1567, 1386
1379, 1386, 1567, 1568, 1387
1380, 1387, 1568, 1569, 1388
1381, 1388, 1569, 1570, 1389
1382, 1389, 1570, 1571, 1390
1383, 1390, 1571, 1572, 1391
1384, 1391, 1572, 1573, 1392
1385, 1392, 1573, 1574, 1393
1386, 1393, 1574, 1575, 1394
1387, 1394, 1575, 1576, 1395
1388, 1395, 1576, 1577, 1396
1389, 1396, 1577, 1578, 1397
1390, 1397, 1578, 1579, 1398
1391, 1398, 1579, 1580, 1399
1392, 1399, 1580, 1581, 1400
1393, 1400, 1581, 1582, 1401
1394, 1401, 1582, 1583, 1402
1395, 1402, 1583, 1584, 1403
1396, 1403, 1584, 1585, 1404
1397, 1404, 1585, 1586, 1405
1398, 1405, 1586, 1587, 1406
1399, 1406, 1587, 1588, 1407
1400, 1407, 1588, 1589, 1408
1401, 1408, 1589, 1590, 1409
1402, 1409, 1590, 1591, 1410
1403, 1410, 1591, 1592, 1411
1404, 1411, 1592, 1593, 1412
1405, 1412, 1593, 1594, 1413
1406, 1413, 1594, 1595, 1414
1407, 1414, 1595, 1596, 1415
1408, 1415, 1596, 1597, 1416
1409, 1416, 1597, 1598, 1417
1410, 1417, 1598, 1599, 1418
1411, 1418, 1599, 1600, 1419
1412, 1419, 1600, 1601, 1420
1413, 1420, 1601, 1602, 1421
1414, 1421, 1602, 1603, 1422
1415, 1422, 1603, 1604, 1423
1416, 1423, 1604, 1605, 1424
1417, 1424, 1605, 1606, 1425
1418, 1425, 1606, 1607, 1426
1419, 1426, 1607, 1608, 1427
1420, 1427, 1608, 1609, 1428
1421, 1428, 1609, 1610, 1429
1422, 1429, 1610, 1611, 1430
1423, 1430, 1611, 1612, 1431
1424, 1431, 1612, 1613, 1432
1425, 1432, 1613, 1614, 1433
1426, 1433, 1614, 1615, 1434
1427, 1434, 1615, 1616, 1435
1428, 1435, 1616, 1617, 1436
1429, 1436, 1617, 1618, 1437
1430, 1437, 1618, 1619, 1438
1431, 1438, 1619, 1620, 1439
1432, 1439, 1620, 1621, 1440
1433, 1440, 1621, 1622, 1441
1434, 1441, 1622, 1623, 1442
1435, 1442, 1623, 1624, 1443
1436, 1443, 1624, 1625, 1444
1437, 1444, 1625, 1626, 1445
1438, 1445, 1626, 1627, 1446
1439, 1446, 1627, 1628, 1447
1440, 1447, 1628, 1629, 1448
1441, 1450, 1631, 1630, 1449
1442, 1449, 1630, 1632, 1451
1443, 1451, 1632, 1633, 1452
1444, 1452, 1633, 1634, 1453
1445, 1453, 1634, 1635, 1454
1446, 1454, 1635, 1636, 1455
1447, 1455, 1636, 1637, 1456
1448, 1456, 1637, 1638, 1457
1449, 1457, 1638, 1639, 1458
1450, 1458, 1639, 1640, 1459
1451, 1459, 1640, 1641, 1460
1452, 1460, 1641, 1642, 1461
1453, 1461, 1642, 1643, 1462
1454, 1462, 1643, 1644, 1463
1455, 1463, 1644, 1645, 1464
1456, 1464, 1645, 1646, 1465
1457, 1465, 1646, 1647, 1466
1458, 1466, 1647, 1648, 1467
1459, 1467, 1648, 1649, 1468
1460, 1468, 1649, 1650, 1469
1461, 1469, 1650, 1651, 1470
1462, 1470, 1651, 1652, 1471
1463, 1471, 1652, 1653, 1472
1464, 1472, 1653, 1654, 1473
1465, 1473, 1654, 1655, 1474
1466, 1474, 1655, 1656, 1475
1467, 1475, 1656, 1657, 1476
1468, 1476, 1657, 1658, 1477
1469, 1477, 1658, 1659, 1478
1470, 1478, 1659, 1660, 1479
1471, 1479, 1660, 1661, 1480
1472, 1480, 1661, 1662, 1481
1473, 1481, 1662, 1663, 1482
1474, 1482, 1663, 1664, 1483
1475, 1483, 1664, 1665, 1484
1476, 1484, 1665, 1666, 1485
1477, 1485, 1666, 1667, 1486
1478, 1486, 1667, 1668, 1487
1479, 1487, 1668, 1669, 1488
1480, 1488, 1669, 1670, 1489
1481, 1489, 1670, 1671, 1490
1482, 1490, 1671, 1672, 1491
1483, 1491, 1672, 1673, 1492
1484, 1492, 1673, 1674, 1493
1485, 1493, 1674, 1675, 1494
1486, 1494, 1675, 1676, 1495
1487, 1495, 1676, 1677, 1496
1488, 1496, 1677, 1678, 1497
1489, 1497, 1678, 1679, 1498
1490, 1498, 1679, 1680, 1499
1491, 1499, 1680, 1681, 1500
1492, 1500, 1681, 1682, 1501
1493, 1501, 1682, 1683, 1502
1494, 1502, 1683, 1684, 1503
1495, 1503, 1684, 1685, 1504
1496, 1504, 1685, 1686, 1505
1497, 1505, 1686, 1687, 1506
1498, 1506, 1687, 1688, 1507
1499, 1507, 1688, 1689, 1508
1500, 1508, 1689, 1690, 1509
1501, 1509, 1690, 1691, 1510
1502, 1510, 1691, 1692, 1511
1503, 1511, 1692, 1693, 1512
1504, 1512, 1693, 1694, 1513
1505, 1513, 1694, 1695, 1514
1506, 1514, 1695, 1696, 1515
1507, 1515, 1696, 1697, 1516
1508, 1516, 1697, 1698, 1517
1509, 1517, 1698, 1699, 1518
1510, 1518, 1699, 1700, 1519
1511, 1519, 1700, 1701, 1520
1512, 1520, 1701, 1702, 1521
1513, 1521, 1702, 1703, 1522
1514, 1522, 1703, 1704, 1523
1515, 1523, 1704, 1705, 1524
1516, 1524, 1705, 1706, 1525
1517, 1525, 1706, 1707, 1526
1518, 1526, 1707, 1708, 1527
1519, 1527, 1708, 1709, 1528
1520, 1528, 1709, 1710, 1529
1521, 1529, 1710, 1711, 1530
1522, 1530, 1711, 1712, 1531
1523, 1531, 1712, 1713, 1532
1524, 1532, 1713, 1714, 1533
1525, 1533, 1714, 1715, 1534
1526, 1534, 1715, 1716, 1535
1527, 1535, 1716, 1717, 1536
1528, 1536, 1717, 1718, 1537
1529, 1537, 1718, 1719, 1538
1530, 1538, 1719, 1720, 1539
1531, 1539, 1720, 1721, 1540
1532, 1540, 1721, 1722, 1541
1533, 1541, 1722, 1723, 1542
1534, 1542, 1723, 1724, 1543
1535, 1543, 1724, 1725, 1544
1536, 1544, 1725, 1726, 1545
1537, 1545, 1726, 1727, 1546
1538, 1546, 1727, 1728, 1547
1539, 1547, 1728, 1729, 1548
1540, 1548, 1729, 1730, 1549
1541, 1549, 1730, 1731, 1550
1542, 1550, 1731, 1732, 1551
1543, 1551, 1732, 1733, 1552
1544, 1552, 1733, 1734, 1553
1545, 1553, 1734, 1735, 1554
1546, 1554, 1735, 1736, 1555
1547, 1555, 1736, 1737, 1556
1548, 1556, 1737, 1738, 1557
1549, 1557, 1738, 1739, 1558
1550, 1558, 1739, 1740, 1559
1551, 1559, 1740, 1741, 1560
1552, 1560, 1741, 1742, 1561
1553, 1561, 1742, 1743, 1562
1554, 1562, 1743, 1744, 1563
1555, 1563, 1744, 1745, 1564
1556, 1564, 1745, 1746, 1565
1557, 1565, 1746, 1747, 1566
1558, 1566, 1747, 1748, 1567
1559, 1567, 1748, 1749, 1568
1560, 1568, 1749, 1750, 1569
1561, 1569, 1750, 1751, 1570
1562, 1570, 1751, 1752, 1571
1563, 1571, 1752, 1753, 1572
1564, 1572, 1753, 1754, 1573
1565, 1573, 1754, 1755, 1574
1566, 1574, 1755, 1756, 1575
1567, 1575, 1756, 1757, 1576
1568, 1576, 1757, 1758, 1577
1569, 1577, 1758, 1759, 1578
1570, 1578, 1759, 1760, 1579
1571, 1579, 1760, 1761, 1580
1572, 1580, 1761, 1762, 1581
1573, 1581, 1762, 1763, 1582
1574, 1582, 1763, 1764, 1583
1575, 1583, 1764, 1765, 1584
1576, 1584, 1765, 1766, 1585
1577, 1585, 1766, 1767, 1586
1578, 1586, 1767, 1768, 1587
1579, 1587, 1768, 1769, 1588
1580, 1588, 1769, 1770, 1589
1581, 1589, 1770, 1771, 1590
1582, 1590, 1771, 1772, 1591
1583, 1591, 1772, 1773, 1592
1584, 1592, 1773, 1774, 1593
1585, 1593, 1774, 1775, 1594
1586, 1594, 1775, 1776, 1595
1587, 1595, 1776, 1777, 1596
1588, 1596, 1777, 1778, 1597
1589, 1597, 1778, 1779, 1598
1590, 1598, 1779, 1780, 1599
1591, 1599, 1780, 1781, 1600
1592, 1600, 1781, 1782, 1601
1593, 1601, 1782, 1783, 1602
1594, 1602, 1783, 1784, 1603
1595, 1603, 1784, 1785, 1604
1596, 1604, 1785, 1786, 1605
1597, 1605, 1786, 1787, 1606
1598, 1606, 1787, 1788, 1607
1599, 1607, 1788, 1789, 1608
1600, 1608, 1789, 1790, 1609
1601, 1609, 1790, 1791, 1610
1602, 1610, 1791, 1792, 1611
1603, 1611, 1792, 1793, 1612
1604, 1612, 1793, 1794, 1613
1605, 1613, 1794, 1795, 1614
1606, 1614, 1795, 1796, 1615
1607, 1615, 1796, 1797, 1616
1608, 1616, 1797, 1798, 1617
1609, 1617, 1798, 1799, 1618
1610, 1618, 1799, 1800, 1619
1611, 1619, 1800, 1801, 1620
1612, 1620, 1801, 1802, 1621
1613, 1621, 1802, 1803, 1622
1614, 1622, 1803, 1804, 1623
1615, 1623, 1804, 1805, 1624
1616, 1624, 1805, 1806, 1625
1617, 1625, 1806, 1807, 1626
1618, 1626, 1807, 1808, 1627
1619, 1627, 1808, 1809, 1628
1620, 1628, 1809, 1810, 1629
1621, 1631, 1812, 1811, 1630
1622, 1630, 1811, 1813, 1632
1623, 1632, 1813, 1814, 1633
1624, 1633, 1814, 1815, 1634
1625, 1634, 1815, 1816, 1635
1626, 1635, 1816, 1817, 1636
1627, 1636, 1817, 1818, 1637
1628, 1637, 1818, 1819, 1638
1629, 1638, 1819, 1820, 1639
1630, 1639, 1820, 1821, 1640
1631, 1640, 1821, 1822, 1641
1632, 1641, 1822, 1823, 1642
1633, 1642, 1823, 1824, 1643
1634, 1643, 1824, 1825, 1644
1635, 1644, 1825, 1826, 1645
1636, 1645, 1826, 1827, 1646
1637, 1646, 1827, 1828, 1647
1638, 1647, 1828, 1829, 1648
1639, 1648, 1829, 1830, 1649
1640, 1649, 1830, 1831, 1650
1641, 1650, 1831, 1832, 1651
1642, 1651, 1832, 1833, 1652
1643, 1652, 1833, 1834, 1653
1644, 1653, 1834, 1835, 1654
1645, 1654, 1835, 1836, 1655
1646, 1655, 1836, 1837, 1656
1647, 1656, 1837, 1838, 1657
1648, 1657, 1838, 1839, 1658
1649, 1658, 1839, 1840, 1659
1650, 1659, 1840, 1841, 1660
1651, 1660, 1841, 1842, 1661
1652, 1661, 1842, 1843, 1662
1653, 1662, 1843, 1844, 1663
1654, 1663, 1844, 1845, 1664
1655, 1664, 1845, 1846, 1665
1656, 1665, 1846, 1847, 1666
1657, 1666, 1847, 1848, 1667
1658, 1667, 1848, 1849, 1668
1659, 1668, 1849, 1850, 1669
1660, 1669, 1850, 1851, 1670
1661, 1670, 1851, 1852, 1671
1662, 1671, 1852, 1853, 1672
1663, 1672, 1853, 1854, 1673
1664, 1673, 1854, 1855, 1674
1665, 1674, 1855, 1856, 1675
1666, 1675, 1856, 1857, 1676
1667, 1676, 1857, 1858, 1677
1668, 1677, 1858, 1859, 1678
1669, 1678, 1859, 1860, 1679
1670, 1679, 1860, 1861, 1680
1671, 1680, 1861, 1862, 1681
1672, 1681, 1862, 1863, 1682
1673, 1682, 1863, 1864, 1683
1674, 1683, 1864, 1865, 1684
1675, 1684, 1865, 1866, 1685
1676, 1685, 1866, 1867, 1686
1677, 1686, 1867, 1868, 1687
1678, 1687, 1868, 1869, 1688
1679, 1688, 1869, 1870, 1689
1680, 1689, 1870, 1871, 1690
1681, 1690, 1871, 1872, 1691
1682, 1691, 1872, 1873, 1692
1683, 1692, 1873, 1874, 1693
1684, 1693, 1874, 1875, 1694
1685, 1694, 1875, 1876, 1695
1686, 1695, 1876, 1877, 1696
1687, 1696, 1877, 1878, 1697
1688, 1697, 1878, 1879, 1698
1689, 1698, 1879, 1880, 1699
1690, 1699, 1880, 1881, 1700
1691, 1700, 1881, 1882, 1701
1692, 1701, 1882, 1883, 1702
1693, 1702, 1883, 1884, 1703
1694, 1703, 1884, 1885, 1704
1695, 1704, 1885, 1886, 1705
1696, 1705, 1886, 1887, 1706
1697, 1706, 1887, 1888, 1707
1698, 1707, 1888, 1889, 1708
1699, 1708, 1889, 1890, 1709
1700, 1709, 1890, 1891, 1710
1701, 1710, 1891, 1892, 1711
1702, 1711, 1892, 1893, 1712
1703, 1712, 1893, 1894, 1713
1704, 1713, 1894, 1895, 1714
1705, 1714, 1895, 1896, 1715
1706, 1715, 1896, 1897, 1716
1707, 1716, 1897, 1898, 1717
1708, 1717, 1898, 1899, 1718
1709, 1718, 1899, 1900, 1719
1710, 1719, 1900, 1901, 1720
1711, 1720, 1901, 1902, 1721
1712, 1721, 1902, 1903, 1722
1713, 1722, 1903, 1904, 1723
1714, 1723, 1904, 1905, 1724
1715, 1724, 1905, 1906, 1725
1716, 1725, 1906, 1907, 1726
1717, 1726, 1907, 1908, 1727
1718, 1727, 1908, 1909, 1728
1719, 1728, 1909, 1910, 1729
1720, 1729, 1910, 1911, 1730
1721, 1730, 1911, 1912, 1731
1722, 1731, 1912, 1913, 1732
1723, 1732, 1913, 1914, 1733
1724, 1733, 1914, 1915, 1734
1725, 1734, 1915, 1916, 1735
1726, 1735, 1916, 1917, 1736
1727, 1736, 1917, 1918, 1737
1728, 1737, 1918, 1919, 1738
1729, 1738, 1919, 1920, 1739
1730, 1739, 1920, 1921, 1740
1731, 1740, 1921, 1922, 1741
1732, 1741, 1922, 1923, 1742
1733, 1742, 1923, 1924, 1743
1734, 1743, 1924, 1925, 1744
1735, 1744, 1925, 1926, 1745
1736, 1745, 1926, 1927, 1746
1737, 1746, 1927, 1928, 1747
1738, 1747, 1928, 1929, 1748
1739, 1748, 1929, 1930, 1749
1740, 1749, 1930, 1931, 1750
1741, 1750, 1931, 1932, 1751
1742, 1751, 1932, 1933, 1752
1743, 1752, 1933, 1934, 1753
1744, 1753, 1934, 1935, 1754
1745, 1754, 1935, 1936, 1755
1746, 1755, 1936, 1937, 1756
1747, 1756, 1937, 1938, 1757
1748, 1757, 1938, 1939, 1758
1749, 1758, 1939, 1940, 1759
1750, 1759, 1940, 1941, 1760
1751, 1760, 1941, 1942, 1761
1752, 1761, 1942, 1943, 1762
1753, 1762, 1943, 1944, 1763
1754, 1763, 1944, 1945, 1764
1755, 1764, 1945, 1946, 1765
1756, 1765, 1946, 1947, 1766
1757, 1766, 1947, 1948, 1767
1758, 1767, 1948, 1949, 1768
1759, 1768, 1949, 1950, 1769
1760, 1769, 1950, 1951, 1770
1761, 1770, 1951, 1952, 1771
1762, 1771, 1952, 1953, 1772
1763, 1772, 1953, 1954, 1773
1764, 1773, 1954, 1955, 1774
1765, 1774, 1955, 1956, 1775
1766, 1775, 1956, 1957, 1776
1767, 1776, 1957, 1958, 1777
1768, 1777, 1958, 1959, 1778
1769, 1778, 1959, 1960, 1779
1770, 1779, 1960, 1961, 1780
1771, 1780, 1961, 1962, 1781
1772, 1781, 1962, 1963, 1782
1773, 1782, 1963, 1964, 1783
1774, 1783, 1964, 1965, 1784
1775, 1784, 1965, 1966, 1785
1776, 1785, 1966, 1967, 1786
1777, 1786, 1967, 1968, 1787
1778, 1787, 1968, 1969, 1788
1779, 1788, 1969, 1970, 1789
1780, 1789, 1970, 1971, 1790
1781, 1790, 1971, 1972, 1791
1782, 1791, 1972, 1973, 1792
1783, 1792, 1973, 1974, 1793
1784, 1793, 1974, 1975, 1794
1785, 1794, 1975, 1976, 1795
1786, 1795, 1976, 1977, 1796
1787, 1796, 1977, 1978, 1797
1788, 1797, 1978, 1979, 1798
1789, 1798, 1979, 1980, 1799
1790, 1799, 1980, 1981, 1800
1791, 1800, 1981, 1982, 1801
1792, 1801, 1982, 1983, 1802
1793, 1802, 1983, 1984, 1803
1794, 1803, 1984, 1985, 1804
1795, 1804, 1985, 1986, 1805
1796, 1805, 1986, 1987, 1806
1797, 1806, 1987, 1988, 1807
1798, 1807, 1988, 1989, 1808
1799, 1808, 1989, 1990, 1809
1800, 1809, 1990, 1991, 1810
1801, 1812, 1993, 1992, 1811
1802, 1811, 1992, 1994, 1813
1803, 1813, 1994, 1995, 1814
1804, 1814, 1995, 1996, 1815
1805, 1815, 1996, 1997, 1816
1806, 1816, 1997, 1998, 1817
1807, 1817, 1998, 1999, 1818
1808, 1818, 1999, 2000, 1819
1809, 1819, 2000, 2001, 1820
1810, 1820, 2001, 2002, 1821
1811, 1821, 2002, 2003, 1822
1812, 1822, 2003, 2004, 1823
1813, 1823, 2004, 2005, 1824
1814, 1824, 2005, 2006, 1825
1815, 1825, 2006, 2007, 1826
1816, 1826, 2007, 2008, 1827
1817, 1827, 2008, 2009, 1828
1818, 1828, 2009, 2010, 1829
1819, 1829, 2010, 2011, 1830
1820, 1830, 2011, 2012, 1831
1821, 1831, 2012, 2013, 1832
1822, 1832, 2013, 2014, 1833
1823, 1833, 2014, 2015, 1834
1824, 1834, 2015, 2016, 1835
1825, 1835, 2016, 2017, 1836
1826, 1836, 2017, 2018, 1837
1827, 1837, 2018, 2019, 1838
1828, 1838, 2019, 2020, 1839
1829, 1839, 2020, 2021, 1840
1830, 1840, 2021, 2022, 1841
1831, 1841, 2022, 2023, 1842
1832, 1842, 2023, 2024, 1843
1833, 1843, 2024, 2025, 1844
1834, 1844, 2025, 2026, 1845
1835, 1845, 2026, 2027, 1846
1836, 1846, 2027, 2028, 1847
1837, 1847, 2028, 2029, 1848
1838, 1848, 2029, 2030, 1849
1839, 1849, 2030, 2031, 1850
1840, 1850, 2031, 2032, 1851
1841, 1851, 2032, 2033, 1852
1842, 1852, 2033, 2034, 1853
1843, 1853, 2034, 2035, 1854
1844, 1854, 2035, 2036, 1855
1845, 1855, 2036, 2037, 1856
1846, 1856, 2037, 2038, 1857
1847, 1857, 2038, 2039, 1858
1848, 1858, 2039, 2040, 1859
1849, 1859, 2040, 2041, 1860
1850, 1860, 2041, 2042, 1861
1851, 1861, 2042, 2043, 1862
1852, 1862, 2043, 2044, 1863
1853, 1863, 2044, 2045, 1864
1854, 1864, 2045, 2046, 1865
1855, 1865, 2046, 2047, 1866
1856, 1866, 2047, 2048, 1867
1857, 1867, 2048, 2049, 1868
1858, 1868, 2049, 2050, 1869
1859, 1869, 2050, 2051, 1870
1860, 1870, 2051, 2052, 1871
1861, 1871, 2052, 2053, 1872
1862, 1872, 2053, 2054, 1873
1863, 1873, 2054, 2055, 1874
1864, 1874, 2055, 2056, 1875
1865, 1875, 2056, 2057, 1876
1866, 1876, 2057, 2058, 1877
1867, 1877, 2058, 2059, 1878
1868, 1878, 2059, 2060, 1879
1869, 1879, 2060, 2061, 1880
1870, 1880, 2061, 2062, 1881
1871, 1881, 2062, 2063, 1882
1872, 1882, 2063, 2064, 1883
1873, 1883, 2064, 2065, 1884
1874, 1884, 2065, 2066, 1885
1875, 1885, 2066, 2067, 1886
1876, 1886, 2067, 2068, 1887
1877, 1887, 2068, 2069, 1888
1878, 1888, 2069, 2070, 1889
1879, 1889, 2070, 2071, 1890
1880, 1890, 2071, 2072, 1891
1881, 1891, 2072, 2073, 1892
1882, 1892, 2073, 2074, 1893
1883, 1893, 2074, 2075, 1894
1884, 1894, 2075, 2076, 1895
1885, 1895, 2076, 2077, 1896
1886, 1896, 2077, 2078, 1897
1887, 1897, 2078, 2079, 1898
1888, 1898, 2079, 2080, 1899
1889, 1899, 2080, 2081, 1900
1890, 1900, 2081, 2082, 1901
1891, 1901, 2082, 2083, 1902
1892, 1902, 2083, 2084, 1903
1893, 1903, 2084, 2085, 1904
1894, 1904, 2085, 2086, 1905
1895, 1905, 2086, 2087, 1906
1896, 1906, 2087, 2088, 1907
1897, 1907, 2088, 2089, 1908
1898, 1908, 2089, 2090, 1909
1899, 1909, 2090, 2091, 1910
1900, 1910, 2091, 2092, 1911
1901, 1911, 2092, 2093, 1912
1902, 1912, 2093, 2094, 1913
1903, 1913, 2094, 2095, 1914
1904, 1914, 2095, 2096, 1915
1905, 1915, 2096, 2097, 1916
1906, 1916, 2097, 2098, 1917
1907, 1917, 2098, 2099, 1918
1908, 1918, 2099, 2100, 1919
1909, 1919, 2100, 2101, 1920
1910, 1920, 2101, 2102, 1921
1911, 1921, 2102, 2103, 1922
1912, 1922, 2103, 2104, 1923
1913, 1923, 2104, 2105, 1924
1914, 1924, 2105, 2106, 1925
1915, 1925, 2106, 2107, 1926
1916, 1926, 2107, 2108, 1927
1917, 1927, 2108, 2109, 1928
1918, 1928, 2109, 2110, 1929
1919, 1929, 2110, 2111, 1930
1920, 1930, 2111, 2112, 1931
1921, 1931, 2112, 2113, 1932
1922, 1932, 2113, 2114, 1933
1923, 1933, 2114, 2115, 1934
1924, 1934, 2115, 2116, 1935
1925, 1935, 2116, 2117, 1936
1926, 1936, 2117, 2118, 1937
1927, 1937, 2118, 2119, 1938
1928, 1938, 2119, 2120, 1939
1929, 1939, 2120, 2121, 1940
1930, 1940, 2121, 2122, 1941
1931, 1941, 2122, 2123, 1942
1932, 1942, 2123, 2124, 1943
1933, 1943, 2124, 2125, 1944
1934, 1944, 2125, 2126, 1945
1935, 1945, 2126, 2127, 1946
1936, 1946, 2127, 2128, 1947
1937, 1947, 2128, 2129, 1948
1938, 1948, 2129, 2130, 1949
1939, 1949, 2130, 2131, 1950
1940, 1950, 2131, 2132, 1951
1941, 1951, 2132, 2133, 1952
1942, 1952, 2133, 2134, 1953
1943, 1953, 2134, 2135, 1954
1944, 1954, 2135, 2136, 1955
1945, 1955, 2136, 2137, 1956
1946, 1956, 2137, 2138, 1957
1947, 1957, 2138, 2139, 1958
1948, 1958, 2139, 2140, 1959
1949, 1959, 2140, 2141, 1960
1950, 1960, 2141, 2142, 1961
1951, 1961, 2142, 2143, 1962
1952, 1962, 2143, 2144, 1963
1953, 1963, 2144, 2145, 1964
1954, 1964, 2145, 2146, 1965
1955, 1965, 2146, 2147, 1966
1956, 1966, 2147, 2148, 1967
1957, 1967, 2148, 2149, 1968
1958, 1968, 2149, 2150, 1969
1959, 1969, 2150, 2151, 1970
1960, 1970, 2151, 2152, 1971
1961, 1971, 2152, 2153, 1972
1962, 1972, 2153, 2154, 1973
1963, 1973, 2154, 2155, 1974
1964, 1974, 2155, 2156, 1975
1965, 1975, 2156, 2157, 1976
1966, 1976, 2157, 2158, 1977
1967, 1977, 2158, 2159, 1978
1968, 1978, 2159, 2160, 1979
1969, 1979, 2160, 2161, 1980
1970, 1980, 2161, 2162, 1981
1971, 1981, 2162, 2163, 1982
1972, 1982, 2163, 2164, 1983
1973, 1983, 2164, 2165, 1984
1974, 1984, 2165, 2166, 1985
1975, 1985, 2166, 2167, 1986
1976, 1986, 2167, 2168, 1987
1977, 1987, 2168, 2169, 1988
1978, 1988, 2169, 2170, 1989
1979, 1989, 2170, 2171, 1990
1980, 1990, 2171, 2172, 1991
1981, 1993, 2174, 2173, 1992
1982, 1992, 2173, 2175, 1994
1983, 1994, 2175, 2176, 1995
1984, 1995, 2176, 2177, 1996
1985, 1996, 2177, 2178, 1997
1986, 1997, 2178, 2179, 1998
1987, 1998, 2179, 2180, 1999
1988, 1999, 2180, 2181, 2000
1989, 2000, 2181, 2182, 2001
1990, 2001, 2182, 2183, 2002
1991, 2002, 2183, 2184, 2003
1992, 2003, 2184, 2185, 2004
1993, 2004, 2185, 2186, 2005
1994, 2005, 2186, 2187, 2006
1995, 2006, 2187, 2188, 2007
1996, 2007, 2188, 2189, 2008
1997, 2008, 2189, 2190, 2009
1998, 2009, 2190, 2191, 2010
1999, 2010, 2191, 2192, 2011
2000, 2011, 2192, 2193, 2012
2001, 2012, 2193, 2194, 2013
2002, 2013, 2194, 2195, 2014
2003, 2014, 2195, 2196, 2015
2004, 2015, 2196, 2197, 2016
2005, 2016, 2197, 2198, 2017
2006, 2017, 2198, 2199, 2018
2007, 2018, 2199, 2200, 2019
2008, 2019, 2200, 2201, 2020
2009, 2020, 2201, 2202, 2021
2010, 2021, 2202, 2203, 2022
2011, 2022, 2203, 2204, 2023
2012, 2023, 2204, 2205, 2024
2013, 2024, 2205, 2206, 2025
2014, 2025, 2206, 2207, 2026
2015, 2026, 2207, 2208, 2027
2016, 2027, 2208, 2209, 2028
2017, 2028, 2209, 2210, 2029
2018, 2029, 2210, 2211, 2030
2019, 2030, 2211, 2212, 2031
2020, 2031, 2212, 2213, 2032
2021, 2032, 2213, 2214, 2033
2022, 2033, 2214, 2215, 2034
2023, 2034, 2215, 2216, 2035
2024, 2035, 2216, 2217, 2036
2025, 2036, 2217, 2218, 2037
2026, 2037, 2218, 2219, 2038
2027, 2038, 2219, 2220, 2039
2028, 2039, 2220, 2221, 2040
2029, 2040, 2221, 2222, 2041
2030, 2041, 2222, 2223, 2042
2031, 2042, 2223, 2224, 2043
2032, 2043, 2224, 2225, 2044
2033, 2044, 2225, 2226, 2045
2034, 2045, 2226, 2227, 2046
2035, 2046, 2227, 2228, 2047
2036, 2047, 2228, 2229, 2048
2037, 2048, 2229, 2230, 2049
2038, 2049, 2230, 2231, 2050
2039, 2050, 2231, 2232, 2051
2040, 2051, 2232, 2233, 2052
2041, 2052, 2233, 2234, 2053
2042, 2053, 2234, 2235, 2054
2043, 2054, 2235, 2236, 2055
2044, 2055, 2236, 2237, 2056
2045, 2056, 2237, 2238, 2057
2046, 2057, 2238, 2239, 2058
2047, 2058, 2239, 2240, 2059
2048, 2059, 2240, 2241, 2060
2049, 2060, 2241, 2242, 2061
2050, 2061, 2242, 2243, 2062
2051, 2062, 2243, 2244, 2063
2052, 2063, 2244, 2245, 2064
2053, 2064, 2245, 2246, 2065
2054, 2065, 2246, 2247, 2066
2055, 2066, 2247, 2248, 2067
2056, 2067, 2248, 2249, 2068
2057, 2068, 2249, 2250, 2069
2058, 2069, 2250, 2251, 2070
2059, 2070, 2251, 2252, 2071
2060, 2071, 2252, 2253, 2072
2061, 2072, 2253, 2254, 2073
2062, 2073, 2254, 2255, 2074
2063, 2074, 2255, 2256, 2075
2064, 2075, 2256, 2257, 2076
2065, 2076, 2257, 2258, 2077
2066, 2077, 2258, 2259, 2078
2067, 2078, 2259, 2260, 2079
2068, 2079, 2260, 2261, 2080
2069, 2080, 2261, 2262, 2081
2070, 2081, 2262, 2263, 2082
2071, 2082, 2263, 2264, 2083
2072, 2083, 2264, 2265, 2084
2073, 2084, 2265, 2266, 2085
2074, 2085, 2266, 2267, 2086
2075, 2086, 2267, 2268, 2087
2076, 2087, 2268, 2269, 2088
2077, 2088, 2269, 2270, 2089
2078, 2089, 2270, 2271, 2090
2079, 2090, 2271, 2272, 2091
2080, 2091, 2272, 2273, 2092
2081, 2092, 2273, 2274, 2093
2082, 2093, 2274, 2275, 2094
2083, 2094, 2275, 2276, 2095
2084, 2095, 2276, 2277, 2096
2085, 2096, 2277, 2278, 2097
2086, 2097, 2278, 2279, 2098
2087, 2098, 2279, 2280, 2099
2088, 2099, 2280, 2281, 2100
2089, 2100, 2281, 2282, 2101
2090, 2101, 2282, 2283, 2102
2091, 2102, 2283, 2284, 2103
2092, 2103, 2284, 2285, 2104
2093, 2104, 2285, 2286, 2105
2094, 2105, 2286, 2287, 2106
2095, 2106, 2287, 2288, 2107
2096, 2107, 2288, 2289, 2108
2097, 2108, 2289, 2290, 2109
2098, 2109, 2290, 2291, 2110
2099, 2110, 2291, 2292, 2111
2100, 2111, 2292, 2293, 2112
2101, 2112, 2293, 2294, 2113
2102, 2113, 2294, 2295, 2114
2103, 2114, 2295, 2296, 2115
2104, 2115, 2296, 2297, 2116
2105, 2116, 2297, 2298, 2117
2106, 2117, 2298, 2299, 2118
2107, 2118, 2299, 2300, 2119
2108, 2119, 2300, 2301, 2120
2109, 2120, 2301, 2302, 2121
2110, 2121, 2302, 2303, 2122
2111, 2122, 2303, 2304, 2123
2112, 2123, 2304, 2305, 2124
2113, 2124, 2305, 2306, 2125
2114, 2125, 2306, 2307, 2126
2115, 2126, 2307, 2308, 2127
2116, 2127, 2308, 2309, 2128
2117, 2128, 2309, 2310, 2129
2118, 2129, 2310, 2311, 2130
2119, 2130, 2311, 2312, 2131
2120, 2131, 2312, 2313, 2132
2121, 2132, 2313, 2314, 2133
2122, 2133, 2314, 2315, 2134
2123, 2134, 2315, 2316, 2135
2124, 2135, 2316, 2317, 2136
2125, 2136, 2317, 2318, 2137
2126, 2137, 2318, 2319, 2138
2127, 2138, 2319, 2320, 2139
2128, 2139, 2320, 2321, 2140
2129, 2140, 2321, 2322, 2141
2130, 2141, 2322, 2323, 2142
2131, 2142, 2323, 2324, 2143
2132, 2143, 2324, 2325, 2144
2133, 2144, 2325, 2326, 2145
2134, 2145, 2326, 2327, 2146
2135, 2146, 2327, 2328, 2147
2136, 2147, 2328, 2329, 2148
2137, 2148, 2329, 2330, 2149
2138, 2149, 2330, 2331, 2150
2139, 2150, 2331, 2332, 2151
2140, 2151, 2332, 2333, 2152
2141, 2152, 2333, 2334, 2153
2142, 2153, 2334, 2335, 2154
2143, 2154, 2335, 2336, 2155
2144, 2155, 2336, 2337, 2156
2145, 2156, 2337, 2338, 2157
2146, 2157, 2338, 2339, 2158
2147, 2158, 2339, 2340, 2159
2148, 2159, 2340, 2341, 2160
2149, 2160, 2341, 2342, 2161
2150, 2161, 2342, 2343, 2162
2151, 2162, 2343, 2344, 2163
2152, 2163, 2344, 2345, 2164
2153, 2164, 2345, 2346, 2165
2154, 2165, 2346, 2347, 2166
2155, 2166, 2347, 2348, 2167
2156, 2167, 2348, 2349, 2168
2157, 2168, 2349, 2350, 2169
2158, 2169, 2350, 2351, 2170
2159, 2170, 2351, 2352, 2171
2160, 2171, 2352, 2353, 2172
2161, 2174, 2355, 2354, 2173
2162, 2173, 2354, 2356, 2175
2163, 2175, 2356, 2357, 2176
2164, 2176, 2357, 2358, 2177
2165, 2177, 2358, 2359, 2178
2166, 2178, 2359, 2360, 2179
2167, 2179, 2360, 2361, 2180
2168, 2180, 2361, 2362, 2181
2169, 2181, 2362, 2363, 2182
2170, 2182, 2363, 2364, 2183
2171, 2183, 2364, 2365, 2184
2172, 2184, 2365, 2366, 2185
2173, 2185, 2366, 2367, 2186
2174, 2186, 2367, 2368, 2187
2175, 2187, 2368, 2369, 2188
2176, 2188, 2369, 2370, 2189
2177, 2189, 2370, 2371, 2190
2178, 2190, 2371, 2372, 2191
2179, 2191, 2372, 2373, 2192
2180, 2192, 2373, 2374, 2193
2181, 2193, 2374, 2375, 2194
2182, 2194, 2375, 2376, 2195
2183, 2195, 2376, 2377, 2196
2184, 2196, 2377, 2378, 2197
2185, 2197, 2378, 2379, 2198
2186, 2198, 2379, 2380, 2199
2187, 2199, 2380, 2381, 2200
2188, 2200, 2381, 2382, 2201
2189, 2201, 2382, 2383, 2202
2190, 2202, 2383, 2384, 2203
2191, 2203, 2384, 2385, 2204
2192, 2204, 2385, 2386, 2205
2193, 2205, 2386, 2387, 2206
2194, 2206, 2387, 2388, 2207
2195, 2207, 2388, 2389, 2208
2196, 2208, 2389, 2390, 2209
2197, 2209, 2390, 2391, 2210
2198, 2210, 2391, 2392, 2211
2199, 2211, 2392, 2393, 2212
2200, 2212, 2393, 2394, 2213
2201, 2213, 2394, 2395, 2214
2202, 2214, 2395, 2396, 2215
2203, 2215, 2396, 2397, 2216
2204, 2216, 2397, 2398, 2217
2205, 2217, 2398, 2399, 2218
2206, 2218, 2399, 2400, 2219
2207, 2219, 2400, 2401, 2220
2208, 2220, 2401, 2402, 2221
2209, 2221, 2402, 2403, 2222
2210, 2222, 2403, 2404, 2223
2211, 2223, 2404, 2405, 2224
2212, 2224, 2405, 2406, 2225
2213, 2225, 2406, 2407, 2226
2214, 2226, 2407, 2408, 2227
2215, 2227, 2408, 2409, 2228
2216, 2228, 2409, 2410, 2229
2217, 2229, 2410, 2411, 2230
2218, 2230, 2411, 2412, 2231
2219, 2231, 2412, 2413, 2232
2220, 2232, 2413, 2414, 2233
2221, 2233, 2414, 2415, 2234
2222, 2234, 2415, 2416, 2235
2223, 2235, 2416, 2417, 2236
2224, 2236, 2417, 2418, 2237
2225, 2237, 2418, 2419, 2238
2226, 2238, 2419, 2420, 2239
2227, 2239, 2420, 2421, 2240
2228, 2240, 2421, 2422, 2241
2229, 2241, 2422, 2423, 2242
2230, 2242, 2423, 2424, 2243
2231, 2243, 2424, 2425, 2244
2232, 2244, 2425, 2426, 2245
2233, 2245, 2426, 2427, 2246
2234, 2246, 2427, 2428, 2247
2235, 2247, 2428, 2429, 2248
2236, 2248, 2429, 2430, 2249
2237, 2249, 2430, 2431, 2250
2238, 2250, 2431, 2432, 2251
2239, 2251, 2432, 2433, 2252
2240, 2252, 2433, 2434, 2253
2241, 2253, 2434, 2435, 2254
2242, 2254, 2435, 2436, 2255
2243, 2255, 2436, 2437, 2256
2244, 2256, 2437, 2438, 2257
2245, 2257, 2438, 2439, 2258
2246, 2258, 2439, 2440, 2259
2247, 2259, 2440, 2441, 2260
2248, 2260, 2441, 2442, 2261
2249, 2261, 2442, 2443, 2262
2250, 2262, 2443, 2444, 2263
2251, 2263, 2444, 2445, 2264
2252, 2264, 2445, 2446, 2265
2253, 2265, 2446, 2447, 2266
2254, 2266, 2447, 2448, 2267
2255, 2267, 2448, 2449, 2268
2256, 2268, 2449, 2450, 2269
2257, 2269, 2450, 2451, 2270
2258, 2270, 2451, 2452, 2271
2259, 2271, 2452, 2453, 2272
2260, 2272, 2453, 2454, 2273
2261, 2273, 2454, 2455, 2274
2262, 2274, 2455, 2456, 2275
2263, 2275, 2456, 2457, 2276
2264, 2276, 2457, 2458, 2277
2265, 2277, 2458, 2459, 2278
2266, 2278, 2459, 2460, 2279
2267, 2279, 2460, 2461, 2280
2268, 2280, 2461, 2462, 2281
2269, 2281, 2462, 2463, 2282
2270, 2282, 2463, 2464, 2283
2271, 2283, 2464, 2465, 2284
2272, 2284, 2465, 2466, 2285
2273, 2285, 2466, 2467, 2286
2274, 2286, 2467, 2468, 2287
2275, 2287, 2468, 2469, 2288
2276, 2288, 2469, 2470, 2289
2277, 2289, 2470, 2471, 2290
2278, 2290, 2471, 2472, 2291
2279, 2291, 2472, 2473, 2292
2280, 2292, 2473, 2474, 2293
2281, 2293, 2474, 2475, 2294
2282, 2294, 2475, 2476, 2295
2283, 2295, 2476, 2477, 2296
2284, 2296, 2477, 2478, 2297
2285, 2297, 2478, 2479, 2298
2286, 2298, 2479, 2480, 2299
2287, 2299, 2480, 2481, 2300
2288, 2300, 2481, 2482, 2301
2289, 2301, 2482, 2483, 2302
2290, 2302, 2483, 2484, 2303
2291, 2303, 2484, 2485, 2304
2292, 2304, 2485, 2486, 2305
2293, 2305, 2486, 2487, 2306
2294, 2306, 2487, 2488, 2307
2295, 2307, 2488, 2489, 2308
2296, 2308, 2489, 2490, 2309
2297, 2309, 2490, 2491, 2310
2298, 2310, 2491, 2492, 2311
2299, 2311, 2492, 2493, 2312
2300, 2312, 2493, 2494, 2313
2301, 2313, 2494, 2495, 2314
2302, 2314, 2495, 2496, 2315
2303, 2315, 2496, 2497, 2316
2304, 2316, 2497, 2498, 2317
2305, 2317, 2498, 2499, 2318
2306, 2318, 2499, 2500, 2319
2307, 2319, 2500, 2501, 2320
2308, 2320, 2501, 2502, 2321
2309, 2321, 2502, 2503, 2322
2310, 2322, 2503, 2504, 2323
2311, 2323, 2504, 2505, 2324
2312, 2324, 2505, 2506, 2325
2313, 2325, 2506, 2507, 2326
2314, 2326, 2507, 2508, 2327
2315, 2327, 2508, 2509, 2328
2316, 2328, 2509, 2510, 2329
2317, 2329, 2510, 2511, 2330
2318, 2330, 2511, 2512, 2331
2319, 2331, 2512, 2513, 2332
2320, 2332, 2513, 2514, 2333
2321, 2333, 2514, 2515, 2334
2322, 2334, 2515, 2516, 2335
2323, 2335, 2516, 2517, 2336
2324, 2336, 2517, 2518, 2337
2325, 2337, 2518, 2519, 2338
2326, 2338, 2519, 2520, 2339
2327, 2339, 2520, 2521, 2340
2328, 2340, 2521, 2522, 2341
2329, 2341, 2522, 2523, 2342
2330, 2342, 2523, 2524, 2343
2331, 2343, 2524, 2525, 2344
2332, 2344, 2525, 2526, 2345
2333, 2345, 2526, 2527, 2346
2334, 2346, 2527, 2528, 2347
2335, 2347, 2528, 2529, 2348
2336, 2348, 2529, 2530, 2349
2337, 2349, 2530, 2531, 2350
2338, 2350, 2531, 2532, 2351
2339, 2351, 2532, 2533, 2352
2340, 2352, 2533, 2534, 2353
2341, 2355, 2536, 2535, 2354
2342, 2354, 2535, 2537, 2356
2343, 2356, 2537, 2538, 2357
2344, 2357, 2538, 2539, 2358
2345, 2358, 2539, 2540, 2359
2346, 2359, 2540, 2541, 2360
2347, 2360, 2541, 2542, 2361
2348, 2361, 2542, 2543, 2362
2349, 2362, 2543, 2544, 2363
2350, 2363, 2544, 2545, 2364
2351, 2364, 2545, 2546, 2365
2352, 2365, 2546, 2547, 2366
2353, 2366, 2547, 2548, 2367
2354, 2367, 2548, 2549, 2368
2355, 2368, 2549, 2550, 2369
2356, 2369, 2550, 2551, 2370
2357, 2370, 2551, 2552, 2371
2358, 2371, 2552, 2553, 2372
2359, 2372, 2553, 2554, 2373
2360, 2373, 2554, 2555, 2374
2361, 2374, 2555, 2556, 2375
2362, 2375, 2556, 2557, 2376
2363, 2376, 2557, 2558, 2377
2364, 2377, 2558, 2559, 2378
2365, 2378, 2559, 2560, 2379
2366, 2379, 2560, 2561, 2380
2367, 2380, 2561, 2562, 2381
2368, 2381, 2562, 2563, 2382
2369, 2382, 2563, 2564, 2383
2370, 2383, 2564, 2565, 2384
2371, 2384, 2565, 2566, 2385
2372, 2385, 2566, 2567, 2386
2373, 2386, 2567, 2568, 2387
2374, 2387, 2568, 2569, 2388
2375, 2388, 2569, 2570, 2389
2376, 2389, 2570, 2571, 2390
2377, 2390, 2571, 2572, 2391
2378, 2391, 2572, 2573, 2392
2379, 2392, 2573, 2574, 2393
2380, 2393, 2574, 2575, 2394
2381, 2394, 2575, 2576, 2395
2382, 2395, 2576, 2577, 2396
2383, 2396, 2577, 2578, 2397
2384, 2397, 2578, 2579, 2398
2385, 2398, 2579, 2580, 2399
2386, 2399, 2580, 2581, 2400
2387, 2400, 2581, 2582, 2401
2388, 2401, 2582, 2583, 2402
2389, 2402, 2583, 2584, 2403
2390, 2403, 2584, 2585, 2404
2391, 2404, 2585, 2586, 2405
2392, 2405, 2586, 2587, 2406
2393, 2406, 2587, 2588, 2407
2394, 2407, 2588, 2589, 2408
2395, 2408, 2589, 2590, 2409
2396, 2409, 2590, 2591, 2410
2397, 2410, 2591, 2592, 2411
2398, 2411, 2592, 2593, 2412
2399, 2412, 2593, 2594, 2413
2400, 2413, 2594, 2595, 2414
2401, 2414, 2595, 2596, 2415
2402, 2415, 2596, 2597, 2416
2403, 2416, 2597, 2598, 2417
2404, 2417, 2598, 2599, 2418
2405, 2418, 2599, 2600, 2419
2406, 2419, 2600, 2601, 2420
2407, 2420, 2601, 2602, 2421
2408, 2421, 2602, 2603, 2422
2409, 2422, 2603, 2604, 2423
2410, 2423, 2604, 2605, 2424
2411, 2424, 2605, 2606, 2425
2412, 2425, 2606, 2607, 2426
2413, 2426, 2607, 2608, 2427
2414, 2427, 2608, 2609, 2428
2415, 2428, 2609, 2610, 2429
2416, 2429, 2610, 2611, 2430
2417, 2430, 2611, 2612, 2431
2418, 2431, 2612, 2613, 2432
2419, 2432, 2613, 2614, 2433
2420, 2433, 2614, 2615, 2434
2421, 2434, 2615, 2616, 2435
2422, 2435, 2616, 2617, 2436
2423, 2436, 2617, 2618, 2437
2424, 2437, 2618, 2619, 2438
2425, 2438, 2619, 2620, 2439
2426, 2439, 2620, 2621, 2440
2427, 2440, 2621, 2622, 2441
2428, 2441, 2622, 2623, 2442
2429, 2442, 2623, 2624, 2443
2430, 2443, 2624, 2625, 2444
2431, 2444, 2625, 2626, 2445
2432, 2445, 2626, 2627, 2446
2433, 2446, 2627, 2628, 2447
2434, 2447, 2628, 2629, 2448
2435, 2448, 2629, 2630, 2449
2436, 2449, 2630, 2631, 2450
2437, 2450, 2631, 2632, 2451
2438, 2451, 2632, 2633, 2452
2439, 2452, 2633, 2634, 2453
2440, 2453, 2634, 2635, 2454
2441, 2454, 2635, 2636, 2455
2442, 2455, 2636, 2637, 2456
2443, 2456, 2637, 2638, 2457
2444, 2457, 2638, 2639, 2458
2445, 2458, 2639, 2640, 2459
2446, 2459, 2640, 2641, 2460
2447, 2460, 2641, 2642, 2461
2448, 2461, 2642, 2643, 2462
2449, 2462, 2643, 2644, 2463
2450, 2463, 2644, 2645, 2464
2451, 2464, 2645, 2646, 2465
2452, 2465, 2646, 2647, 2466
2453, 2466, 2647, 2648, 2467
2454, 2467, 2648, 2649, 2468
2455, 2468, 2649, 2650, 2469
2456, 2469, 2650, 2651, 2470
2457, 2470, 2651, 2652, 2471
2458, 2471, 2652, 2653, 2472
2459, 2472, 2653, 2654, 2473
2460, 2473, 2654, 2655, 2474
2461, 2474, 2655, 2656, 2475
2462, 2475, 2656, 2657, 2476
2463, 2476, 2657, 2658, 2477
2464, 2477, 2658, 2659, 2478
2465, 2478, 2659, 2660, 2479
2466, 2479, 2660, 2661, 2480
2467, 2480, 2661, 2662, 2481
2468, 2481, 2662, 2663, 2482
2469, 2482, 2663, 2664, 2483
2470, 2483, 2664, 2665, 2484
2471, 2484, 2665, 2666, 2485
2472, 2485, 2666, 2667, 2486
2473, 2486, 2667, 2668, 2487
2474, 2487, 2668, 2669, 2488
2475, 2488, 2669, 2670, 2489
2476, 2489, 2670, 2671, 2490
2477, 2490, 2671, 2672, 2491
2478, 2491, 2672, 2673, 2492
2479, 2492, 2673, 2674, 2493
2480, 2493, 2674, 2675, 2494
2481, 2494, 2675, 2676, 2495
2482, 2495, 2676, 2677, 2496
2483, 2496, 2677, 2678, 2497
2484, 2497, 2678, 2679, 2498
2485, 2498, 2679, 2680, 2499
2486, 2499, 2680, 2681, 2500
2487, 2500, 2681, 2682, 2501
2488, 2501, 2682, 2683, 2502
2489, 2502, 2683, 2684, 2503
2490, 2503, 2684, 2685, 2504
2491, 2504, 2685, 2686, 2505
2492, 2505, 2686, 2687, 2506
2493, 2506, 2687, 2688, 2507
2494, 2507, 2688, 2689, 2508
2495, 2508, 2689, 2690, 2509
2496, 2509, 2690, 2691, 2510
2497, 2510, 2691, 2692, 2511
2498, 2511, 2692, 2693, 2512
2499, 2512, 2693, 2694, 2513
2500, 2513, 2694, 2695, 2514
2501, 2514, 2695, 2696, 2515
2502, 2515, 2696, 2697, 2516
2503, 2516, 2697, 2698, 2517
2504, 2517, 2698, 2699, 2518
2505, 2518, 2699, 2700, 2519
2506, 2519, 2700, 2701, 2520
2507, 2520, 2701, 2702, 2521
2508, 2521, 2702, 2703, 2522
2509, 2522, 2703, 2704, 2523
2510, 2523, 2704, 2705, 2524
2511, 2524, 2705, 2706, 2525
2512, 2525, 2706, 2707, 2526
2513, 2526, 2707, 2708, 2527
2514, 2527, 2708, 2709, 2528
2515, 2528, 2709, 2710, 2529
2516, 2529, 2710, 2711, 2530
2517, 2530, 2711, 2712, 2531
2518, 2531, 2712, 2713, 2532
2519, 2532, 2713, 2714, 2533
2520, 2533, 2714, 2715, 2534
2521, 2536, 2717, 2716, 2535
2522, 2535, 2716, 2718, 2537
2523, 2537, 2718, 2719, 2538
2524, 2538, 2719, 2720, 2539
2525, 2539, 2720, 2721, 2540
2526, 2540, 2721, 2722, 2541
2527, 2541, 2722, 2723, 2542
2528, 2542, 2723, 2724, 2543
2529, 2543, 2724, 2725, 2544
2530, 2544, 2725, 2726, 2545
2531, 2545, 2726, 2727, 2546
2532, 2546, 2727, 2728, 2547
2533, 2547, 2728, 2729, 2548
2534, 2548, 2729, 2730, 2549
2535, 2549, 2730, 2731, 2550
2536, 2550, 2731, 2732, 2551
2537, 2551, 2732, 2733, 2552
2538, 2552, 2733, 2734, 2553
2539, 2553, 2734, 2735, 2554
2540, 2554, 2735, 2736, 2555
2541, 2555, 2736, 2737, 2556
2542, 2556, 2737, 2738, 2557
2543, 2557, 2738, 2739, 2558
2544, 2558, 2739, 2740, 2559
2545, 2559, 2740, 2741, 2560
2546, 2560, 2741, 2742, 2561
2547, 2561, 2742, 2743, 2562
2548, 2562, 2743, 2744, 2563
2549, 2563, 2744, 2745, 2564
2550, 2564, 2745, 2746, 2565
2551, 2565, 2746, 2747, 2566
2552, 2566, 2747, 2748, 2567
2553, 2567, 2748, 2749, 2568
2554, 2568, 2749, 2750, 2569
2555, 2569, 2750, 2751, 2570
2556, 2570, 2751, 2752, 2571
2557, 2571, 2752, 2753, 2572
2558, 2572, 2753, 2754, 2573
2559, 2573, 2754, 2755, 2574
2560, 2574, 2755, 2756, 2575
2561, 2575, 2756, 2757, 2576
2562, 2576, 2757, 2758, 2577
2563, 2577, 2758, 2759, 2578
2564, 2578, 2759, 2760, 2579
2565, 2579, 2760, 2761, 2580
2566, 2580, 2761, 2762, 2581
2567, 2581, 2762, 2763, 2582
2568, 2582, 2763, 2764, 2583
2569, 2583, 2764, 2765, 2584
2570, 2584, 2765, 2766, 2585
2571, 2585, 2766, 2767, 2586
2572, 2586, 2767, 2768, 2587
2573, 2587, 2768, 2769, 2588
2574, 2588, 2769, 2770, 2589
2575, 2589, 2770, 2771, 2590
2576, 2590, 2771, 2772, 2591
2577, 2591, 2772, 2773, 2592
2578, 2592, 2773, 2774, 2593
2579, 2593, 2774, 2775, 2594
2580, 2594, 2775, 2776, 2595
2581, 2595, 2776, 2777, 2596
2582, 2596, 2777, 2778, 2597
2583, 2597, 2778, 2779, 2598
2584, 2598, 2779, 2780, 2599
2585, 2599, 2780, 2781, 2600
2586, 2600, 2781, 2782, 2601
2587, 2601, 2782, 2783, 2602
2588, 2602, 2783, 2784, 2603
2589, 2603, 2784, 2785, 2604
2590, 2604, 2785, 2786, 2605
2591, 2605, 2786, 2787, 2606
2592, 2606, 2787, 2788, 2607
2593, 2607, 2788, 2789, 2608
2594, 2608, 2789, 2790, 2609
2595, 2609, 2790, 2791, 2610
2596, 2610, 2791, 2792, 2611
2597, 2611, 2792, 2793, 2612
2598, 2612, 2793, 2794, 2613
2599, 2613, 2794, 2795, 2614
2600, 2614, 2795, 2796, 2615
2601, 2615, 2796, 2797, 2616
2602, 2616, 2797, 2798, 2617
2603, 2617, 2798, 2799, 2618
2604, 2618, 2799, 2800, 2619
2605, 2619, 2800, 2801, 2620
2606, 2620, 2801, 2802, 2621
2607, 2621, 2802, 2803, 2622
2608, 2622, 2803, 2804, 2623
2609, 2623, 2804, 2805, 2624
2610, 2624, 2805, 2806, 2625
2611, 2625, 2806, 2807, 2626
2612, 2626, 2807, 2808, 2627
2613, 2627, 2808, 2809, 2628
2614, 2628, 2809, 2810, 2629
2615, 2629, 2810, 2811, 2630
2616, 2630, 2811, 2812, 2631
2617, 2631, 2812, 2813, 2632
2618, 2632, 2813, 2814, 2633
2619, 2633, 2814, 2815, 2634
2620, 2634, 2815, 2816, 2635
2621, 2635, 2816, 2817, 2636
2622, 2636, 2817, 2818, 2637
2623, 2637, 2818, 2819, 2638
2624, 2638, 2819, 2820, 2639
2625, 2639, 2820, 2821, 2640
2626, 2640, 2821, 2822, 2641
2627, 2641, 2822, 2823, 2642
2628, 2642, 2823, 2824, 2643
2629, 2643, 2824, 2825, 2644
2630, 2644, 2825, 2826, 2645
2631, 2645, 2826, 2827, 2646
2632, 2646, 2827, 2828, 2647
2633, 2647, 2828, 2829, 2648
2634, 2648, 2829, 2830, 2649
2635, 2649, 2830, 2831, 2650
2636, 2650, 2831, 2832, 2651
2637, 2651, 2832, 2833, 2652
2638, 2652, 2833, 2834, 2653
2639, 2653, 2834, 2835, 2654
2640, 2654, 2835, 2836, 2655
2641, 2655, 2836, 2837, 2656
2642, 2656, 2837, 2838, 2657
2643, 2657, 2838, 2839, 2658
2644, 2658, 2839, 2840, 2659
2645, 2659, 2840, 2841, 2660
2646, 2660, 2841, 2842, 2661
2647, 2661, 2842, 2843, 2662
2648, 2662, 2843, 2844, 2663
2649, 2663, 2844, 2845, 2664
2650, 2664, 2845, 2846, 2665
2651, 2665, 2846, 2847, 2666
2652, 2666, 2847, 2848, 2667
2653, 2667, 2848, 2849, 2668
2654, 2668, 2849, 2850, 2669
2655, 2669, 2850, 2851, 2670
2656, 2670, 2851, 2852, 2671
2657, 2671, 2852, 2853, 2672
2658, 2672, 2853, 2854, 2673
2659, 2673, 2854, 2855, 2674
2660, 2674, 2855, 2856, 2675
2661, 2675, 2856, 2857, 2676
2662, 2676, 2857, 2858, 2677
2663, 2677, 2858, 2859, 2678
2664, 2678, 2859, 2860, 2679
2665, 2679, 2860, 2861, 2680
2666, 2680, 2861, 2862, 2681
2667, 2681, 2862, 2863, 2682
2668, 2682, 2863, 2864, 2683
2669, 2683, 2864, 2865, 2684
2670, 2684, 2865, 2866, 2685
2671, 2685, 2866, 2867, 2686
2672, 2686, 2867, 2868, 2687
2673, 2687, 2868, 2869, 2688
2674, 2688, 2869, 2870, 2689
2675, 2689, 2870, 2871, 2690
2676, 2690, 2871, 2872, 2691
2677, 2691, 2872, 2873, 2692
2678, 2692, 2873, 2874, 2693
2679, 2693, 2874, 2875, 2694
2680, 2694, 2875, 2876, 2695
2681, 2695, 2876, 2877, 2696
2682, 2696, 2877, 2878, 2697
2683, 2697, 2878, 2879, 2698
2684, 2698, 2879, 2880, 2699
2685, 2699, 2880, 2881, 2700
2686, 2700, 2881, 2882, 2701
2687, 2701, 2882, 2883, 2702
2688, 2702, 2883, 2884, 2703
2689, 2703, 2884, 2885, 2704
2690, 2704, 2885, 2886, 2705
2691, 2705, 2886, 2887, 2706
2692, 2706, 2887, 2888, 2707
2693, 2707, 2888, 2889, 2708
2694, 2708, 2889, 2890, 2709
2695, 2709, 2890, 2891, 2710
2696, 2710, 2891, 2892, 2711
2697, 2711, 2892, 2893, 2712
2698, 2712, 2893, 2894, 2713
2699, 2713, 2894, 2895, 2714
2700, 2714, 2895, 2896, 2715
2701, 2897, 2900, 2899, 2898
2702, 2898, 2899, 2902, 2901
2703, 2901, 2902,    4,    1
2704,  361,  362, 2904, 2903
2705, 2903, 2904, 2906, 2905
2706, 2905, 2906, 2908, 2907
2707, 2900, 2910, 2909, 2899
2708, 2899, 2909, 2911, 2902
2709, 2902, 2911,  364,    4
2710,  362,  543, 2912, 2904
2711, 2904, 2912, 2913, 2906
2712, 2906, 2913, 2914, 2908
2713, 2910, 2916, 2915, 2909
2714, 2909, 2915, 2917, 2911
2715, 2911, 2917,  545,  364
2716,  543,  724, 2918, 2912
2717, 2912, 2918, 2919, 2913
2718, 2913, 2919, 2920, 2914
2719, 2916, 2922, 2921, 2915
2720, 2915, 2921, 2923, 2917
2721, 2917, 2923,  726,  545
2722,  724,  905, 2924, 2918
2723, 2918, 2924, 2925, 2919
2724, 2919, 2925, 2926, 2920
2725, 2922, 2928, 2927, 2921
2726, 2921, 2927, 2929, 2923
2727, 2923, 2929,  907,  726
2728,  905, 1086, 2930, 2924
2729, 2924, 2930, 2931, 2925
2730, 2925, 2931, 2932, 2926
2731, 2928, 2934, 2933, 2927
2732, 2927, 2933, 2935, 2929
2733, 2929, 2935, 1088,  907
2734, 1086, 1267, 2936, 2930
2735, 2930, 2936, 2937, 2931
2736, 2931, 2937, 2938, 2932
2737, 2934, 2940, 2939, 2933
2738, 2933, 2939, 2941, 2935
2739, 2935, 2941, 1269, 1088
2740, 1267, 1448, 2942, 2936
2741, 2936, 2942, 2943, 2937
2742, 2937, 2943, 2944, 2938
2743, 2940, 2946, 2945, 2939
2744, 2939, 2945, 2947, 2941
2745, 2941, 2947, 1450, 1269
2746, 1448, 1629, 2948, 2942
2747, 2942, 2948, 2949, 2943
2748, 2943, 2949, 2950, 2944
2749, 2946, 2952, 2951, 2945
2750, 2945, 2951, 2953, 2947
2751, 2947, 2953, 1631, 1450
2752, 1629, 1810, 2954, 2948
2753, 2948, 2954, 2955, 2949
2754, 2949, 2955, 2956, 2950
2755, 2952, 2958, 2957, 2951
2756, 2951, 2957, 2959, 2953
2757, 2953, 2959, 1812, 1631
2758, 1810, 1991, 2960, 2954
2759, 2954, 2960, 2961, 2955
2760, 2955, 2961, 2962, 2956
2761, 2958, 2964, 2963, 2957
2762, 2957, 2963, 2965, 2959
2763, 2959, 2965, 1993, 1812
2764, 1991, 2172, 2966, 2960
2765, 2960, 2966, 2967, 2961
2766, 2961, 2967, 2968, 2962
2767, 2964, 2970, 2969, 2963
2768, 2963, 2969, 2971, 2965
2769, 2965, 2971, 2174, 1993
2770, 2172, 2353, 2972, 2966
2771, 2966, 2972, 2973, 2967
2772, 2967, 2973, 2974, 2968
2773, 2970, 2976, 2975, 2969
2774, 2969, 2975, 2977, 2971
2775, 2971, 2977, 2355, 2174
2776, 2353, 2534, 2978, 2972
2777, 2972, 2978, 2979, 2973
2778, 2973, 2979, 2980, 2974
2779, 2976, 2982, 2981, 2975
2780, 2975, 2981, 2983, 2977
2781, 2977, 2983, 2536, 2355
2782, 2534, 2715, 2984, 2978
2783, 2978, 2984, 2985, 2979
2784, 2979, 2985, 2986, 2980
2785, 2982, 2988, 2987, 2981
2786, 2981, 2987, 2989, 2983
2787, 2983, 2989, 2717, 2536
2788, 2715, 2896, 2990, 2984
2789, 2984, 2990, 2991, 2985
2790, 2985, 2991, 2992, 2986
2791, 2988, 2994, 2993, 2987
2792, 2987, 2993, 2995, 2989
2793, 2989, 2995, 2996, 2717
2794, 2717, 2996, 2997, 2716
2795, 2716, 2997, 2998, 2718
2796, 2718, 2998, 2999, 2719
2797, 2719, 2999, 3000, 2720
2798, 2720, 3000, 3001, 2721
2799, 2721, 3001, 3002, 2722
2800, 2722, 3002, 3003, 2723
2801, 2723, 3003, 3004, 2724
2802, 2724, 3004, 3005, 2725
2803, 2725, 3005, 3006, 2726
2804, 2726, 3006, 3007, 2727
2805, 2727, 3007, 3008, 2728
2806, 2728, 3008, 3009, 2729
2807, 2729, 3009, 3010, 2730
2808, 2730, 3010, 3011, 2731
2809, 2731, 3011, 3012, 2732
2810, 2732, 3012, 3013, 2733
2811, 2733, 3013, 3014, 2734
2812, 2734, 3014, 3015, 2735
2813, 2735, 3015, 3016, 2736
2814, 2736, 3016, 3017, 2737
2815, 2737, 3017, 3018, 2738
2816, 2738, 3018, 3019, 2739
2817, 2739, 3019, 3020, 2740
2818, 2740, 3020, 3021, 2741
2819, 2741, 3021, 3022, 2742
2820, 2742, 3022, 3023, 2743
2821, 2743, 3023, 3024, 2744
2822, 2744, 3024, 3025, 2745
2823, 2745, 3025, 3026, 2746
2824, 2746, 3026, 3027, 2747
2825, 2747, 3027, 3028, 2748
2826, 2748, 3028, 3029, 2749
2827, 2749, 3029, 3030, 2750
2828, 2750, 3030, 3031, 2751
2829, 2751, 3031, 3032, 2752
2830, 2752, 3032, 3033, 2753
2831, 2753, 3033, 3034, 2754
2832, 2754, 3034, 3035, 2755
2833, 2755, 3035, 3036, 2756
2834, 2756, 3036, 3037, 2757
2835, 2757, 3037, 3038, 2758
2836, 2758, 3038, 3039, 2759
2837, 2759, 3039, 3040, 2760
2838, 2760, 3040, 3041, 2761
2839, 2761, 3041, 3042, 2762
2840, 2762, 3042, 3043, 2763
2841, 2763, 3043, 3044, 2764
2842, 2764, 3044, 3045, 2765
2843, 2765, 3045, 3046, 2766
2844, 2766, 3046, 3047, 2767
2845, 2767, 3047, 3048, 2768
2846, 2768, 3048, 3049, 2769
2847, 2769, 3049, 3050, 2770
2848, 2770, 3050, 3051, 2771
2849, 2771, 3051, 3052, 2772
2850, 2772, 3052, 3053, 2773
2851, 2773, 3053, 3054, 2774
2852, 2774, 3054, 3055, 2775
2853, 2775, 3055, 3056, 2776
2854, 2776, 3056, 3057, 2777
2855, 2777, 3057, 3058, 2778
2856, 2778, 3058, 3059, 2779
2857, 2779, 3059, 3060, 2780
2858, 2780, 3060, 3061, 2781
2859, 2781, 3061, 3062, 2782
2860, 2782, 3062, 3063, 2783
2861, 2783, 3063, 3064, 2784
2862, 2784, 3064, 3065, 2785
2863, 2785, 3065, 3066, 2786
2864, 2786, 3066, 3067, 2787
2865, 2787, 3067, 3068, 2788
2866, 2788, 3068, 3069, 2789
2867, 2789, 3069, 3070, 2790
2868, 2790, 3070, 3071, 2791
2869, 2791, 3071, 3072, 2792
2870, 2792, 3072, 3073, 2793
2871, 2793, 3073, 3074, 2794
2872, 2794, 3074, 3075, 2795
2873, 2795, 3075, 3076, 2796
2874, 2796, 3076, 3077, 2797
2875, 2797, 3077, 3078, 2798
2876, 2798, 3078, 3079, 2799
2877, 2799, 3079, 3080, 2800
2878, 2800, 3080, 3081, 2801
2879, 2801, 3081, 3082, 2802
2880, 2802, 3082, 3083, 2803
2881, 2803, 3083, 3084, 2804
2882, 2804, 3084, 3085, 2805
2883, 2805, 3085, 3086, 2806
2884, 2806, 3086, 3087, 2807
2885, 2807, 3087, 3088, 2808
2886, 2808, 3088, 3089, 2809
2887, 2809, 3089, 3090, 2810
2888, 2810, 3090, 3091, 2811
2889, 2811, 3091, 3092, 2812
2890, 2812, 3092, 3093, 2813
2891, 2813, 3093, 3094, 2814
2892, 2814, 3094, 3095, 2815
2893, 2815, 3095, 3096, 2816
2894, 2816, 3096, 3097, 2817
2895, 2817, 3097, 3098, 2818
2896, 2818, 3098, 3099, 2819
2897, 2819, 3099, 3100, 2820
2898, 2820, 3100, 3101, 2821
2899, 2821, 3101, 3102, 2822
2900, 2822, 3102, 3103, 2823
2901, 2823, 3103, 3104, 2824
2902, 2824, 3104, 3105, 2825
2903, 2825, 3105, 3106, 2826
2904, 2826, 3106, 3107, 2827
2905, 2827, 3107, 3108, 2828
2906, 2828, 3108, 3109, 2829
2907, 2829, 3109, 3110, 2830
2908, 2830, 3110, 3111, 2831
2909, 2831, 3111, 3112, 2832
2910, 2832, 3112, 3113, 2833
2911, 2833, 3113, 3114, 2834
2912, 2834, 3114, 3115, 2835
2913, 2835, 3115, 3116, 2836
2914, 2836, 3116, 3117, 2837
2915, 2837, 3117, 3118, 2838
2916, 2838, 3118, 3119, 2839
2917, 2839, 3119, 3120, 2840
2918, 2840, 3120, 3121, 2841
2919, 2841, 3121, 3122, 2842
2920, 2842, 3122, 3123, 2843
2921, 2843, 3123, 3124, 2844
2922, 2844, 3124, 3125, 2845
2923, 2845, 3125, 3126, 2846
2924, 2846, 3126, 3127, 2847
2925, 2847, 3127, 3128, 2848
2926, 2848, 3128, 3129, 2849
2927, 2849, 3129, 3130, 2850
2928, 2850, 3130, 3131, 2851
2929, 2851, 3131, 3132, 2852
2930, 2852, 3132, 3133, 2853
2931, 2853, 3133, 3134, 2854
2932, 2854, 3134, 3135, 2855
2933, 2855, 3135, 3136, 2856
2934, 2856, 3136, 3137, 2857
2935, 2857, 3137, 3138, 2858
2936, 2858, 3138, 3139, 2859
2937, 2859, 3139, 3140, 2860
2938, 2860, 3140, 3141, 2861
2939, 2861, 3141, 3142, 2862
2940, 2862, 3142, 3143, 2863
2941, 2863, 3143, 3144, 2864
2942, 2864, 3144, 3145, 2865
2943, 2865, 3145, 3146, 2866
2944, 2866, 3146, 3147, 2867
2945, 2867, 3147, 3148, 2868
2946, 2868, 3148, 3149, 2869
2947, 2869, 3149, 3150, 2870
2948, 2870, 3150, 3151, 2871
2949, 2871, 3151, 3152, 2872
2950, 2872, 3152, 3153, 2873
2951, 2873, 3153, 3154, 2874
2952, 2874, 3154, 3155, 2875
2953, 2875, 3155, 3156, 2876
2954, 2876, 3156, 3157, 2877
2955, 2877, 3157, 3158, 2878
2956, 2878, 3158, 3159, 2879
2957, 2879, 3159, 3160, 2880
2958, 2880, 3160, 3161, 2881
2959, 2881, 3161, 3162, 2882
2960, 2882, 3162, 3163, 2883
2961, 2883, 3163, 3164, 2884
2962, 2884, 3164, 3165, 2885
2963, 2885, 3165, 3166, 2886
2964, 2886, 3166, 3167, 2887
2965, 2887, 3167, 3168, 2888
2966, 2888, 3168, 3169, 2889
2967, 2889, 3169, 3170, 2890
2968, 2890, 3170, 3171, 2891
2969, 2891, 3171, 3172, 2892
2970, 2892, 3172, 3173, 2893
2971, 2893, 3173, 3174, 2894
2972, 2894, 3174, 3175, 2895
2973, 2895, 3175, 3176, 2896
2974, 2896, 3176, 3177, 2990
2975, 2990, 3177, 3178, 2991
2976, 2991, 3178, 3179, 2992
2977, 2994, 3181, 3180, 2993
2978, 2993, 3180, 3182, 2995
2979, 2995, 3182, 3183, 2996
2980, 2996, 3183, 3184, 2997
2981, 2997, 3184, 3185, 2998
2982, 2998, 3185, 3186, 2999
2983, 2999, 3186, 3187, 3000
2984, 3000, 3187, 3188, 3001
2985, 3001, 3188, 3189, 3002
2986, 3002, 3189, 3190, 3003
2987, 3003, 3190, 3191, 3004
2988, 3004, 3191, 3192, 3005
2989, 3005, 3192, 3193, 3006
2990, 3006, 3193, 3194, 3007
2991, 3007, 3194, 3195, 3008
2992, 3008, 3195, 3196, 3009
2993, 3009, 3196, 3197, 3010
2994, 3010, 3197, 3198, 3011
2995, 3011, 3198, 3199, 3012
2996, 3012, 3199, 3200, 3013
2997, 3013, 3200, 3201, 3014
2998, 3014, 3201, 3202, 3015
2999, 3015, 3202, 3203, 3016
3000, 3016, 3203, 3204, 3017
3001, 3017, 3204, 3205, 3018
3002, 3018, 3205, 3206, 3019
3003, 3019, 3206, 3207, 3020
3004, 3020, 3207, 3208, 3021
3005, 3021, 3208, 3209, 3022
3006, 3022, 3209, 3210, 3023
3007, 3023, 3210, 3211, 3024
3008, 3024, 3211, 3212, 3025
3009, 3025, 3212, 3213, 3026
3010, 3026, 3213, 3214, 3027
3011, 3027, 3214, 3215, 3028
3012, 3028, 3215, 3216, 3029
3013, 3029, 3216, 3217, 3030
3014, 3030, 3217, 3218, 3031
3015, 3031, 3218, 3219, 3032
3016, 3032, 3219, 3220, 3033
3017, 3033, 3220, 3221, 3034
3018, 3034, 3221, 3222, 3035
3019, 3035, 3222, 3223, 3036
3020, 3036, 3223, 3224, 3037
3021, 3037, 3224, 3225, 3038
3022, 3038, 3225, 3226, 3039
3023, 3039, 3226, 3227, 3040
3024, 3040, 3227, 3228, 3041
3025, 3041, 3228, 3229, 3042
3026, 3042, 3229, 3230, 3043
3027, 3043, 3230, 3231, 3044
3028, 3044, 3231, 3232, 3045
3029, 3045, 3232, 3233, 3046
3030, 3046, 3233, 3234, 3047
3031, 3047, 3234, 3235, 3048
3032, 3048, 3235, 3236, 3049
3033, 3049, 3236, 3237, 3050
3034, 3050, 3237, 3238, 3051
3035, 3051, 3238, 3239, 3052
3036, 3052, 3239, 3240, 3053
3037, 3053, 3240, 3241, 3054
3038, 3054, 3241, 3242, 3055
3039, 3055, 3242, 3243, 3056
3040, 3056, 3243, 3244, 3057
3041, 3057, 3244, 3245, 3058
3042, 3058, 3245, 3246, 3059
3043, 3059, 3246, 3247, 3060
3044, 3060, 3247, 3248, 3061
3045, 3061, 3248, 3249, 3062
3046, 3062, 3249, 3250, 3063
3047, 3063, 3250, 3251, 3064
3048, 3064, 3251, 3252, 3065
3049, 3065, 3252, 3253, 3066
3050, 3066, 3253, 3254, 3067
3051, 3067, 3254, 3255, 3068
3052, 3068, 3255, 3256, 3069
3053, 3069, 3256, 3257, 3070
3054, 3070, 3257, 3258, 3071
3055, 3071, 3258, 3259, 3072
3056, 3072, 3259, 3260, 3073
3057, 3073, 3260, 3261, 3074
3058, 3074, 3261, 3262, 3075
3059, 3075, 3262, 3263, 3076
3060, 3076, 3263, 3264, 3077
3061, 3077, 3264, 3265, 3078
3062, 3078, 3265, 3266, 3079
3063, 3079, 3266, 3267, 3080
3064, 3080, 3267, 3268, 3081
3065, 3081, 3268, 3269, 3082
3066, 3082, 3269, 3270, 3083
3067, 3083, 3270, 3271, 3084
3068, 3084, 3271, 3272, 3085
3069, 3085, 3272, 3273, 3086
3070, 3086, 3273, 3274, 3087
3071, 3087, 3274, 3275, 3088
3072, 3088, 3275, 3276, 3089
3073, 3089, 3276, 3277, 3090
3074, 3090, 3277, 3278, 3091
3075, 3091, 3278, 3279, 3092
3076, 3092, 3279, 3280, 3093
3077, 3093, 3280, 3281, 3094
3078, 3094, 3281, 3282, 3095
3079, 3095, 3282, 3283, 3096
3080, 3096, 3283, 3284, 3097
3081, 3097, 3284, 3285, 3098
3082, 3098, 3285, 3286, 3099
3083, 3099, 3286, 3287, 3100
3084, 3100, 3287, 3288, 3101
3085, 3101, 3288, 3289, 3102
3086, 3102, 3289, 3290, 3103
3087, 3103, 3290, 3291, 3104
3088, 3104, 3291, 3292, 3105
3089, 3105, 3292, 3293, 3106
3090, 3106, 3293, 3294, 3107
3091, 3107, 3294, 3295, 3108
3092, 3108, 3295, 3296, 3109
3093, 3109, 3296, 3297, 3110
3094, 3110, 3297, 3298, 3111
3095, 3111, 3298, 3299, 3112
3096, 3112, 3299, 3300, 3113
3097, 3113, 3300, 3301, 3114
3098, 3114, 3301, 3302, 3115
3099, 3115, 3302, 3303, 3116
3100, 3116, 3303, 3304, 3117
3101, 3117, 3304, 3305, 3118
3102, 3118, 3305, 3306, 3119
3103, 3119, 3306, 3307, 3120
3104, 3120, 3307, 3308, 3121
3105, 3121, 3308, 3309, 3122
3106, 3122, 3309, 3310, 3123
3107, 3123, 3310, 3311, 3124
3108, 3124, 3311, 3312, 3125
3109, 3125, 3312, 3313, 3126
3110, 3126, 3313, 3314, 3127
3111, 3127, 3314, 3315, 3128
3112, 3128, 3315, 3316, 3129
3113, 3129, 3316, 3317, 3130
3114, 3130, 3317, 3318, 3131
3115, 3131, 3318, 3319, 3132
3116, 3132, 3319, 3320, 3133
3117, 3133, 3320, 3321, 3134
3118, 3134, 3321, 3322, 3135
3119, 3135, 3322, 3323, 3136
3120, 3136, 3323, 3324, 3137
3121, 3137, 3324, 3325, 3138
3122, 3138, 3325, 3326, 3139
3123, 3139, 3326, 3327, 3140
3124, 3140, 3327, 3328, 3141
3125, 3141, 3328, 3329, 3142
3126, 3142, 3329, 3330, 3143
3127, 3143, 3330, 3331, 3144
3128, 3144, 3331, 3332, 3145
3129, 3145, 3332, 3333, 3146
3130, 3146, 3333, 3334, 3147
3131, 3147, 3334, 3335, 3148
3132, 3148, 3335, 3336, 3149
3133, 3149, 3336, 3337, 3150
3134, 3150, 3337, 3338, 3151
3135, 3151, 3338, 3339, 3152
3136, 3152, 3339, 3340, 3153
3137, 3153, 3340, 3341, 3154
3138, 3154, 3341, 3342, 3155
3139, 3155, 3342, 3343, 3156
3140, 3156, 3343, 3344, 3157
3141, 3157, 3344, 3345, 3158
3142, 3158, 3345, 3346, 3159
3143, 3159, 3346, 3347, 3160
3144, 3160, 3347, 3348, 3161
3145, 3161, 3348, 3349, 3162
3146, 3162, 3349, 3350, 3163
3147, 3163, 3350, 3351, 3164
3148, 3164, 3351, 3352, 3165
3149, 3165, 3352, 3353, 3166
3150, 3166, 3353, 3354, 3167
3151, 3167, 3354, 3355, 3168
3152, 3168, 3355, 3356, 3169
3153, 3169, 3356, 3357, 3170
3154, 3170, 3357, 3358, 3171
3155, 3171, 3358, 3359, 3172
3156, 3172, 3359, 3360, 3173
3157, 3173, 3360, 3361, 3174
3158, 3174, 3361, 3362, 3175
3159, 3175, 3362, 3363, 3176
3160, 3176, 3363, 3364, 3177
3161, 3177, 3364, 3365, 3178
3162, 3178, 3365, 3366, 3179
3163, 3181, 3368, 3367, 3180
3164, 3180, 3367, 3369, 3182
3165, 3182, 3369, 3370, 3183
3166, 3183, 3370, 3371, 3184
3167, 3184, 3371, 3372, 3185
3168, 3185, 3372, 3373, 3186
3169, 3186, 3373, 3374, 3187
3170, 3187, 3374, 3375, 3188
3171, 3188, 3375, 3376, 3189
3172, 3189, 3376, 3377, 3190
3173, 3190, 3377, 3378, 3191
3174, 3191, 3378, 3379, 3192
3175, 3192, 3379, 3380, 3193
3176, 3193, 3380, 3381, 3194
3177, 3194, 3381, 3382, 3195
3178, 3195, 3382, 3383, 3196
3179, 3196, 3383, 3384, 3197
3180, 3197, 3384, 3385, 3198
3181, 3198, 3385, 3386, 3199
3182, 3199, 3386, 3387, 3200
3183, 3200, 3387, 3388, 3201
3184, 3201, 3388, 3389, 3202
3185, 3202, 3389, 3390, 3203
3186, 3203, 3390, 3391, 3204
3187, 3204, 3391, 3392, 3205
3188, 3205, 3392, 3393, 3206
3189, 3206, 3393, 3394, 3207
3190, 3207, 3394, 3395, 3208
3191, 3208, 3395, 3396, 3209
3192, 3209, 3396, 3397, 3210
3193, 3210, 3397, 3398, 3211
3194, 3211, 3398, 3399, 3212
3195, 3212, 3399, 3400, 3213
3196, 3213, 3400, 3401, 3214
3197, 3214, 3401, 3402, 3215
3198, 3215, 3402, 3403, 3216
3199, 3216, 3403, 3404, 3217
3200, 3217, 3404, 3405, 3218
3201, 3218, 3405, 3406, 3219
3202, 3219, 3406, 3407, 3220
3203, 3220, 3407, 3408, 3221
3204, 3221, 3408, 3409, 3222
3205, 3222, 3409, 3410, 3223
3206, 3223, 3410, 3411, 3224
3207, 3224, 3411, 3412, 3225
3208, 3225, 3412, 3413, 3226
3209, 3226, 3413, 3414, 3227
3210, 3227, 3414, 3415, 3228
3211, 3228, 3415, 3416, 3229
3212, 3229, 3416, 3417, 3230
3213, 3230, 3417, 3418, 3231
3214, 3231, 3418, 3419, 3232
3215, 3232, 3419, 3420, 3233
3216, 3233, 3420, 3421, 3234
3217, 3234, 3421, 3422, 3235
3218, 3235, 3422, 3423, 3236
3219, 3236, 3423, 3424, 3237
3220, 3237, 3424, 3425, 3238
3221, 3238, 3425, 3426, 3239
3222, 3239, 3426, 3427, 3240
3223, 3240, 3427, 3428, 3241
3224, 3241, 3428, 3429, 3242
3225, 3242, 3429, 3430, 3243
3226, 3243, 3430, 3431, 3244
3227, 3244, 3431, 3432, 3245
3228, 3245, 3432, 3433, 3246
3229, 3246, 3433, 3434, 3247
3230, 3247, 3434, 3435, 3248
3231, 3248, 3435, 3436, 3249
3232, 3249, 3436, 3437, 3250
3233, 3250, 3437, 3438, 3251
3234, 3251, 3438, 3439, 3252
3235, 3252, 3439, 3440, 3253
3236, 3253, 3440, 3441, 3254
3237, 3254, 3441, 3442, 3255
3238, 3255, 3442, 3443, 3256
3239, 3256, 3443, 3444, 3257
3240, 3257, 3444, 3445, 3258
3241, 3258, 3445, 3446, 3259
3242, 3259, 3446, 3447, 3260
3243, 3260, 3447, 3448, 3261
3244, 3261, 3448, 3449, 3262
3245, 3262, 3449, 3450, 3263
3246, 3263, 3450, 3451, 3264
3247, 3264, 3451, 3452, 3265
3248, 3265, 3452, 3453, 3266
3249, 3266, 3453, 3454, 3267
3250, 3267, 3454, 3455, 3268
3251, 3268, 3455, 3456, 3269
3252, 3269, 3456, 3457, 3270
3253, 3270, 3457, 3458, 3271
3254, 3271, 3458, 3459, 3272
3255, 3272, 3459, 3460, 3273
3256, 3273, 3460, 3461, 3274
3257, 3274, 3461, 3462, 3275
3258, 3275, 3462, 3463, 3276
3259, 3276, 3463, 3464, 3277
3260, 3277, 3464, 3465, 3278
3261, 3278, 3465, 3466, 3279
3262, 3279, 3466, 3467, 3280
3263, 3280, 3467, 3468, 3281
3264, 3281, 3468, 3469, 3282
3265, 3282, 3469, 3470, 3283
3266, 3283, 3470, 3471, 3284
3267, 3284, 3471, 3472, 3285
3268, 3285, 3472, 3473, 3286
3269, 3286, 3473, 3474, 3287
3270, 3287, 3474, 3475, 3288
3271, 3288, 3475, 3476, 3289
3272, 3289, 3476, 3477, 3290
3273, 3290, 3477, 3478, 3291
3274, 3291, 3478, 3479, 3292
3275, 3292, 3479, 3480, 3293
3276, 3293, 3480, 3481, 3294
3277, 3294, 3481, 3482, 3295
3278, 3295, 3482, 3483, 3296
3279, 3296, 3483, 3484, 3297
3280, 3297, 3484, 3485, 3298
3281, 3298, 3485, 3486, 3299
3282, 3299, 3486, 3487, 3300
3283, 3300, 3487, 3488, 3301
3284, 3301, 3488, 3489, 3302
3285, 3302, 3489, 3490, 3303
3286, 3303, 3490, 3491, 3304
3287, 3304, 3491, 3492, 3305
3288, 3305, 3492, 3493, 3306
3289, 3306, 3493, 3494, 3307
3290, 3307, 3494, 3495, 3308
3291, 3308, 3495, 3496, 3309
3292, 3309, 3496, 3497, 3310
3293, 3310, 3497, 3498, 3311
3294, 3311, 3498, 3499, 3312
3295, 3312, 3499, 3500, 3313
3296, 3313, 3500, 3501, 3314
3297, 3314, 3501, 3502, 3315
3298, 3315, 3502, 3503, 3316
3299, 3316, 3503, 3504, 3317
3300, 3317, 3504, 3505, 3318
3301, 3318, 3505, 3506, 3319
3302, 3319, 3506, 3507, 3320
3303, 3320, 3507, 3508, 3321
3304, 3321, 3508, 3509, 3322
3305, 3322, 3509, 3510, 3323
3306, 3323, 3510, 3511, 3324
3307, 3324, 3511, 3512, 3325
3308, 3325, 3512, 3513, 3326
3309, 3326, 3513, 3514, 3327
3310, 3327, 3514, 3515, 3328
3311, 3328, 3515, 3516, 3329
3312, 3329, 3516, 3517, 3330
3313, 3330, 3517, 3518, 3331
3314, 3331, 3518, 3519, 3332
3315, 3332, 3519, 3520, 3333
3316, 3333, 3520, 3521, 3334
3317, 3334, 3521, 3522, 3335
3318, 3335, 3522, 3523, 3336
3319, 3336, 3523, 3524, 3337
3320, 3337, 3524, 3525, 3338
3321, 3338, 3525, 3526, 3339
3322, 3339, 3526, 3527, 3340
3323, 3340, 3527, 3528, 3341
3324, 3341, 3528, 3529, 3342
3325, 3342, 3529, 3530, 3343
3326, 3343, 3530, 3531, 3344
3327, 3344, 3531, 3532, 3345
3328, 3345, 3532, 3533, 3346
3329, 3346, 3533, 3534, 3347
3330, 3347, 3534, 3535, 3348
3331, 3348, 3535, 3536, 3349
3332, 3349, 3536, 3537, 3350
3333, 3350, 3537, 3538, 3351
3334, 3351, 3538, 3539, 3352
3335, 3352, 3539, 3540, 3353
3336, 3353, 3540, 3541, 3354
3337, 3354, 3541, 3542, 3355
3338, 3355, 3542, 3543, 3356
3339, 3356, 3543, 3544, 3357
3340, 3357, 3544, 3545, 3358
3341, 3358, 3545, 3546, 3359
3342, 3359, 3546, 3547, 3360
3343, 3360, 3547, 3548, 3361
3344, 3361, 3548, 3549, 3362
3345, 3362, 3549, 3550, 3363
3346, 3363, 3550, 3551, 3364
3347, 3364, 3551, 3552, 3365
3348, 3365, 3552, 3553, 3366
3349, 3368, 3555, 3554, 3367
3350, 3367, 3554, 3556, 3369
3351, 3369, 3556, 3557, 3370
3352, 3554, 3555, 3557, 3556
3353, 3370, 3557, 3558, 3371
3354, 3371, 3558, 3559, 3372
3355, 3372, 3559, 3560, 3373
3356, 3558, 3557, 3560, 3559
3357, 3373, 3560, 3561, 3374
3358, 3374, 3561, 3562, 3375
3359, 3375, 3562, 3563, 3376
3360, 3561, 3560, 3563, 3562
3361, 3376, 3563, 3564, 3377
3362, 3377, 3564, 3565, 3378
3363, 3378, 3565, 3566, 3379
3364, 3564, 3563, 3566, 3565
3365, 3379, 3566, 3567, 3380
3366, 3380, 3567, 3568, 3381
3367, 3381, 3568, 3569, 3382
3368, 3567, 3566, 3569, 3568
3369, 3382, 3569, 3570, 3383
3370, 3383, 3570, 3571, 3384
3371, 3384, 3571, 3572, 3385
3372, 3570, 3569, 3572, 3571
3373, 3385, 3572, 3573, 3386
3374, 3386, 3573, 3574, 3387
3375, 3387, 3574, 3575, 3388
3376, 3573, 3572, 3575, 3574
3377, 3388, 3575, 3576, 3389
3378, 3389, 3576, 3577, 3390
3379, 3390, 3577, 3578, 3391
3380, 3576, 3575, 3578, 3577
3381, 3391, 3578, 3579, 3392
3382, 3392, 3579, 3580, 3393
3383, 3393, 3580, 3581, 3394
3384, 3579, 3578, 3581, 3580
3385, 3394, 3581, 3582, 3395
3386, 3395, 3582, 3583, 3396
3387, 3396, 3583, 3584, 3397
3388, 3582, 3581, 3584, 3583
3389, 3397, 3584, 3585, 3398
3390, 3398, 3585, 3586, 3399
3391, 3399, 3586, 3587, 3400
3392, 3585, 3584, 3587, 3586
3393, 3400, 3587, 3588, 3401
3394, 3401, 3588, 3589, 3402
3395, 3402, 3589, 3590, 3403
3396, 3588, 3587, 3590, 3589
3397, 3403, 3590, 3591, 3404
3398, 3404, 3591, 3592, 3405
3399, 3405, 3592, 3593, 3406
3400, 3591, 3590, 3593, 3592
3401, 3406, 3593, 3594, 3407
3402, 3407, 3594, 3595, 3408
3403, 3408, 3595, 3596, 3409
3404, 3594, 3593, 3596, 3595
3405, 3409, 3596, 3597, 3410
3406, 3410, 3597, 3598, 3411
3407, 3411, 3598, 3599, 3412
3408, 3597, 3596, 3599, 3598
3409, 3412, 3599, 3600, 3413
3410, 3413, 3600, 3601, 3414
3411, 3414, 3601, 3602, 3415
3412, 3600, 3599, 3602, 3601
3413, 3415, 3602, 3603, 3416
3414, 3416, 3603, 3604, 3417
3415, 3417, 3604, 3605, 3418
3416, 3603, 3602, 3605, 3604
3417, 3418, 3605, 3606, 3419
3418, 3419, 3606, 3607, 3420
3419, 3420, 3607, 3608, 3421
3420, 3606, 3605, 3608, 3607
3421, 3421, 3608, 3609, 3422
3422, 3422, 3609, 3610, 3423
3423, 3423, 3610, 3611, 3424
3424, 3609, 3608, 3611, 3610
3425, 3424, 3611, 3612, 3425
3426, 3425, 3612, 3613, 3426
3427, 3426, 3613, 3614, 3427
3428, 3612, 3611, 3614, 3613
3429, 3427, 3614, 3615, 3428
3430, 3428, 3615, 3616, 3429
3431, 3429, 3616, 3617, 3430
3432, 3615, 3614, 3617, 3616
3433, 3430, 3617, 3618, 3431
3434, 3431, 3618, 3619, 3432
3435, 3432, 3619, 3620, 3433
3436, 3618, 3617, 3620, 3619
3437, 3433, 3620, 3621, 3434
3438, 3434, 3621, 3622, 3435
3439, 3435, 3622, 3623, 3436
3440, 3621, 3620, 3623, 3622
3441, 3436, 3623, 3624, 3437
3442, 3437, 3624, 3625, 3438
3443, 3438, 3625, 3626, 3439
3444, 3624, 3623, 3626, 3625
3445, 3439, 3626, 3627, 3440
3446, 3440, 3627, 3628, 3441
3447, 3441, 3628, 3629, 3442
3448, 3627, 3626, 3629, 3628
3449, 3442, 3629, 3630, 3443
3450, 3443, 3630, 3631, 3444
3451, 3444, 3631, 3632, 3445
3452, 3630, 3629, 3632, 3631
3453, 3445, 3632, 3633, 3446
3454, 3446, 3633, 3634, 3447
3455, 3447, 3634, 3635, 3448
3456, 3633, 3632, 3635, 3634
3457, 3448, 3635, 3636, 3449
3458, 3449, 3636, 3637, 3450
3459, 3450, 3637, 3638, 3451
3460, 3636, 3635, 3638, 3637
3461, 3451, 3638, 3639, 3452
3462, 3452, 3639, 3640, 3453
3463, 3453, 3640, 3641, 3454
3464, 3639, 3638, 3641, 3640
3465, 3454, 3641, 3642, 3455
3466, 3455, 3642, 3643, 3456
3467, 3456, 3643, 3644, 3457
3468, 3642, 3641, 3644, 3643
3469, 3457, 3644, 3645, 3458
3470, 3458, 3645, 3646, 3459
3471, 3459, 3646, 3647, 3460
3472, 3645, 3644, 3647, 3646
3473, 3460, 3647, 3648, 3461
3474, 3461, 3648, 3649, 3462
3475, 3462, 3649, 3650, 3463
3476, 3648, 3647, 3650, 3649
3477, 3463, 3650, 3651, 3464
3478, 3464, 3651, 3652, 3465
3479, 3465, 3652, 3653, 3466
3480, 3651, 3650, 3653, 3652
3481, 3466, 3653, 3654, 3467
3482, 3467, 3654, 3655, 3468
3483, 3468, 3655, 3656, 3469
3484, 3654, 3653, 3656, 3655
3485, 3469, 3656, 3657, 3470
3486, 3470, 3657, 3658, 3471
3487, 3471, 3658, 3659, 3472
3488, 3657, 3656, 3659, 3658
3489, 3472, 3659, 3660, 3473
3490, 3473, 3660, 3661, 3474
3491, 3474, 3661, 3662, 3475
3492, 3660, 3659, 3662, 3661
3493, 3475, 3662, 3663, 3476
3494, 3476, 3663, 3664, 3477
3495, 3477, 3664, 3665, 3478
3496, 3663, 3662, 3665, 3664
3497, 3478, 3665, 3666, 3479
3498, 3479, 3666, 3667, 3480
3499, 3480, 3667, 3668, 3481
3500, 3666, 3665, 3668, 3667
3501, 3481, 3668, 3669, 3482
3502, 3482, 3669, 3670, 3483
3503, 3483, 3670, 3671, 3484
3504, 3669, 3668, 3671, 3670
3505, 3484, 3671, 3672, 3485
3506, 3485, 3672, 3673, 3486
3507, 3486, 3673, 3674, 3487
3508, 3672, 3671, 3674, 3673
3509, 3487, 3674, 3675, 3488
3510, 3488, 3675, 3676, 3489
3511, 3489, 3676, 3677, 3490
3512, 3675, 3674, 3677, 3676
3513, 3490, 3677, 3678, 3491
3514, 3491, 3678, 3679, 3492
3515, 3492, 3679, 3680, 3493
3516, 3678, 3677, 3680, 3679
3517, 3493, 3680, 3681, 3494
3518, 3494, 3681, 3682, 3495
3519, 3495, 3682, 3683, 3496
3520, 3681, 3680, 3683, 3682
3521, 3496, 3683, 3684, 3497
3522, 3497, 3684, 3685, 3498
3523, 3498, 3685, 3686, 3499
3524, 3684, 3683, 3686, 3685
3525, 3499, 3686, 3687, 3500
3526, 3500, 3687, 3688, 3501
3527, 3501, 3688, 3689, 3502
3528, 3687, 3686, 3689, 3688
3529, 3502, 3689, 3690, 3503
3530, 3503, 3690, 3691, 3504
3531, 3504, 3691, 3692, 3505
3532, 3690, 3689, 3692, 3691
3533, 3505, 3692, 3693, 3506
3534, 3506, 3693, 3694, 3507
3535, 3507, 3694, 3695, 3508
3536, 3693, 3692, 3695, 3694
3537, 3508, 3695, 3696, 3509
3538, 3509, 3696, 3697, 3510
3539, 3510, 3697, 3698, 3511
3540, 3696, 3695, 3698, 3697
3541, 3511, 3698, 3699, 3512
3542, 3512, 3699, 3700, 3513
3543, 3513, 3700, 3701, 3514
3544, 3699, 3698, 3701, 3700
3545, 3514, 3701, 3702, 3515
3546, 3515, 3702, 3703, 3516
3547, 3516, 3703, 3704, 3517
3548, 3702, 3701, 3704, 3703
3549, 3517, 3704, 3705, 3518
3550, 3518, 3705, 3706, 3519
3551, 3519, 3706, 3707, 3520
3552, 3705, 3704, 3707, 3706
3553, 3520, 3707, 3708, 3521
3554, 3521, 3708, 3709, 3522
3555, 3522, 3709, 3710, 3523
3556, 3708, 3707, 3710, 3709
3557, 3523, 3710, 3711, 3524
3558, 3524, 3711, 3712, 3525
3559, 3525, 3712, 3713, 3526
3560, 3711, 3710, 3713, 3712
3561, 3526, 3713, 3714, 3527
3562, 3527, 3714, 3715, 3528
3563, 3528, 3715, 3716, 3529
3564, 3714, 3713, 3716, 3715
3565, 3529, 3716, 3717, 3530
3566, 3530, 3717, 3718, 3531
3567, 3531, 3718, 3719, 3532
3568, 3717, 3716, 3719, 3718
3569, 3532, 3719, 3720, 3533
3570, 3533, 3720, 3721, 3534
3571, 3534, 3721, 3722, 3535
3572, 3720, 3719, 3722, 3721
3573, 3535, 3722, 3723, 3536
3574, 3536, 3723, 3724, 3537
3575, 3537, 3724, 3725, 3538
3576, 3723, 3722, 3725, 3724
3577, 3538, 3725, 3726, 3539
3578, 3539, 3726, 3727, 3540
3579, 3540, 3727, 3728, 3541
3580, 3726, 3725, 3728, 3727
3581, 3541, 3728, 3729, 3542
3582, 3542, 3729, 3730, 3543
3583, 3543, 3730, 3731, 3544
3584, 3729, 3728, 3731, 3730
3585, 3544, 3731, 3732, 3545
3586, 3545, 3732, 3733, 3546
3587, 3546, 3733, 3734, 3547
3588, 3732, 3731, 3734, 3733
3589, 3547, 3734, 3735, 3548
3590, 3548, 3735, 3736, 3549
3591, 3549, 3736, 3737, 3550
3592, 3735, 3734, 3737, 3736
3593, 3550, 3737, 3738, 3551
3594, 3551, 3738, 3739, 3552
3595, 3552, 3739, 3740, 3553
3596, 3738, 3737, 3740, 3739
3597, 2897, 3742, 3741, 2900
3598, 2900, 3741, 3743, 2910
3599, 2910, 3743, 3744, 2916
3600, 3741, 3742, 3744, 3743
3601, 2907, 2908, 3745, 3746
3602, 2908, 2914, 3747, 3745
3603, 2914, 2920, 3748, 3747
3604, 3745, 3747, 3748, 3746
3605, 2916, 3744, 3749, 2922
3606, 2922, 3749, 3750, 2928
3607, 2928, 3750, 3751, 2934
3608, 3749, 3744, 3751, 3750
3609, 2920, 2926, 3752, 3748
3610, 2926, 2932, 3753, 3752
3611, 2932, 2938, 3754, 3753
3612, 3752, 3753, 3754, 3748
3613, 2934, 3751, 3755, 2940
3614, 2940, 3755, 3756, 2946
3615, 2946, 3756, 3757, 2952
3616, 3755, 3751, 3757, 3756
3617, 2938, 2944, 3758, 3754
3618, 2944, 2950, 3759, 3758
3619, 2950, 2956, 3760, 3759
3620, 3758, 3759, 3760, 3754
3621, 2952, 3757, 3761, 2958
3622, 2958, 3761, 3762, 2964
3623, 2964, 3762, 3763, 2970
3624, 3761, 3757, 3763, 3762
3625, 2956, 2962, 3764, 3760
3626, 2962, 2968, 3765, 3764
3627, 2968, 2974, 3766, 3765
3628, 3764, 3765, 3766, 3760
3629, 2970, 3763, 3767, 2976
3630, 2976, 3767, 3768, 2982
3631, 2982, 3768, 3769, 2988
3632, 3767, 3763, 3769, 3768
3633, 2974, 2980, 3770, 3766
3634, 2980, 2986, 3771, 3770
3635, 2986, 2992, 3772, 3771
3636, 3770, 3771, 3772, 3766
3637, 2988, 3769, 3773, 2994
3638, 2994, 3773, 3774, 3181
3639, 3181, 3774, 3775, 3368
3640, 3773, 3769, 3775, 3774
3641, 2992, 3179, 3776, 3772
3642, 3179, 3366, 3777, 3776
3643, 3366, 3553, 3778, 3777
3644, 3776, 3777, 3778, 3772
3645, 3368, 3775, 3779, 3555
3646, 3553, 3740, 3780, 3778
3647, 3781, 3784, 3783, 3782
3648, 3782, 3783, 3786, 3785
3649, 3785, 3786, 3788, 3787
3650, 3787, 3788, 3744, 3742
3651, 3746, 3748, 3790, 3789
3652, 3789, 3790, 3792, 3791
3653, 3791, 3792, 3794, 3793
3654, 3793, 3794, 3796, 3795
3655, 3784, 3798, 3797, 3783
3656, 3783, 3797, 3799, 3786
3657, 3786, 3799, 3800, 3788
3658, 3788, 3800, 3751, 3744
3659, 3748, 3754, 3801, 3790
3660, 3790, 3801, 3802, 3792
3661, 3792, 3802, 3803, 3794
3662, 3794, 3803, 3804, 3796
3663, 3798, 3806, 3805, 3797
3664, 3797, 3805, 3807, 3799
3665, 3799, 3807, 3808, 3800
3666, 3800, 3808, 3757, 3751
3667, 3754, 3760, 3809, 3801
3668, 3801, 3809, 3810, 3802
3669, 3802, 3810, 3811, 3803
3670, 3803, 3811, 3812, 3804
3671, 3806, 3814, 3813, 3805
3672, 3805, 3813, 3815, 3807
3673, 3807, 3815, 3816, 3808
3674, 3808, 3816, 3763, 3757
3675, 3760, 3766, 3817, 3809
3676, 3809, 3817, 3818, 3810
3677, 3810, 3818, 3819, 3811
3678, 3811, 3819, 3820, 3812
3679, 3814, 3822, 3821, 3813
3680, 3813, 3821, 3823, 3815
3681, 3815, 3823, 3824, 3816
3682, 3816, 3824, 3769, 3763
3683, 3766, 3772, 3825, 3817
3684, 3817, 3825, 3826, 3818
3685, 3818, 3826, 3827, 3819
3686, 3819, 3827, 3828, 3820
3687, 3822, 3830, 3829, 3821
3688, 3821, 3829, 3831, 3823
3689, 3823, 3831, 3832, 3824
3690, 3824, 3832, 3775, 3769
3691, 3772, 3778, 3833, 3825
3692, 3825, 3833, 3834, 3826
3693, 3826, 3834, 3835, 3827
3694, 3827, 3835, 3836, 3828
3695, 3830, 3838, 3837, 3829
3696, 3829, 3837, 3839, 3831
3697, 3831, 3839, 3840, 3832
3698, 3832, 3840, 3779, 3775
3699, 3778, 3780, 3841, 3833
3700, 3833, 3841, 3842, 3834
3701, 3834, 3842, 3843, 3835
3702, 3835, 3843, 3844, 3836
3703, 3838, 3846, 3845, 3837
3704, 3837, 3845, 3847, 3839
3705, 3839, 3847, 3848, 3840
3706, 3840, 3848, 3849, 3779
3707, 3779, 3849, 3850, 3555
3708, 3555, 3850, 3851, 3557
3709, 3557, 3851, 3852, 3560
3710, 3560, 3852, 3853, 3563
3711, 3563, 3853, 3854, 3566
3712, 3566, 3854, 3855, 3569
3713, 3569, 3855, 3856, 3572
3714, 3572, 3856, 3857, 3575
3715, 3575, 3857, 3858, 3578
3716, 3578, 3858, 3859, 3581
3717, 3581, 3859, 3860, 3584
3718, 3584, 3860, 3861, 3587
3719, 3587, 3861, 3862, 3590
3720, 3590, 3862, 3863, 3593
3721, 3593, 3863, 3864, 3596
3722, 3596, 3864, 3865, 3599
3723, 3599, 3865, 3866, 3602
3724, 3602, 3866, 3867, 3605
3725, 3605, 3867, 3868, 3608
3726, 3608, 3868, 3869, 3611
3727, 3611, 3869, 3870, 3614
3728, 3614, 3870, 3871, 3617
3729, 3617, 3871, 3872, 3620
3730, 3620, 3872, 3873, 3623
3731, 3623, 3873, 3874, 3626
3732, 3626, 3874, 3875, 3629
3733, 3629, 3875, 3876, 3632
3734, 3632, 3876, 3877, 3635
3735, 3635, 3877, 3878, 3638
3736, 3638, 3878, 3879, 3641
3737, 3641, 3879, 3880, 3644
3738, 3644, 3880, 3881, 3647
3739, 3647, 3881, 3882, 3650
3740, 3650, 3882, 3883, 3653
3741, 3653, 3883, 3884, 3656
3742, 3656, 3884, 3885, 3659
3743, 3659, 3885, 3886, 3662
3744, 3662, 3886, 3887, 3665
3745, 3665, 3887, 3888, 3668
3746, 3668, 3888, 3889, 3671
3747, 3671, 3889, 3890, 3674
3748, 3674, 3890, 3891, 3677
3749, 3677, 3891, 3892, 3680
3750, 3680, 3892, 3893, 3683
3751, 3683, 3893, 3894, 3686
3752, 3686, 3894, 3895, 3689
3753, 3689, 3895, 3896, 3692
3754, 3692, 3896, 3897, 3695
3755, 3695, 3897, 3898, 3698
3756, 3698, 3898, 3899, 3701
3757, 3701, 3899, 3900, 3704
3758, 3704, 3900, 3901, 3707
3759, 3707, 3901, 3902, 3710
3760, 3710, 3902, 3903, 3713
3761, 3713, 3903, 3904, 3716
3762, 3716, 3904, 3905, 3719
3763, 3719, 3905, 3906, 3722
3764, 3722, 3906, 3907, 3725
3765, 3725, 3907, 3908, 3728
3766, 3728, 3908, 3909, 3731
3767, 3731, 3909, 3910, 3734
3768, 3734, 3910, 3911, 3737
3769, 3737, 3911, 3912, 3740
3770, 3740, 3912, 3913, 3780
3771, 3780, 3913, 3914, 3841
3772, 3841, 3914, 3915, 3842
3773, 3842, 3915, 3916, 3843
3774, 3843, 3916, 3917, 3844
3775, 3846, 3919, 3918, 3845
3776, 3845, 3918, 3920, 3847
3777, 3847, 3920, 3921, 3848
3778, 3848, 3921, 3922, 3849
3779, 3849, 3922, 3923, 3850
3780, 3850, 3923, 3924, 3851
3781, 3851, 3924, 3925, 3852
3782, 3852, 3925, 3926, 3853
3783, 3853, 3926, 3927, 3854
3784, 3854, 3927, 3928, 3855
3785, 3855, 3928, 3929, 3856
3786, 3856, 3929, 3930, 3857
3787, 3857, 3930, 3931, 3858
3788, 3858, 3931, 3932, 3859
3789, 3859, 3932, 3933, 3860
3790, 3860, 3933, 3934, 3861
3791, 3861, 3934, 3935, 3862
3792, 3862, 3935, 3936, 3863
3793, 3863, 3936, 3937, 3864
3794, 3864, 3937, 3938, 3865
3795, 3865, 3938, 3939, 3866
3796, 3866, 3939, 3940, 3867
3797, 3867, 3940, 3941, 3868
3798, 3868, 3941, 3942, 3869
3799, 3869, 3942, 3943, 3870
3800, 3870, 3943, 3944, 3871
3801, 3871, 3944, 3945, 3872
3802, 3872, 3945, 3946, 3873
3803, 3873, 3946, 3947, 3874
3804, 3874, 3947, 3948, 3875
3805, 3875, 3948, 3949, 3876
3806, 3876, 3949, 3950, 3877
3807, 3877, 3950, 3951, 3878
3808, 3878, 3951, 3952, 3879
3809, 3879, 3952, 3953, 3880
3810, 3880, 3953, 3954, 3881
3811, 3881, 3954, 3955, 3882
3812, 3882, 3955, 3956, 3883
3813, 3883, 3956, 3957, 3884
3814, 3884, 3957, 3958, 3885
3815, 3885, 3958, 3959, 3886
3816, 3886, 3959, 3960, 3887
3817, 3887, 3960, 3961, 3888
3818, 3888, 3961, 3962, 3889
3819, 3889, 3962, 3963, 3890
3820, 3890, 3963, 3964, 3891
3821, 3891, 3964, 3965, 3892
3822, 3892, 3965, 3966, 3893
3823, 3893, 3966, 3967, 3894
3824, 3894, 3967, 3968, 3895
3825, 3895, 3968, 3969, 3896
3826, 3896, 3969, 3970, 3897
3827, 3897, 3970, 3971, 3898
3828, 3898, 3971, 3972, 3899
3829, 3899, 3972, 3973, 3900
3830, 3900, 3973, 3974, 3901
3831, 3901, 3974, 3975, 3902
3832, 3902, 3975, 3976, 3903
3833, 3903, 3976, 3977, 3904
3834, 3904, 3977, 3978, 3905
3835, 3905, 3978, 3979, 3906
3836, 3906, 3979, 3980, 3907
3837, 3907, 3980, 3981, 3908
3838, 3908, 3981, 3982, 3909
3839, 3909, 3982, 3983, 3910
3840, 3910, 3983, 3984, 3911
3841, 3911, 3984, 3985, 3912
3842, 3912, 3985, 3986, 3913
3843, 3913, 3986, 3987, 3914
3844, 3914, 3987, 3988, 3915
3845, 3915, 3988, 3989, 3916
3846, 3916, 3989, 3990, 3917
3847, 3919, 3992, 3991, 3918
3848, 3918, 3991, 3993, 3920
3849, 3920, 3993, 3994, 3921
3850, 3991, 3992, 3994, 3993
3851, 3921, 3994, 3995, 3922
3852, 3922, 3995, 3996, 3923
3853, 3923, 3996, 3997, 3924
3854, 3995, 3994, 3997, 3996
3855, 3924, 3997, 3998, 3925
3856, 3925, 3998, 3999, 3926
3857, 3926, 3999, 4000, 3927
3858, 3998, 3997, 4000, 3999
3859, 3927, 4000, 4001, 3928
3860, 3928, 4001, 4002, 3929
3861, 3929, 4002, 4003, 3930
3862, 4001, 4000, 4003, 4002
3863, 3930, 4003, 4004, 3931
3864, 3931, 4004, 4005, 3932
3865, 3932, 4005, 4006, 3933
3866, 4004, 4003, 4006, 4005
3867, 3933, 4006, 4007, 3934
3868, 3934, 4007, 4008, 3935
3869, 3935, 4008, 4009, 3936
3870, 4007, 4006, 4009, 4008
3871, 3936, 4009, 4010, 3937
3872, 3937, 4010, 4011, 3938
3873, 3938, 4011, 4012, 3939
3874, 4010, 4009, 4012, 4011
3875, 3939, 4012, 4013, 3940
3876, 3940, 4013, 4014, 3941
3877, 3941, 4014, 4015, 3942
3878, 4013, 4012, 4015, 4014
3879, 3942, 4015, 4016, 3943
3880, 3943, 4016, 4017, 3944
3881, 3944, 4017, 4018, 3945
3882, 4016, 4015, 4018, 4017
3883, 3945, 4018, 4019, 3946
3884, 3946, 4019, 4020, 3947
3885, 3947, 4020, 4021, 3948
3886, 4019, 4018, 4021, 4020
3887, 3948, 4021, 4022, 3949
3888, 3949, 4022, 4023, 3950
3889, 3950, 4023, 4024, 3951
3890, 4022, 4021, 4024, 4023
3891, 3951, 4024, 4025, 3952
3892, 3952, 4025, 4026, 3953
3893, 3953, 4026, 4027, 3954
3894, 4025, 4024, 4027, 4026
3895, 3954, 4027, 4028, 3955
3896, 3955, 4028, 4029, 3956
3897, 3956, 4029, 4030, 3957
3898, 4028, 4027, 4030, 4029
3899, 3957, 4030, 4031, 3958
3900, 3958, 4031, 4032, 3959
3901, 3959, 4032, 4033, 3960
3902, 4031, 4030, 4033, 4032
3903, 3960, 4033, 4034, 3961
3904, 3961, 4034, 4035, 3962
3905, 3962, 4035, 4036, 3963
3906, 4034, 4033, 4036, 4035
3907, 3963, 4036, 4037, 3964
3908, 3964, 4037, 4038, 3965
3909, 3965, 4038, 4039, 3966
3910, 4037, 4036, 4039, 4038
3911, 3966, 4039, 4040, 3967
3912, 3967, 4040, 4041, 3968
3913, 3968, 4041, 4042, 3969
3914, 4040, 4039, 4042, 4041
3915, 3969, 4042, 4043, 3970
3916, 3970, 4043, 4044, 3971
3917, 3971, 4044, 4045, 3972
3918, 4043, 4042, 4045, 4044
3919, 3972, 4045, 4046, 3973
3920, 3973, 4046, 4047, 3974
3921, 3974, 4047, 4048, 3975
3922, 4046, 4045, 4048, 4047
3923, 3975, 4048, 4049, 3976
3924, 3976, 4049, 4050, 3977
3925, 3977, 4050, 4051, 3978
3926, 4049, 4048, 4051, 4050
3927, 3978, 4051, 4052, 3979
3928, 3979, 4052, 4053, 3980
3929, 3980, 4053, 4054, 3981
3930, 4052, 4051, 4054, 4053
3931, 3981, 4054, 4055, 3982
3932, 3982, 4055, 4056, 3983
3933, 3983, 4056, 4057, 3984
3934, 4055, 4054, 4057, 4056
3935, 3984, 4057, 4058, 3985
3936, 3985, 4058, 4059, 3986
3937, 3986, 4059, 4060, 3987
3938, 4058, 4057, 4060, 4059
3939, 3987, 4060, 4061, 3988
3940, 3988, 4061, 4062, 3989
3941, 3989, 4062, 4063, 3990
3942, 4061, 4060, 4063, 4062
3943, 3781, 4065, 4064, 3784
3944, 3784, 4064, 4066, 3798
3945, 3798, 4066, 4067, 3806
3946, 4064, 4065, 4067, 4066
3947, 3795, 3796, 4068, 4069
3948, 3796, 3804, 4070, 4068
3949, 3804, 3812, 4071, 4070
3950, 4068, 4070, 4071, 4069
3951, 3806, 4067, 4072, 3814
3952, 3814, 4072, 4073, 3822
3953, 3822, 4073, 4074, 3830
3954, 4072, 4067, 4074, 4073
3955, 3812, 3820, 4075, 4071
3956, 3820, 3828, 4076, 4075
3957, 3828, 3836, 4077, 4076
3958, 4075, 4076, 4077, 4071
3959, 3830, 4074, 4078, 3838
3960, 3838, 4078, 4079, 3846
3961, 3846, 4079, 4080, 3919
3962, 4078, 4074, 4080, 4079
3963, 3836, 3844, 4081, 4077
3964, 3844, 3917, 4082, 4081
3965, 3917, 3990, 4083, 4082
3966, 4081, 4082, 4083, 4077
3967, 3919, 4080, 4084, 3992
3968, 3990, 4063, 4085, 4083
3969, 4086, 4089, 4088, 4087
3970, 4087, 4088, 4067, 4065
3971, 4069, 4071, 4091, 4090
3972, 4090, 4091, 4093, 4092
3973, 4089, 4095, 4094, 4088
3974, 4088, 4094, 4074, 4067
3975, 4071, 4077, 4096, 4091
3976, 4091, 4096, 4097, 4093
3977, 4095, 4099, 4098, 4094
3978, 4094, 4098, 4080, 4074
3979, 4077, 4083, 4100, 4096
3980, 4096, 4100, 4101, 4097
3981, 4099, 4103, 4102, 4098
3982, 4098, 4102, 4084, 4080
3983, 4083, 4085, 4104, 4100
3984, 4100, 4104, 4105, 4101
3985, 4103, 4107, 4106, 4102
3986, 4102, 4106, 4108, 4084
3987, 4084, 4108, 4109, 3992
3988, 3992, 4109, 4110, 3994
3989, 3994, 4110, 4111, 3997
3990, 3997, 4111, 4112, 4000
3991, 4000, 4112, 4113, 4003
3992, 4003, 4113, 4114, 4006
3993, 4006, 4114, 4115, 4009
3994, 4009, 4115, 4116, 4012
3995, 4012, 4116, 4117, 4015
3996, 4015, 4117, 4118, 4018
3997, 4018, 4118, 4119, 4021
3998, 4021, 4119, 4120, 4024
3999, 4024, 4120, 4121, 4027
4000, 4027, 4121, 4122, 4030
4001, 4030, 4122, 4123, 4033
4002, 4033, 4123, 4124, 4036
4003, 4036, 4124, 4125, 4039
4004, 4039, 4125, 4126, 4042
4005, 4042, 4126, 4127, 4045
4006, 4045, 4127, 4128, 4048
4007, 4048, 4128, 4129, 4051
4008, 4051, 4129, 4130, 4054
4009, 4054, 4130, 4131, 4057
4010, 4057, 4131, 4132, 4060
4011, 4060, 4132, 4133, 4063
4012, 4063, 4133, 4134, 4085
4013, 4085, 4134, 4135, 4104
4014, 4104, 4135, 4136, 4105
4015, 4107, 4138, 4137, 4106
4016, 4106, 4137, 4139, 4108
4017, 4108, 4139, 4140, 4109
4018, 4109, 4140, 4141, 4110
4019, 4110, 4141, 4142, 4111
4020, 4111, 4142, 4143, 4112
4021, 4112, 4143, 4144, 4113
4022, 4113, 4144, 4145, 4114
4023, 4114, 4145, 4146, 4115
4024, 4115, 4146, 4147, 4116
4025, 4116, 4147, 4148, 4117
4026, 4117, 4148, 4149, 4118
4027, 4118, 4149, 4150, 4119
4028, 4119, 4150, 4151, 4120
4029, 4120, 4151, 4152, 4121
4030, 4121, 4152, 4153, 4122
4031, 4122, 4153, 4154, 4123
4032, 4123, 4154, 4155, 4124
4033, 4124, 4155, 4156, 4125
4034, 4125, 4156, 4157, 4126
4035, 4126, 4157, 4158, 4127
4036, 4127, 4158, 4159, 4128
4037, 4128, 4159, 4160, 4129
4038, 4129, 4160, 4161, 4130
4039, 4130, 4161, 4162, 4131
4040, 4131, 4162, 4163, 4132
4041, 4132, 4163, 4164, 4133
4042, 4133, 4164, 4165, 4134
4043, 4134, 4165, 4166, 4135
4044, 4135, 4166, 4167, 4136
4045, 4138, 4169, 4168, 4137
4046, 4137, 4168, 4170, 4139
4047, 4139, 4170, 4171, 4140
4048, 4168, 4169, 4171, 4170
4049, 4140, 4171, 4172, 4141
4050, 4141, 4172, 4173, 4142
4051, 4142, 4173, 4174, 4143
4052, 4172, 4171, 4174, 4173
4053, 4143, 4174, 4175, 4144
4054, 4144, 4175, 4176, 4145
4055, 4145, 4176, 4177, 4146
4056, 4175, 4174, 4177, 4176
4057, 4146, 4177, 4178, 4147
4058, 4147, 4178, 4179, 4148
4059, 4148, 4179, 4180, 4149
4060, 4178, 4177, 4180, 4179
4061, 4149, 4180, 4181, 4150
4062, 4150, 4181, 4182, 4151
4063, 4151, 4182, 4183, 4152
4064, 4181, 4180, 4183, 4182
4065, 4152, 4183, 4184, 4153
4066, 4153, 4184, 4185, 4154
4067, 4154, 4185, 4186, 4155
4068, 4184, 4183, 4186, 4185
4069, 4155, 4186, 4187, 4156
4070, 4156, 4187, 4188, 4157
4071, 4157, 4188, 4189, 4158
4072, 4187, 4186, 4189, 4188
4073, 4158, 4189, 4190, 4159
4074, 4159, 4190, 4191, 4160
4075, 4160, 4191, 4192, 4161
4076, 4190, 4189, 4192, 4191
4077, 4161, 4192, 4193, 4162
4078, 4162, 4193, 4194, 4163
4079, 4163, 4194, 4195, 4164
4080, 4193, 4192, 4195, 4194
4081, 4164, 4195, 4196, 4165
4082, 4165, 4196, 4197, 4166
4083, 4166, 4197, 4198, 4167
4084, 4196, 4195, 4198, 4197
4085, 4086, 4200, 4199, 4089
4086, 4089, 4199, 4201, 4095
4087, 4095, 4201, 4202, 4099
4088, 4199, 4200, 4202, 4201
4089, 4092, 4093, 4203, 4204
4090, 4093, 4097, 4205, 4203
4091, 4097, 4101, 4206, 4205
4092, 4203, 4205, 4206, 4204
4093, 4099, 4202, 4207, 4103
4094, 4103, 4207, 4208, 4107
4095, 4107, 4208, 4209, 4138
4096, 4207, 4202, 4209, 4208
4097, 4101, 4105, 4210, 4206
4098, 4105, 4136, 4211, 4210
4099, 4136, 4167, 4212, 4211
4100, 4210, 4211, 4212, 4206
4101, 4138, 4209, 4213, 4169
4102, 4167, 4198, 4214, 4212
4103, 4215, 4218, 4217, 4216
4104, 4216, 4217, 4220, 4219
4105, 4219, 4220, 4222, 4221
4106, 4221, 4222, 4224, 4223
4107, 4223, 4224, 4226, 4225
4108, 4225, 4226, 4228, 4227
4109, 4227, 4228, 4230, 4229
4110, 4229, 4230, 4232, 4231
4111, 4231, 4232, 4202, 4200
4112, 4218, 4234, 4233, 4217
4113, 4217, 4233, 4235, 4220
4114, 4220, 4235, 4236, 4222
4115, 4222, 4236, 4237, 4224
4116, 4224, 4237, 4238, 4226
4117, 4226, 4238, 4239, 4228
4118, 4228, 4239, 4240, 4230
4119, 4230, 4240, 4241, 4232
4120, 4232, 4241, 4209, 4202
4121, 4234, 4243, 4242, 4233
4122, 4233, 4242, 4244, 4235
4123, 4235, 4244, 4245, 4236
4124, 4236, 4245, 4246, 4237
4125, 4237, 4246, 4247, 4238
4126, 4238, 4247, 4248, 4239
4127, 4239, 4248, 4249, 4240
4128, 4240, 4249, 4250, 4241
4129, 4241, 4250, 4213, 4209
4130, 4204, 4206, 4252, 4251
4131, 4251, 4252, 4254, 4253
4132, 4253, 4254, 4256, 4255
4133, 4255, 4256, 4258, 4257
4134, 4257, 4258, 4260, 4259
4135, 4259, 4260, 4262, 4261
4136, 4261, 4262, 4264, 4263
4137, 4263, 4264, 4266, 4265
4138, 4265, 4266, 4268, 4267
4139, 4206, 4212, 4269, 4252
4140, 4252, 4269, 4270, 4254
4141, 4254, 4270, 4271, 4256
4142, 4256, 4271, 4272, 4258
4143, 4258, 4272, 4273, 4260
4144, 4260, 4273, 4274, 4262
4145, 4262, 4274, 4275, 4264
4146, 4264, 4275, 4276, 4266
4147, 4266, 4276, 4277, 4268
4148, 4212, 4214, 4278, 4269
4149, 4269, 4278, 4279, 4270
4150, 4270, 4279, 4280, 4271
4151, 4271, 4280, 4281, 4272
4152, 4272, 4281, 4282, 4273
4153, 4273, 4282, 4283, 4274
4154, 4274, 4283, 4284, 4275
4155, 4275, 4284, 4285, 4276
4156, 4276, 4285, 4286, 4277
4157, 4243, 4288, 4287, 4242
4158, 4242, 4287, 4289, 4244
4159, 4244, 4289, 4290, 4245
4160, 4245, 4290, 4291, 4246
4161, 4246, 4291, 4292, 4247
4162, 4247, 4292, 4293, 4248
4163, 4248, 4293, 4294, 4249
4164, 4249, 4294, 4295, 4250
4165, 4250, 4295, 4296, 4213
4166, 4213, 4296, 4297, 4169
4167, 4169, 4297, 4298, 4171
4168, 4171, 4298, 4299, 4174
4169, 4174, 4299, 4300, 4177
4170, 4177, 4300, 4301, 4180
4171, 4180, 4301, 4302, 4183
4172, 4183, 4302, 4303, 4186
4173, 4186, 4303, 4304, 4189
4174, 4189, 4304, 4305, 4192
4175, 4192, 4305, 4306, 4195
4176, 4195, 4306, 4307, 4198
4177, 4198, 4307, 4308, 4214
4178, 4214, 4308, 4309, 4278
4179, 4278, 4309, 4310, 4279
4180, 4279, 4310, 4311, 4280
4181, 4280, 4311, 4312, 4281
4182, 4281, 4312, 4313, 4282
4183, 4282, 4313, 4314, 4283
4184, 4283, 4314, 4315, 4284
4185, 4284, 4315, 4316, 4285
4186, 4285, 4316, 4317, 4286
4187, 4288, 4319, 4318, 4287
4188, 4287, 4318, 4320, 4289
4189, 4289, 4320, 4321, 4290
4190, 4290, 4321, 4322, 4291
4191, 4291, 4322, 4323, 4292
4192, 4292, 4323, 4324, 4293
4193, 4293, 4324, 4325, 4294
4194, 4294, 4325, 4326, 4295
4195, 4295, 4326, 4327, 4296
4196, 4296, 4327, 4328, 4297
4197, 4297, 4328, 4329, 4298
4198, 4298, 4329, 4330, 4299
4199, 4299, 4330, 4331, 4300
4200, 4300, 4331, 4332, 4301
4201, 4301, 4332, 4333, 4302
4202, 4302, 4333, 4334, 4303
4203, 4303, 4334, 4335, 4304
4204, 4304, 4335, 4336, 4305
4205, 4305, 4336, 4337, 4306
4206, 4306, 4337, 4338, 4307
4207, 4307, 4338, 4339, 4308
4208, 4308, 4339, 4340, 4309
4209, 4309, 4340, 4341, 4310
4210, 4310, 4341, 4342, 4311
4211, 4311, 4342, 4343, 4312
4212, 4312, 4343, 4344, 4313
4213, 4313, 4344, 4345, 4314
4214, 4314, 4345, 4346, 4315
4215, 4315, 4346, 4347, 4316
4216, 4316, 4347, 4348, 4317
4217, 4319, 4350, 4349, 4318
4218, 4318, 4349, 4351, 4320
4219, 4320, 4351, 4352, 4321
4220, 4321, 4352, 4353, 4322
4221, 4322, 4353, 4354, 4323
4222, 4323, 4354, 4355, 4324
4223, 4324, 4355, 4356, 4325
4224, 4325, 4356, 4357, 4326
4225, 4326, 4357, 4358, 4327
4226, 4327, 4358, 4359, 4328
4227, 4328, 4359, 4360, 4329
4228, 4329, 4360, 4361, 4330
4229, 4330, 4361, 4362, 4331
4230, 4331, 4362, 4363, 4332
4231, 4332, 4363, 4364, 4333
4232, 4333, 4364, 4365, 4334
4233, 4334, 4365, 4366, 4335
4234, 4335, 4366, 4367, 4336
4235, 4336, 4367, 4368, 4337
4236, 4337, 4368, 4369, 4338
4237, 4338, 4369, 4370, 4339
4238, 4339, 4370, 4371, 4340
4239, 4340, 4371, 4372, 4341
4240, 4341, 4372, 4373, 4342
4241, 4342, 4373, 4374, 4343
4242, 4343, 4374, 4375, 4344
4243, 4344, 4375, 4376, 4345
4244, 4345, 4376, 4377, 4346
4245, 4346, 4377, 4378, 4347
4246, 4347, 4378, 4379, 4348
4247, 4350, 4381, 4380, 4349
4248, 4349, 4380, 4382, 4351
4249, 4351, 4382, 4383, 4352
4250, 4352, 4383, 4384, 4353
4251, 4353, 4384, 4385, 4354
4252, 4354, 4385, 4386, 4355
4253, 4355, 4386, 4387, 4356
4254, 4356, 4387, 4388, 4357
4255, 4357, 4388, 4389, 4358
4256, 4358, 4389, 4390, 4359
4257, 4359, 4390, 4391, 4360
4258, 4360, 4391, 4392, 4361
4259, 4361, 4392, 4393, 4362
4260, 4362, 4393, 4394, 4363
4261, 4363, 4394, 4395, 4364
4262, 4364, 4395, 4396, 4365
4263, 4365, 4396, 4397, 4366
4264, 4366, 4397, 4398, 4367
4265, 4367, 4398, 4399, 4368
4266, 4368, 4399, 4400, 4369
4267, 4369, 4400, 4401, 4370
4268, 4370, 4401, 4402, 4371
4269, 4371, 4402, 4403, 4372
4270, 4372, 4403, 4404, 4373
4271, 4373, 4404, 4405, 4374
4272, 4374, 4405, 4406, 4375
4273, 4375, 4406, 4407, 4376
4274, 4376, 4407, 4408, 4377
4275, 4377, 4408, 4409, 4378
4276, 4378, 4409, 4410, 4379
4277, 4381, 4412, 4411, 4380
4278, 4380, 4411, 4413, 4382
4279, 4382, 4413, 4414, 4383
4280, 4383, 4414, 4415, 4384
4281, 4384, 4415, 4416, 4385
4282, 4385, 4416, 4417, 4386
4283, 4386, 4417, 4418, 4387
4284, 4387, 4418, 4419, 4388
4285, 4388, 4419, 4420, 4389
4286, 4389, 4420, 4421, 4390
4287, 4390, 4421, 4422, 4391
4288, 4391, 4422, 4423, 4392
4289, 4392, 4423, 4424, 4393
4290, 4393, 4424, 4425, 4394
4291, 4394, 4425, 4426, 4395
4292, 4395, 4426, 4427, 4396
4293, 4396, 4427, 4428, 4397
4294, 4397, 4428, 4429, 4398
4295, 4398, 4429, 4430, 4399
4296, 4399, 4430, 4431, 4400
4297, 4400, 4431, 4432, 4401
4298, 4401, 4432, 4433, 4402
4299, 4402, 4433, 4434, 4403
4300, 4403, 4434, 4435, 4404
4301, 4404, 4435, 4436, 4405
4302, 4405, 4436, 4437, 4406
4303, 4406, 4437, 4438, 4407
4304, 4407, 4438, 4439, 4408
4305, 4408, 4439, 4440, 4409
4306, 4409, 4440, 4441, 4410
4307, 4412, 4443, 4442, 4411
4308, 4411, 4442, 4444, 4413
4309, 4413, 4444, 4445, 4414
4310, 4414, 4445, 4446, 4415
4311, 4415, 4446, 4447, 4416
4312, 4416, 4447, 4448, 4417
4313, 4417, 4448, 4449, 4418
4314, 4418, 4449, 4450, 4419
4315, 4419, 4450, 4451, 4420
4316, 4420, 4451, 4452, 4421
4317, 4421, 4452, 4453, 4422
4318, 4422, 4453, 4454, 4423
4319, 4423, 4454, 4455, 4424
4320, 4424, 4455, 4456, 4425
4321, 4425, 4456, 4457, 4426
4322, 4426, 4457, 4458, 4427
4323, 4427, 4458, 4459, 4428
4324, 4428, 4459, 4460, 4429
4325, 4429, 4460, 4461, 4430
4326, 4430, 4461, 4462, 4431
4327, 4431, 4462, 4463, 4432
4328, 4432, 4463, 4464, 4433
4329, 4433, 4464, 4465, 4434
4330, 4434, 4465, 4466, 4435
4331, 4435, 4466, 4467, 4436
4332, 4436, 4467, 4468, 4437
4333, 4437, 4468, 4469, 4438
4334, 4438, 4469, 4470, 4439
4335, 4439, 4470, 4471, 4440
4336, 4440, 4471, 4472, 4441
4337, 4443, 4474, 4473, 4442
4338, 4442, 4473, 4475, 4444
4339, 4444, 4475, 4476, 4445
4340, 4445, 4476, 4477, 4446
4341, 4446, 4477, 4478, 4447
4342, 4447, 4478, 4479, 4448
4343, 4448, 4479, 4480, 4449
4344, 4449, 4480, 4481, 4450
4345, 4450, 4481, 4482, 4451
4346, 4451, 4482, 4483, 4452
4347, 4452, 4483, 4484, 4453
4348, 4453, 4484, 4485, 4454
4349, 4454, 4485, 4486, 4455
4350, 4455, 4486, 4487, 4456
4351, 4456, 4487, 4488, 4457
4352, 4457, 4488, 4489, 4458
4353, 4458, 4489, 4490, 4459
4354, 4459, 4490, 4491, 4460
4355, 4460, 4491, 4492, 4461
4356, 4461, 4492, 4493, 4462
4357, 4462, 4493, 4494, 4463
4358, 4463, 4494, 4495, 4464
4359, 4464, 4495, 4496, 4465
4360, 4465, 4496, 4497, 4466
4361, 4466, 4497, 4498, 4467
4362, 4467, 4498, 4499, 4468
4363, 4468, 4499, 4500, 4469
4364, 4469, 4500, 4501, 4470
4365, 4470, 4501, 4502, 4471
4366, 4471, 4502, 4503, 4472
4367, 4474, 4505, 4504, 4473
4368, 4473, 4504, 4506, 4475
4369, 4475, 4506, 4507, 4476
4370, 4476, 4507, 4508, 4477
4371, 4477, 4508, 4509, 4478
4372, 4478, 4509, 4510, 4479
4373, 4479, 4510, 4511, 4480
4374, 4480, 4511, 4512, 4481
4375, 4481, 4512, 4513, 4482
4376, 4482, 4513, 4514, 4483
4377, 4483, 4514, 4515, 4484
4378, 4484, 4515, 4516, 4485
4379, 4485, 4516, 4517, 4486
4380, 4486, 4517, 4518, 4487
4381, 4487, 4518, 4519, 4488
4382, 4488, 4519, 4520, 4489
4383, 4489, 4520, 4521, 4490
4384, 4490, 4521, 4522, 4491
4385, 4491, 4522, 4523, 4492
4386, 4492, 4523, 4524, 4493
4387, 4493, 4524, 4525, 4494
4388, 4494, 4525, 4526, 4495
4389, 4495, 4526, 4527, 4496
4390, 4496, 4527, 4528, 4497
4391, 4497, 4528, 4529, 4498
4392, 4498, 4529, 4530, 4499
4393, 4499, 4530, 4531, 4500
4394, 4500, 4531, 4532, 4501
4395, 4501, 4532, 4533, 4502
4396, 4502, 4533, 4534, 4503
4397, 4505, 4536, 4535, 4504
4398, 4504, 4535, 4537, 4506
4399, 4506, 4537, 4538, 4507
4400, 4507, 4538, 4539, 4508
4401, 4508, 4539, 4540, 4509
4402, 4509, 4540, 4541, 4510
4403, 4510, 4541, 4542, 4511
4404, 4511, 4542, 4543, 4512
4405, 4512, 4543, 4544, 4513
4406, 4513, 4544, 4545, 4514
4407, 4514, 4545, 4546, 4515
4408, 4515, 4546, 4547, 4516
4409, 4516, 4547, 4548, 4517
4410, 4517, 4548, 4549, 4518
4411, 4518, 4549, 4550, 4519
4412, 4519, 4550, 4551, 4520
4413, 4520, 4551, 4552, 4521
4414, 4521, 4552, 4553, 4522
4415, 4522, 4553, 4554, 4523
4416, 4523, 4554, 4555, 4524
4417, 4524, 4555, 4556, 4525
4418, 4525, 4556, 4557, 4526
4419, 4526, 4557, 4558, 4527
4420, 4527, 4558, 4559, 4528
4421, 4528, 4559, 4560, 4529
4422, 4529, 4560, 4561, 4530
4423, 4530, 4561, 4562, 4531
4424, 4531, 4562, 4563, 4532
4425, 4532, 4563, 4564, 4533
4426, 4533, 4564, 4565, 4534
4427, 4536, 4567, 4566, 4535
4428, 4535, 4566, 4568, 4537
4429, 4537, 4568, 4569, 4538
4430, 4538, 4569, 4570, 4539
4431, 4539, 4570, 4571, 4540
4432, 4540, 4571, 4572, 4541
4433, 4541, 4572, 4573, 4542
4434, 4542, 4573, 4574, 4543
4435, 4543, 4574, 4575, 4544
4436, 4544, 4575, 4576, 4545
4437, 4545, 4576, 4577, 4546
4438, 4546, 4577, 4578, 4547
4439, 4547, 4578, 4579, 4548
4440, 4548, 4579, 4580, 4549
4441, 4549, 4580, 4581, 4550
4442, 4550, 4581, 4582, 4551
4443, 4551, 4582, 4583, 4552
4444, 4552, 4583, 4584, 4553
4445, 4553, 4584, 4585, 4554
4446, 4554, 4585, 4586, 4555
4447, 4555, 4586, 4587, 4556
4448, 4556, 4587, 4588, 4557
4449, 4557, 4588, 4589, 4558
4450, 4558, 4589, 4590, 4559
4451, 4559, 4590, 4591, 4560
4452, 4560, 4591, 4592, 4561
4453, 4561, 4592, 4593, 4562
4454, 4562, 4593, 4594, 4563
4455, 4563, 4594, 4595, 4564
4456, 4564, 4595, 4596, 4565
4457, 4567, 4598, 4597, 4566
4458, 4566, 4597, 4599, 4568
4459, 4568, 4599, 4600, 4569
4460, 4569, 4600, 4601, 4570
4461, 4570, 4601, 4602, 4571
4462, 4571, 4602, 4603, 4572
4463, 4572, 4603, 4604, 4573
4464, 4573, 4604, 4605, 4574
4465, 4574, 4605, 4606, 4575
4466, 4575, 4606, 4607, 4576
4467, 4576, 4607, 4608, 4577
4468, 4577, 4608, 4609, 4578
4469, 4578, 4609, 4610, 4579
4470, 4579, 4610, 4611, 4580
4471, 4580, 4611, 4612, 4581
4472, 4581, 4612, 4613, 4582
4473, 4582, 4613, 4614, 4583
4474, 4583, 4614, 4615, 4584
4475, 4584, 4615, 4616, 4585
4476, 4585, 4616, 4617, 4586
4477, 4586, 4617, 4618, 4587
4478, 4587, 4618, 4619, 4588
4479, 4588, 4619, 4620, 4589
4480, 4589, 4620, 4621, 4590
4481, 4590, 4621, 4622, 4591
4482, 4591, 4622, 4623, 4592
4483, 4592, 4623, 4624, 4593
4484, 4593, 4624, 4625, 4594
4485, 4594, 4625, 4626, 4595
4486, 4595, 4626, 4627, 4596
4487, 4598, 4629, 4628, 4597
4488, 4597, 4628, 4630, 4599
4489, 4599, 4630, 4631, 4600
4490, 4600, 4631, 4632, 4601
4491, 4601, 4632, 4633, 4602
4492, 4602, 4633, 4634, 4603
4493, 4603, 4634, 4635, 4604
4494, 4604, 4635, 4636, 4605
4495, 4605, 4636, 4637, 4606
4496, 4606, 4637, 4638, 4607
4497, 4607, 4638, 4639, 4608
4498, 4608, 4639, 4640, 4609
4499, 4609, 4640, 4641, 4610
4500, 4610, 4641, 4642, 4611
4501, 4611, 4642, 4643, 4612
4502, 4612, 4643, 4644, 4613
4503, 4613, 4644, 4645, 4614
4504, 4614, 4645, 4646, 4615
4505, 4615, 4646, 4647, 4616
4506, 4616, 4647, 4648, 4617
4507, 4617, 4648, 4649, 4618
4508, 4618, 4649, 4650, 4619
4509, 4619, 4650, 4651, 4620
4510, 4620, 4651, 4652, 4621
4511, 4621, 4652, 4653, 4622
4512, 4622, 4653, 4654, 4623
4513, 4623, 4654, 4655, 4624
4514, 4624, 4655, 4656, 4625
4515, 4625, 4656, 4657, 4626
4516, 4626, 4657, 4658, 4627
4517, 4629, 4660, 4659, 4628
4518, 4628, 4659, 4661, 4630
4519, 4630, 4661, 4662, 4631
4520, 4631, 4662, 4663, 4632
4521, 4632, 4663, 4664, 4633
4522, 4633, 4664, 4665, 4634
4523, 4634, 4665, 4666, 4635
4524, 4635, 4666, 4667, 4636
4525, 4636, 4667, 4668, 4637
4526, 4637, 4668, 4669, 4638
4527, 4638, 4669, 4670, 4639
4528, 4639, 4670, 4671, 4640
4529, 4640, 4671, 4672, 4641
4530, 4641, 4672, 4673, 4642
4531, 4642, 4673, 4674, 4643
4532, 4643, 4674, 4675, 4644
4533, 4644, 4675, 4676, 4645
4534, 4645, 4676, 4677, 4646
4535, 4646, 4677, 4678, 4647
4536, 4647, 4678, 4679, 4648
4537, 4648, 4679, 4680, 4649
4538, 4649, 4680, 4681, 4650
4539, 4650, 4681, 4682, 4651
4540, 4651, 4682, 4683, 4652
4541, 4652, 4683, 4684, 4653
4542, 4653, 4684, 4685, 4654
4543, 4654, 4685, 4686, 4655
4544, 4655, 4686, 4687, 4656
4545, 4656, 4687, 4688, 4657
4546, 4657, 4688, 4689, 4658
4547, 4660, 4691, 4690, 4659
4548, 4659, 4690, 4692, 4661
4549, 4661, 4692, 4693, 4662
4550, 4662, 4693, 4694, 4663
4551, 4663, 4694, 4695, 4664
4552, 4664, 4695, 4696, 4665
4553, 4665, 4696, 4697, 4666
4554, 4666, 4697, 4698, 4667
4555, 4667, 4698, 4699, 4668
4556, 4668, 4699, 4700, 4669
4557, 4669, 4700, 4701, 4670
4558, 4670, 4701, 4702, 4671
4559, 4671, 4702, 4703, 4672
4560, 4672, 4703, 4704, 4673
4561, 4673, 4704, 4705, 4674
4562, 4674, 4705, 4706, 4675
4563, 4675, 4706, 4707, 4676
4564, 4676, 4707, 4708, 4677
4565, 4677, 4708, 4709, 4678
4566, 4678, 4709, 4710, 4679
4567, 4679, 4710, 4711, 4680
4568, 4680, 4711, 4712, 4681
4569, 4681, 4712, 4713, 4682
4570, 4682, 4713, 4714, 4683
4571, 4683, 4714, 4715, 4684
4572, 4684, 4715, 4716, 4685
4573, 4685, 4716, 4717, 4686
4574, 4686, 4717, 4718, 4687
4575, 4687, 4718, 4719, 4688
4576, 4688, 4719, 4720, 4689
4577, 4691, 4722, 4721, 4690
4578, 4690, 4721, 4723, 4692
4579, 4692, 4723, 4724, 4693
4580, 4693, 4724, 4725, 4694
4581, 4694, 4725, 4726, 4695
4582, 4695, 4726, 4727, 4696
4583, 4696, 4727, 4728, 4697
4584, 4697, 4728, 4729, 4698
4585, 4698, 4729, 4730, 4699
4586, 4699, 4730, 4731, 4700
4587, 4700, 4731, 4732, 4701
4588, 4701, 4732, 4733, 4702
4589, 4702, 4733, 4734, 4703
4590, 4703, 4734, 4735, 4704
4591, 4704, 4735, 4736, 4705
4592, 4705, 4736, 4737, 4706
4593, 4706, 4737, 4738, 4707
4594, 4707, 4738, 4739, 4708
4595, 4708, 4739, 4740, 4709
4596, 4709, 4740, 4741, 4710
4597, 4710, 4741, 4742, 4711
4598, 4711, 4742, 4743, 4712
4599, 4712, 4743, 4744, 4713
4600, 4713, 4744, 4745, 4714
4601, 4714, 4745, 4746, 4715
4602, 4715, 4746, 4747, 4716
4603, 4716, 4747, 4748, 4717
4604, 4717, 4748, 4749, 4718
4605, 4718, 4749, 4750, 4719
4606, 4719, 4750, 4751, 4720
4607, 4722, 4753, 4752, 4721
4608, 4721, 4752, 4754, 4723
4609, 4723, 4754, 4755, 4724
4610, 4724, 4755, 4756, 4725
4611, 4725, 4756, 4757, 4726
4612, 4726, 4757, 4758, 4727
4613, 4727, 4758, 4759, 4728
4614, 4728, 4759, 4760, 4729
4615, 4729, 4760, 4761, 4730
4616, 4730, 4761, 4762, 4731
4617, 4731, 4762, 4763, 4732
4618, 4732, 4763, 4764, 4733
4619, 4733, 4764, 4765, 4734
4620, 4734, 4765, 4766, 4735
4621, 4735, 4766, 4767, 4736
4622, 4736, 4767, 4768, 4737
4623, 4737, 4768, 4769, 4738
4624, 4738, 4769, 4770, 4739
4625, 4739, 4770, 4771, 4740
4626, 4740, 4771, 4772, 4741
4627, 4741, 4772, 4773, 4742
4628, 4742, 4773, 4774, 4743
4629, 4743, 4774, 4775, 4744
4630, 4744, 4775, 4776, 4745
4631, 4745, 4776, 4777, 4746
4632, 4746, 4777, 4778, 4747
4633, 4747, 4778, 4779, 4748
4634, 4748, 4779, 4780, 4749
4635, 4749, 4780, 4781, 4750
4636, 4750, 4781, 4782, 4751
4637, 4753, 4784, 4783, 4752
4638, 4752, 4783, 4785, 4754
4639, 4754, 4785, 4786, 4755
4640, 4755, 4786, 4787, 4756
4641, 4756, 4787, 4788, 4757
4642, 4757, 4788, 4789, 4758
4643, 4758, 4789, 4790, 4759
4644, 4759, 4790, 4791, 4760
4645, 4760, 4791, 4792, 4761
4646, 4761, 4792, 4793, 4762
4647, 4762, 4793, 4794, 4763
4648, 4763, 4794, 4795, 4764
4649, 4764, 4795, 4796, 4765
4650, 4765, 4796, 4797, 4766
4651, 4766, 4797, 4798, 4767
4652, 4767, 4798, 4799, 4768
4653, 4768, 4799, 4800, 4769
4654, 4769, 4800, 4801, 4770
4655, 4770, 4801, 4802, 4771
4656, 4771, 4802, 4803, 4772
4657, 4772, 4803, 4804, 4773
4658, 4773, 4804, 4805, 4774
4659, 4774, 4805, 4806, 4775
4660, 4775, 4806, 4807, 4776
4661, 4776, 4807, 4808, 4777
4662, 4777, 4808, 4809, 4778
4663, 4778, 4809, 4810, 4779
4664, 4779, 4810, 4811, 4780
4665, 4780, 4811, 4812, 4781
4666, 4781, 4812, 4813, 4782
4667, 4784, 4815, 4814, 4783
4668, 4783, 4814, 4816, 4785
4669, 4785, 4816, 4817, 4786
4670, 4786, 4817, 4818, 4787
4671, 4787, 4818, 4819, 4788
4672, 4788, 4819, 4820, 4789
4673, 4789, 4820, 4821, 4790
4674, 4790, 4821, 4822, 4791
4675, 4791, 4822, 4823, 4792
4676, 4792, 4823, 4824, 4793
4677, 4793, 4824, 4825, 4794
4678, 4794, 4825, 4826, 4795
4679, 4795, 4826, 4827, 4796
4680, 4796, 4827, 4828, 4797
4681, 4797, 4828, 4829, 4798
4682, 4798, 4829, 4830, 4799
4683, 4799, 4830, 4831, 4800
4684, 4800, 4831, 4832, 4801
4685, 4801, 4832, 4833, 4802
4686, 4802, 4833, 4834, 4803
4687, 4803, 4834, 4835, 4804
4688, 4804, 4835, 4836, 4805
4689, 4805, 4836, 4837, 4806
4690, 4806, 4837, 4838, 4807
4691, 4807, 4838, 4839, 4808
4692, 4808, 4839, 4840, 4809
4693, 4809, 4840, 4841, 4810
4694, 4810, 4841, 4842, 4811
4695, 4811, 4842, 4843, 4812
4696, 4812, 4843, 4844, 4813
4697, 4815, 4846, 4845, 4814
4698, 4814, 4845, 4847, 4816
4699, 4816, 4847, 4848, 4817
4700, 4817, 4848, 4849, 4818
4701, 4818, 4849, 4850, 4819
4702, 4819, 4850, 4851, 4820
4703, 4820, 4851, 4852, 4821
4704, 4821, 4852, 4853, 4822
4705, 4822, 4853, 4854, 4823
4706, 4823, 4854, 4855, 4824
4707, 4824, 4855, 4856, 4825
4708, 4825, 4856, 4857, 4826
4709, 4826, 4857, 4858, 4827
4710, 4827, 4858, 4859, 4828
4711, 4828, 4859, 4860, 4829
4712, 4829, 4860, 4861, 4830
4713, 4830, 4861, 4862, 4831
4714, 4831, 4862, 4863, 4832
4715, 4832, 4863, 4864, 4833
4716, 4833, 4864, 4865, 4834
4717, 4834, 4865, 4866, 4835
4718, 4835, 4866, 4867, 4836
4719, 4836, 4867, 4868, 4837
4720, 4837, 4868, 4869, 4838
4721, 4838, 4869, 4870, 4839
4722, 4839, 4870, 4871, 4840
4723, 4840, 4871, 4872, 4841
4724, 4841, 4872, 4873, 4842
4725, 4842, 4873, 4874, 4843
4726, 4843, 4874, 4875, 4844
*Elset, elset=Set-8, generate
    1,  4726,     1
** Section: Material
*Solid Section, elset=Set-8, material=Material
,
*End Part
**  
**
** ASSEMBLY
**
*Assembly, name=Assembly
**  
*Instance, name=CYLINDER-1, part=CYLINDER
*End Instance
**  
*Instance, name=FLAT-1, part=FLAT
*End Instance
**  
*Node
      1,           0.,          21.,           0.
*Node
      2,           0.,         -13.,           0.
*Nset, nset=ADAPTE, instance=FLAT-1, generate
    1,  2896,     1
*Elset, elset=ADAPTE, instance=FLAT-1, generate
    1,  2700,     1
*Nset, nset=ADAPTME, instance=CYLINDER-1, generate
    1,  2896,     1
*Elset, elset=ADAPTME, instance=CYLINDER-1, generate
    1,  2700,     1
*Nset, nset=ADAPTMN, instance=CYLINDER-1
   1,   2,   5,   7,   9,  11,  13,  15,  17,  19,  21,  23,  25,  27,  29,  31
  33,  35,  37,  39,  41,  43,  45,  47,  49,  51,  53,  55,  57,  59,  61,  63
  65,  67,  69,  71,  73,  75,  77,  79,  81,  83,  85,  87,  89,  91,  93,  95
  97,  99, 101, 103, 105, 107, 109, 111, 113, 115, 117, 119, 121, 123, 125, 127
 129, 131, 133, 135, 137, 139, 141, 143, 145, 147, 149, 151, 153, 155, 157, 159
 161, 163, 165, 167, 169, 171, 173, 175, 177, 179, 181, 183, 185, 187, 189, 191
 193, 195, 197, 199, 201, 203, 205, 207, 209, 211, 213, 215, 217, 219, 221, 223
 225, 227, 229, 231, 233, 235, 237, 239, 241, 243, 245, 247, 249, 251, 253, 255
 257, 259, 261, 263, 265, 267, 269, 271, 273, 275, 277, 279, 281, 283, 285, 287
 289, 291, 293, 295, 297, 299, 301, 303, 305, 307, 309, 311, 313, 315, 317, 319
 321, 323, 325, 327, 329, 331, 333, 335, 337, 339, 341, 343, 345, 347, 349, 351
 353, 355, 357, 359, 361
*Elset, elset=ADAPTMN, instance=CYLINDER-1, generate
   1,  180,    1
*Nset, nset=ADAPTN, instance=FLAT-1
   1,   2,   5,   7,   9,  11,  13,  15,  17,  19,  21,  23,  25,  27,  29,  31
  33,  35,  37,  39,  41,  43,  45,  47,  49,  51,  53,  55,  57,  59,  61,  63
  65,  67,  69,  71,  73,  75,  77,  79,  81,  83,  85,  87,  89,  91,  93,  95
  97,  99, 101, 103, 105, 107, 109, 111, 113, 115, 117, 119, 121, 123, 125, 127
 129, 131, 133, 135, 137, 139, 141, 143, 145, 147, 149, 151, 153, 155, 157, 159
 161, 163, 165, 167, 169, 171, 173, 175, 177, 179, 181, 183, 185, 187, 189, 191
 193, 195, 197, 199, 201, 203, 205, 207, 209, 211, 213, 215, 217, 219, 221, 223
 225, 227, 229, 231, 233, 235, 237, 239, 241, 243, 245, 247, 249, 251, 253, 255
 257, 259, 261, 263, 265, 267, 269, 271, 273, 275, 277, 279, 281, 283, 285, 287
 289, 291, 293, 295, 297, 299, 301, 303, 305, 307, 309, 311, 313, 315, 317, 319
 321, 323, 325, 327, 329, 331, 333, 335, 337, 339, 341, 343, 345, 347, 349, 351
 353, 355, 357, 359, 361
*Elset, elset=ADAPTN, instance=FLAT-1, generate
   1,  180,    1
*Nset, nset=CYLINDERNODES, instance=CYLINDER-1, generate
    1,  8608,     1
*Elset, elset=CYLINDERNODES, instance=CYLINDER-1, generate
    1,  8383,     1
*Nset, nset=DISP
 2,
*Nset, nset=FLATNODES, instance=FLAT-1, generate
    1,  4875,     1
*Elset, elset=FLATNODES, instance=FLAT-1, generate
    1,  4726,     1
*Nset, nset=QPOINT
 1,
*Elset, elset=_cylinderUpperSurface_S1, internal, instance=CYLINDER-1
 8381,
*Elset, elset=_cylinderUpperSurface_S2, internal, instance=CYLINDER-1
 4402, 4477, 4552, 4714, 4876, 5038, 5200, 5362, 5524, 5686, 5848, 6010, 6172, 6334, 6496, 6658
 6820, 6982, 7197, 7252, 7306, 7360, 7414, 7468, 7522, 7576, 7630, 7684, 7738, 7792, 7846, 7900
 7954, 8008, 8062, 8116, 8170, 8241, 8260, 8278, 8296, 8314, 8332, 8350, 8373, 8380
*Elset, elset=_cylinderUpperSurface_S4, internal, instance=CYLINDER-1
 4103, 4178, 4253, 4553, 4715, 4877, 5039, 5201, 5363, 5525, 5687, 5849, 6011, 6173, 6335, 6497
 6659, 6821, 6983, 7199, 7253, 7307, 7361, 7415, 7469, 7523, 7577, 7631, 7685, 7739, 7793, 7847
 7901, 7955, 8009, 8063, 8117, 8171, 8243, 8261, 8279, 8297, 8315, 8333, 8351, 8375, 8383
*Surface, type=ELEMENT, name=cylinderUpperSurface
_cylinderUpperSurface_S1, S1
_cylinderUpperSurface_S2, S2
_cylinderUpperSurface_S4, S4
*Elset, elset=_flatLowerSurface_S2, internal, instance=FLAT-1, generate
 4697,  4726,     1
*Surface, type=ELEMENT, name=flatLowerSurface
_flatLowerSurface_S2, S2
*Elset, elset=_m_Surf-1_S1, internal, instance=CYLINDER-1, generate
   1,  180,    1
*Surface, type=ELEMENT, name=m_Surf-1
_m_Surf-1_S1, S1
*Elset, elset=_s_Surf-1_S4, internal, instance=FLAT-1, generate
   1,  180,    1
*Surface, type=ELEMENT, name=s_Surf-1
_s_Surf-1_S4, S4
** Constraint: couplingCylinder
*Coupling, constraint name=couplingCylinder, ref node=QPOINT, surface=cylinderUpperSurface
*Kinematic
** Constraint: couplingFlat
*Coupling, constraint name=couplingFlat, ref node=DISP, surface=flatLowerSurface
*Kinematic
*End Assembly
*Amplitude, name=STROKE
             0.,              0.,            249.,              1.,            499.,              0.,            749.,             -1.
           999.,              0.,           1000.,              0.
** 
** MATERIALS
** 
*Material, name=Material
*Elastic
210000., 0.3
** 
** INTERACTION PROPERTIES
** 
*Surface Interaction, name=CONTACT_PROP
1.,
*Friction, lagrange
 0.65,
*Surface Behavior, direct
** 
** BOUNDARY CONDITIONS
** 
** Name: CYLINDER Type: Displacement/Rotation
*Boundary
QPOINT, 1, 1
QPOINT, 6, 6
** Name: FLAT Type: Displacement/Rotation
*Boundary
DISP, 1, 1
DISP, 2, 2
DISP, 6, 6
** 
** INTERACTIONS
** 
** Interaction: CONTACT_INT
*Contact Pair, interaction=CONTACT_PROP, type=SURFACE TO SURFACE
s_Surf-1, m_Surf-1
** ----------------------------------------------------------------
** 
** STEP: CONTACT
** 
*Step, name=CONTACT, nlgeom=YES
*Static
0.25, 1., 1e-05, 1.
** 
** LOADS
** 
** Name: CONTACT_LOAD   Type: Concentrated force
*Cload
QPOINT, 2, -10.8333
** 
** INTERACTIONS
** 
** Contact Controls for Interaction: CONTACT_INT
*Contact Controls, master=m_Surf-1, slave=s_Surf-1, reset
*Contact Controls, master=m_Surf-1, slave=s_Surf-1, stabilize=1.
** 
** OUTPUT REQUESTS
** 
** 
** FIELD OUTPUT: F-Output-5
** 
*Output, field
*Node Output, nset=ADAPTMN
COORD, 
** 
** FIELD OUTPUT: F-Output-4
** 
*Node Output, nset=ADAPTN
COORD, 
** 
** FIELD OUTPUT: F-Output-2
** 
*Node Output, nset=CYLINDERNODES
COORD, 
** 
** FIELD OUTPUT: F-Output-3
** 
*Node Output, nset=FLATNODES
COORD, 
** 
** FIELD OUTPUT: F-Output-1
** 
*Output, field, variable=PRESELECT
** 
** HISTORY OUTPUT: H-Output-1
** 
*Output, history, variable=PRESELECT
*End Step
** ----------------------------------------------------------------
** 
** STEP: FRETTING_CYCLE
** 
*Step, name=FRETTING_CYCLE, nlgeom=YES, inc=1000
*Static
1., 1000., 0.00041, 1.
** 
** BOUNDARY CONDITIONS
** 
** Name: FLAT Type: Displacement/Rotation
*Boundary, amplitude=STROKE
DISP, 1, 1
DISP, 2, 2
DISP, 6, 6
** 
** OUTPUT REQUESTS
** 
** 
** FIELD OUTPUT: F-Output-5
** 
*Output, field
*Node Output, nset=ADAPTMN
COORD, 
** 
** FIELD OUTPUT: F-Output-4
** 
*Node Output, nset=ADAPTN
COORD, 
** 
** FIELD OUTPUT: F-Output-2
** 
*Node Output, nset=CYLINDERNODES
COORD, 
** 
** FIELD OUTPUT: F-Output-3
** 
*Node Output, nset=FLATNODES
COORD, 
** 
** FIELD OUTPUT: F-Output-1
** 
*Output, field, frequency=10
*Node Output
RF, U
*Element Output, directions=YES
E, S
*Contact Output
CDISP, CSTRESS
** 
** HISTORY OUTPUT: H-Output-1
** 
*Output, history, variable=PRESELECT
*End Step
**
** WEAR BLOCK 1 (cycles 0 to 1)
**
*Step, name=CYCLE_1, nlgeom=YES, inc=1000
*Static
1., 1000.0, 0.0999, 1.
**
** BOUNDARY CONDITIONS
**
** Name: CYLINDER Type: Displacement/Rotation
*Boundary, amplitude=STROKE
DISP, 1, 1, 0.0
DISP, 2, 2
DISP, 6, 6
**
*adaptive mesh,elset=ADAPTE,freq=1,mesh=1
*adaptive mesh,elset=ADAPTME,freq=1,mesh=1
*adaptive mesh constraint, 
type=velocity,user
ADAPTN,1, ,2e-09
ADAPTMN,1, ,0.0
**
** OUTPUT REQUESTS
**
**
** FIELD OUTPUT: F-Output-1
**
*Output, field, number interval=1
*Node Output
CF, RF, U
*Element Output, directions=YES
LE, EE, E, S, COORD
*Contact Output
CDISP, CDSTRESS, CFORCE, CNAREA, CSTATUS, CSTRESS
**
** FIELD OUTPUT: F-Output-2
**
*Node Output, nset=ADAPTN
U, COORD
*Contact Output, nset=ADAPTN
CDISP, CSTRESS
**
** FIELD OUTPUT: F-Output-3
**
*Node Output, nset=QPOINT
RF,
**
** FIELD OUTPUT: F-Output-3
**
**
*Node Output, nset=ADAPTMN
U, COORD
*Contact Output, nset=ADAPTMN
CDISP, CSTRESS
** HISTORY OUTPUT: H-Output-1
**
*Output, history, variable=PRESELECT
*End Step
**
** WEAR BLOCK 2 (cycles 1 to 2)
**
*Step, name=CYCLE_2, nlgeom=YES, inc=1000
*Static
1., 1000.0, 0.0999, 1.
**
** BOUNDARY CONDITIONS
**
** Name: CYLINDER Type: Displacement/Rotation
*Boundary, amplitude=STROKE
DISP, 1, 1, 0.0
DISP, 2, 2
DISP, 6, 6
**
*adaptive mesh,elset=ADAPTE,freq=1,mesh=1
*adaptive mesh,elset=ADAPTME,freq=1,mesh=1
*adaptive mesh constraint, 
type=velocity,user
ADAPTN,1, ,2e-09
ADAPTMN,1, ,0.0
**
** OUTPUT REQUESTS
**
**
** FIELD OUTPUT: F-Output-1
**
*Output, field, number interval=1
*Node Output
CF, RF, U
*Element Output, directions=YES
LE, EE, E, S, COORD
*Contact Output
CDISP, CDSTRESS, CFORCE, CNAREA, CSTATUS, CSTRESS
**
** FIELD OUTPUT: F-Output-2
**
*Node Output, nset=ADAPTN
U, COORD
*Contact Output, nset=ADAPTN
CDISP, CSTRESS
**
** FIELD OUTPUT: F-Output-3
**
*Node Output, nset=QPOINT
RF,
**
** FIELD OUTPUT: F-Output-3
**
**
*Node Output, nset=ADAPTMN
U, COORD
*Contact Output, nset=ADAPTMN
CDISP, CSTRESS
** HISTORY OUTPUT: H-Output-1
**
*Output, history, variable=PRESELECT
*End Step
**
** WEAR BLOCK 3 (cycles 2 to 3)
**
*Step, name=CYCLE_3, nlgeom=YES, inc=1000
*Static
1., 1000.0, 0.0999, 1.
**
** BOUNDARY CONDITIONS
**
** Name: CYLINDER Type: Displacement/Rotation
*Boundary, amplitude=STROKE
DISP, 1, 1, 0.0
DISP, 2, 2
DISP, 6, 6
**
*adaptive mesh,elset=ADAPTE,freq=1,mesh=1
*adaptive mesh,elset=ADAPTME,freq=1,mesh=1
*adaptive mesh constraint, 
type=velocity,user
ADAPTN,1, ,2e-09
ADAPTMN,1, ,0.0
**
** OUTPUT REQUESTS
**
**
** FIELD OUTPUT: F-Output-1
**
*Output, field, number interval=1
*Node Output
CF, RF, U
*Element Output, directions=YES
LE, EE, E, S, COORD
*Contact Output
CDISP, CDSTRESS, CFORCE, CNAREA, CSTATUS, CSTRESS
**
** FIELD OUTPUT: F-Output-2
**
*Node Output, nset=ADAPTN
U, COORD
*Contact Output, nset=ADAPTN
CDISP, CSTRESS
**
** FIELD OUTPUT: F-Output-3
**
*Node Output, nset=QPOINT
RF,
**
** FIELD OUTPUT: F-Output-3
**
**
*Node Output, nset=ADAPTMN
U, COORD
*Contact Output, nset=ADAPTMN
CDISP, CSTRESS
** HISTORY OUTPUT: H-Output-1
**
*Output, history, variable=PRESELECT
*End Step
**
** WEAR BLOCK 4 (cycles 3 to 4)
**
*Step, name=CYCLE_4, nlgeom=YES, inc=1000
*Static
1., 1000.0, 0.0999, 1.
**
** BOUNDARY CONDITIONS
**
** Name: CYLINDER Type: Displacement/Rotation
*Boundary, amplitude=STROKE
DISP, 1, 1, 0.0
DISP, 2, 2
DISP, 6, 6
**
*adaptive mesh,elset=ADAPTE,freq=1,mesh=1
*adaptive mesh,elset=ADAPTME,freq=1,mesh=1
*adaptive mesh constraint, 
type=velocity,user
ADAPTN,1, ,2e-09
ADAPTMN,1, ,0.0
**
** OUTPUT REQUESTS
**
**
** FIELD OUTPUT: F-Output-1
**
*Output, field, number interval=1
*Node Output
CF, RF, U
*Element Output, directions=YES
LE, EE, E, S, COORD
*Contact Output
CDISP, CDSTRESS, CFORCE, CNAREA, CSTATUS, CSTRESS
**
** FIELD OUTPUT: F-Output-2
**
*Node Output, nset=ADAPTN
U, COORD
*Contact Output, nset=ADAPTN
CDISP, CSTRESS
**
** FIELD OUTPUT: F-Output-3
**
*Node Output, nset=QPOINT
RF,
**
** FIELD OUTPUT: F-Output-3
**
**
*Node Output, nset=ADAPTMN
U, COORD
*Contact Output, nset=ADAPTMN
CDISP, CSTRESS
** HISTORY OUTPUT: H-Output-1
**
*Output, history, variable=PRESELECT
*End Step
**
** WEAR BLOCK 5 (cycles 4 to 5)
**
*Step, name=CYCLE_5, nlgeom=YES, inc=1000
*Static
1., 1000.0, 0.0999, 1.
**
** BOUNDARY CONDITIONS
**
** Name: CYLINDER Type: Displacement/Rotation
*Boundary, amplitude=STROKE
DISP, 1, 1, 0.0
DISP, 2, 2
DISP, 6, 6
**
*adaptive mesh,elset=ADAPTE,freq=1,mesh=1
*adaptive mesh,elset=ADAPTME,freq=1,mesh=1
*adaptive mesh constraint, 
type=velocity,user
ADAPTN,1, ,2e-09
ADAPTMN,1, ,0.0
**
** OUTPUT REQUESTS
**
**
** FIELD OUTPUT: F-Output-1
**
*Output, field, number interval=1
*Node Output
CF, RF, U
*Element Output, directions=YES
LE, EE, E, S, COORD
*Contact Output
CDISP, CDSTRESS, CFORCE, CNAREA, CSTATUS, CSTRESS
**
** FIELD OUTPUT: F-Output-2
**
*Node Output, nset=ADAPTN
U, COORD
*Contact Output, nset=ADAPTN
CDISP, CSTRESS
**
** FIELD OUTPUT: F-Output-3
**
*Node Output, nset=QPOINT
RF,
**
** FIELD OUTPUT: F-Output-3
**
**
*Node Output, nset=ADAPTMN
U, COORD
*Contact Output, nset=ADAPTMN
CDISP, CSTRESS
** HISTORY OUTPUT: H-Output-1
**
*Output, history, variable=PRESELECT
*End Step
**
** WEAR BLOCK 6 (cycles 5 to 6)
**
*Step, name=CYCLE_6, nlgeom=YES, inc=1000
*Static
1., 1000.0, 0.0999, 1.
**
** BOUNDARY CONDITIONS
**
** Name: CYLINDER Type: Displacement/Rotation
*Boundary, amplitude=STROKE
DISP, 1, 1, 0.0
DISP, 2, 2
DISP, 6, 6
**
*adaptive mesh,elset=ADAPTE,freq=1,mesh=1
*adaptive mesh,elset=ADAPTME,freq=1,mesh=1
*adaptive mesh constraint, 
type=velocity,user
ADAPTN,1, ,2e-09
ADAPTMN,1, ,0.0
**
** OUTPUT REQUESTS
**
**
** FIELD OUTPUT: F-Output-1
**
*Output, field, number interval=1
*Node Output
CF, RF, U
*Element Output, directions=YES
LE, EE, E, S, COORD
*Contact Output
CDISP, CDSTRESS, CFORCE, CNAREA, CSTATUS, CSTRESS
**
** FIELD OUTPUT: F-Output-2
**
*Node Output, nset=ADAPTN
U, COORD
*Contact Output, nset=ADAPTN
CDISP, CSTRESS
**
** FIELD OUTPUT: F-Output-3
**
*Node Output, nset=QPOINT
RF,
**
** FIELD OUTPUT: F-Output-3
**
**
*Node Output, nset=ADAPTMN
U, COORD
*Contact Output, nset=ADAPTMN
CDISP, CSTRESS
** HISTORY OUTPUT: H-Output-1
**
*Output, history, variable=PRESELECT
*End Step
**
** WEAR BLOCK 7 (cycles 6 to 7)
**
*Step, name=CYCLE_7, nlgeom=YES, inc=1000
*Static
1., 1000.0, 0.0999, 1.
**
** BOUNDARY CONDITIONS
**
** Name: CYLINDER Type: Displacement/Rotation
*Boundary, amplitude=STROKE
DISP, 1, 1, 0.0
DISP, 2, 2
DISP, 6, 6
**
*adaptive mesh,elset=ADAPTE,freq=1,mesh=1
*adaptive mesh,elset=ADAPTME,freq=1,mesh=1
*adaptive mesh constraint, 
type=velocity,user
ADAPTN,1, ,2e-09
ADAPTMN,1, ,0.0
**
** OUTPUT REQUESTS
**
**
** FIELD OUTPUT: F-Output-1
**
*Output, field, number interval=1
*Node Output
CF, RF, U
*Element Output, directions=YES
LE, EE, E, S, COORD
*Contact Output
CDISP, CDSTRESS, CFORCE, CNAREA, CSTATUS, CSTRESS
**
** FIELD OUTPUT: F-Output-2
**
*Node Output, nset=ADAPTN
U, COORD
*Contact Output, nset=ADAPTN
CDISP, CSTRESS
**
** FIELD OUTPUT: F-Output-3
**
*Node Output, nset=QPOINT
RF,
**
** FIELD OUTPUT: F-Output-3
**
**
*Node Output, nset=ADAPTMN
U, COORD
*Contact Output, nset=ADAPTMN
CDISP, CSTRESS
** HISTORY OUTPUT: H-Output-1
**
*Output, history, variable=PRESELECT
*End Step
**
** WEAR BLOCK 8 (cycles 7 to 8)
**
*Step, name=CYCLE_8, nlgeom=YES, inc=1000
*Static
1., 1000.0, 0.0999, 1.
**
** BOUNDARY CONDITIONS
**
** Name: CYLINDER Type: Displacement/Rotation
*Boundary, amplitude=STROKE
DISP, 1, 1, 0.0
DISP, 2, 2
DISP, 6, 6
**
*adaptive mesh,elset=ADAPTE,freq=1,mesh=1
*adaptive mesh,elset=ADAPTME,freq=1,mesh=1
*adaptive mesh constraint, 
type=velocity,user
ADAPTN,1, ,2e-09
ADAPTMN,1, ,0.0
**
** OUTPUT REQUESTS
**
**
** FIELD OUTPUT: F-Output-1
**
*Output, field, number interval=1
*Node Output
CF, RF, U
*Element Output, directions=YES
LE, EE, E, S, COORD
*Contact Output
CDISP, CDSTRESS, CFORCE, CNAREA, CSTATUS, CSTRESS
**
** FIELD OUTPUT: F-Output-2
**
*Node Output, nset=ADAPTN
U, COORD
*Contact Output, nset=ADAPTN
CDISP, CSTRESS
**
** FIELD OUTPUT: F-Output-3
**
*Node Output, nset=QPOINT
RF,
**
** FIELD OUTPUT: F-Output-3
**
**
*Node Output, nset=ADAPTMN
U, COORD
*Contact Output, nset=ADAPTMN
CDISP, CSTRESS
** HISTORY OUTPUT: H-Output-1
**
*Output, history, variable=PRESELECT
*End Step
**
** WEAR BLOCK 9 (cycles 8 to 9)
**
*Step, name=CYCLE_9, nlgeom=YES, inc=1000
*Static
1., 1000.0, 0.0999, 1.
**
** BOUNDARY CONDITIONS
**
** Name: CYLINDER Type: Displacement/Rotation
*Boundary, amplitude=STROKE
DISP, 1, 1, 0.0
DISP, 2, 2
DISP, 6, 6
**
*adaptive mesh,elset=ADAPTE,freq=1,mesh=1
*adaptive mesh,elset=ADAPTME,freq=1,mesh=1
*adaptive mesh constraint, 
type=velocity,user
ADAPTN,1, ,2e-09
ADAPTMN,1, ,0.0
**
** OUTPUT REQUESTS
**
**
** FIELD OUTPUT: F-Output-1
**
*Output, field, number interval=1
*Node Output
CF, RF, U
*Element Output, directions=YES
LE, EE, E, S, COORD
*Contact Output
CDISP, CDSTRESS, CFORCE, CNAREA, CSTATUS, CSTRESS
**
** FIELD OUTPUT: F-Output-2
**
*Node Output, nset=ADAPTN
U, COORD
*Contact Output, nset=ADAPTN
CDISP, CSTRESS
**
** FIELD OUTPUT: F-Output-3
**
*Node Output, nset=QPOINT
RF,
**
** FIELD OUTPUT: F-Output-3
**
**
*Node Output, nset=ADAPTMN
U, COORD
*Contact Output, nset=ADAPTMN
CDISP, CSTRESS
** HISTORY OUTPUT: H-Output-1
**
*Output, history, variable=PRESELECT
*End Step
**
** WEAR BLOCK 10 (cycles 9 to 10)
**
*Step, name=CYCLE_10, nlgeom=YES, inc=1000
*Static
1., 1000.0, 0.0999, 1.
**
** BOUNDARY CONDITIONS
**
** Name: CYLINDER Type: Displacement/Rotation
*Boundary, amplitude=STROKE
DISP, 1, 1, 0.0
DISP, 2, 2
DISP, 6, 6
**
*adaptive mesh,elset=ADAPTE,freq=1,mesh=1
*adaptive mesh,elset=ADAPTME,freq=1,mesh=1
*adaptive mesh constraint, 
type=velocity,user
ADAPTN,1, ,2e-09
ADAPTMN,1, ,0.0
**
** OUTPUT REQUESTS
**
**
** FIELD OUTPUT: F-Output-1
**
*Output, field, number interval=1
*Node Output
CF, RF, U
*Element Output, directions=YES
LE, EE, E, S, COORD
*Contact Output
CDISP, CDSTRESS, CFORCE, CNAREA, CSTATUS, CSTRESS
**
** FIELD OUTPUT: F-Output-2
**
*Node Output, nset=ADAPTN
U, COORD
*Contact Output, nset=ADAPTN
CDISP, CSTRESS
**
** FIELD OUTPUT: F-Output-3
**
*Node Output, nset=QPOINT
RF,
**
** FIELD OUTPUT: F-Output-3
**
**
*Node Output, nset=ADAPTMN
U, COORD
*Contact Output, nset=ADAPTMN
CDISP, CSTRESS
** HISTORY OUTPUT: H-Output-1
**
*Output, history, variable=PRESELECT
*End Step
**
** WEAR BLOCK 11 (cycles 10 to 11)
**
*Step, name=CYCLE_11, nlgeom=YES, inc=1000
*Static
1., 1000.0, 0.0999, 1.
**
** BOUNDARY CONDITIONS
**
** Name: CYLINDER Type: Displacement/Rotation
*Boundary, amplitude=STROKE
DISP, 1, 1, 0.0
DISP, 2, 2
DISP, 6, 6
**
*adaptive mesh,elset=ADAPTE,freq=1,mesh=1
*adaptive mesh,elset=ADAPTME,freq=1,mesh=1
*adaptive mesh constraint, 
type=velocity,user
ADAPTN,1, ,2e-09
ADAPTMN,1, ,0.0
**
** OUTPUT REQUESTS
**
**
** FIELD OUTPUT: F-Output-1
**
*Output, field, number interval=1
*Node Output
CF, RF, U
*Element Output, directions=YES
LE, EE, E, S, COORD
*Contact Output
CDISP, CDSTRESS, CFORCE, CNAREA, CSTATUS, CSTRESS
**
** FIELD OUTPUT: F-Output-2
**
*Node Output, nset=ADAPTN
U, COORD
*Contact Output, nset=ADAPTN
CDISP, CSTRESS
**
** FIELD OUTPUT: F-Output-3
**
*Node Output, nset=QPOINT
RF,
**
** FIELD OUTPUT: F-Output-3
**
**
*Node Output, nset=ADAPTMN
U, COORD
*Contact Output, nset=ADAPTMN
CDISP, CSTRESS
** HISTORY OUTPUT: H-Output-1
**
*Output, history, variable=PRESELECT
*End Step
**
** WEAR BLOCK 12 (cycles 11 to 12)
**
*Step, name=CYCLE_12, nlgeom=YES, inc=1000
*Static
1., 1000.0, 0.0999, 1.
**
** BOUNDARY CONDITIONS
**
** Name: CYLINDER Type: Displacement/Rotation
*Boundary, amplitude=STROKE
DISP, 1, 1, 0.0
DISP, 2, 2
DISP, 6, 6
**
*adaptive mesh,elset=ADAPTE,freq=1,mesh=1
*adaptive mesh,elset=ADAPTME,freq=1,mesh=1
*adaptive mesh constraint, 
type=velocity,user
ADAPTN,1, ,2e-09
ADAPTMN,1, ,0.0
**
** OUTPUT REQUESTS
**
**
** FIELD OUTPUT: F-Output-1
**
*Output, field, number interval=1
*Node Output
CF, RF, U
*Element Output, directions=YES
LE, EE, E, S, COORD
*Contact Output
CDISP, CDSTRESS, CFORCE, CNAREA, CSTATUS, CSTRESS
**
** FIELD OUTPUT: F-Output-2
**
*Node Output, nset=ADAPTN
U, COORD
*Contact Output, nset=ADAPTN
CDISP, CSTRESS
**
** FIELD OUTPUT: F-Output-3
**
*Node Output, nset=QPOINT
RF,
**
** FIELD OUTPUT: F-Output-3
**
**
*Node Output, nset=ADAPTMN
U, COORD
*Contact Output, nset=ADAPTMN
CDISP, CSTRESS
** HISTORY OUTPUT: H-Output-1
**
*Output, history, variable=PRESELECT
*End Step
**
** WEAR BLOCK 13 (cycles 12 to 13)
**
*Step, name=CYCLE_13, nlgeom=YES, inc=1000
*Static
1., 1000.0, 0.0999, 1.
**
** BOUNDARY CONDITIONS
**
** Name: CYLINDER Type: Displacement/Rotation
*Boundary, amplitude=STROKE
DISP, 1, 1, 0.0
DISP, 2, 2
DISP, 6, 6
**
*adaptive mesh,elset=ADAPTE,freq=1,mesh=1
*adaptive mesh,elset=ADAPTME,freq=1,mesh=1
*adaptive mesh constraint, 
type=velocity,user
ADAPTN,1, ,2e-09
ADAPTMN,1, ,0.0
**
** OUTPUT REQUESTS
**
**
** FIELD OUTPUT: F-Output-1
**
*Output, field, number interval=1
*Node Output
CF, RF, U
*Element Output, directions=YES
LE, EE, E, S, COORD
*Contact Output
CDISP, CDSTRESS, CFORCE, CNAREA, CSTATUS, CSTRESS
**
** FIELD OUTPUT: F-Output-2
**
*Node Output, nset=ADAPTN
U, COORD
*Contact Output, nset=ADAPTN
CDISP, CSTRESS
**
** FIELD OUTPUT: F-Output-3
**
*Node Output, nset=QPOINT
RF,
**
** FIELD OUTPUT: F-Output-3
**
**
*Node Output, nset=ADAPTMN
U, COORD
*Contact Output, nset=ADAPTMN
CDISP, CSTRESS
** HISTORY OUTPUT: H-Output-1
**
*Output, history, variable=PRESELECT
*End Step
**
** WEAR BLOCK 14 (cycles 13 to 14)
**
*Step, name=CYCLE_14, nlgeom=YES, inc=1000
*Static
1., 1000.0, 0.0999, 1.
**
** BOUNDARY CONDITIONS
**
** Name: CYLINDER Type: Displacement/Rotation
*Boundary, amplitude=STROKE
DISP, 1, 1, 0.0
DISP, 2, 2
DISP, 6, 6
**
*adaptive mesh,elset=ADAPTE,freq=1,mesh=1
*adaptive mesh,elset=ADAPTME,freq=1,mesh=1
*adaptive mesh constraint, 
type=velocity,user
ADAPTN,1, ,2e-09
ADAPTMN,1, ,0.0
**
** OUTPUT REQUESTS
**
**
** FIELD OUTPUT: F-Output-1
**
*Output, field, number interval=1
*Node Output
CF, RF, U
*Element Output, directions=YES
LE, EE, E, S, COORD
*Contact Output
CDISP, CDSTRESS, CFORCE, CNAREA, CSTATUS, CSTRESS
**
** FIELD OUTPUT: F-Output-2
**
*Node Output, nset=ADAPTN
U, COORD
*Contact Output, nset=ADAPTN
CDISP, CSTRESS
**
** FIELD OUTPUT: F-Output-3
**
*Node Output, nset=QPOINT
RF,
**
** FIELD OUTPUT: F-Output-3
**
**
*Node Output, nset=ADAPTMN
U, COORD
*Contact Output, nset=ADAPTMN
CDISP, CSTRESS
** HISTORY OUTPUT: H-Output-1
**
*Output, history, variable=PRESELECT
*End Step
**
** WEAR BLOCK 15 (cycles 14 to 15)
**
*Step, name=CYCLE_15, nlgeom=YES, inc=1000
*Static
1., 1000.0, 0.0999, 1.
**
** BOUNDARY CONDITIONS
**
** Name: CYLINDER Type: Displacement/Rotation
*Boundary, amplitude=STROKE
DISP, 1, 1, 0.0
DISP, 2, 2
DISP, 6, 6
**
*adaptive mesh,elset=ADAPTE,freq=1,mesh=1
*adaptive mesh,elset=ADAPTME,freq=1,mesh=1
*adaptive mesh constraint, 
type=velocity,user
ADAPTN,1, ,2e-09
ADAPTMN,1, ,0.0
**
** OUTPUT REQUESTS
**
**
** FIELD OUTPUT: F-Output-1
**
*Output, field, number interval=1
*Node Output
CF, RF, U
*Element Output, directions=YES
LE, EE, E, S, COORD
*Contact Output
CDISP, CDSTRESS, CFORCE, CNAREA, CSTATUS, CSTRESS
**
** FIELD OUTPUT: F-Output-2
**
*Node Output, nset=ADAPTN
U, COORD
*Contact Output, nset=ADAPTN
CDISP, CSTRESS
**
** FIELD OUTPUT: F-Output-3
**
*Node Output, nset=QPOINT
RF,
**
** FIELD OUTPUT: F-Output-3
**
**
*Node Output, nset=ADAPTMN
U, COORD
*Contact Output, nset=ADAPTMN
CDISP, CSTRESS
** HISTORY OUTPUT: H-Output-1
**
*Output, history, variable=PRESELECT
*End Step
**
** WEAR BLOCK 16 (cycles 15 to 16)
**
*Step, name=CYCLE_16, nlgeom=YES, inc=1000
*Static
1., 1000.0, 0.0999, 1.
**
** BOUNDARY CONDITIONS
**
** Name: CYLINDER Type: Displacement/Rotation
*Boundary, amplitude=STROKE
DISP, 1, 1, 0.0
DISP, 2, 2
DISP, 6, 6
**
*adaptive mesh,elset=ADAPTE,freq=1,mesh=1
*adaptive mesh,elset=ADAPTME,freq=1,mesh=1
*adaptive mesh constraint, 
type=velocity,user
ADAPTN,1, ,2e-09
ADAPTMN,1, ,0.0
**
** OUTPUT REQUESTS
**
**
** FIELD OUTPUT: F-Output-1
**
*Output, field, number interval=1
*Node Output
CF, RF, U
*Element Output, directions=YES
LE, EE, E, S, COORD
*Contact Output
CDISP, CDSTRESS, CFORCE, CNAREA, CSTATUS, CSTRESS
**
** FIELD OUTPUT: F-Output-2
**
*Node Output, nset=ADAPTN
U, COORD
*Contact Output, nset=ADAPTN
CDISP, CSTRESS
**
** FIELD OUTPUT: F-Output-3
**
*Node Output, nset=QPOINT
RF,
**
** FIELD OUTPUT: F-Output-3
**
**
*Node Output, nset=ADAPTMN
U, COORD
*Contact Output, nset=ADAPTMN
CDISP, CSTRESS
** HISTORY OUTPUT: H-Output-1
**
*Output, history, variable=PRESELECT
*End Step
**
** WEAR BLOCK 17 (cycles 16 to 17)
**
*Step, name=CYCLE_17, nlgeom=YES, inc=1000
*Static
1., 1000.0, 0.0999, 1.
**
** BOUNDARY CONDITIONS
**
** Name: CYLINDER Type: Displacement/Rotation
*Boundary, amplitude=STROKE
DISP, 1, 1, 0.0
DISP, 2, 2
DISP, 6, 6
**
*adaptive mesh,elset=ADAPTE,freq=1,mesh=1
*adaptive mesh,elset=ADAPTME,freq=1,mesh=1
*adaptive mesh constraint, 
type=velocity,user
ADAPTN,1, ,2e-09
ADAPTMN,1, ,0.0
**
** OUTPUT REQUESTS
**
**
** FIELD OUTPUT: F-Output-1
**
*Output, field, number interval=1
*Node Output
CF, RF, U
*Element Output, directions=YES
LE, EE, E, S, COORD
*Contact Output
CDISP, CDSTRESS, CFORCE, CNAREA, CSTATUS, CSTRESS
**
** FIELD OUTPUT: F-Output-2
**
*Node Output, nset=ADAPTN
U, COORD
*Contact Output, nset=ADAPTN
CDISP, CSTRESS
**
** FIELD OUTPUT: F-Output-3
**
*Node Output, nset=QPOINT
RF,
**
** FIELD OUTPUT: F-Output-3
**
**
*Node Output, nset=ADAPTMN
U, COORD
*Contact Output, nset=ADAPTMN
CDISP, CSTRESS
** HISTORY OUTPUT: H-Output-1
**
*Output, history, variable=PRESELECT
*End Step
**
** WEAR BLOCK 18 (cycles 17 to 18)
**
*Step, name=CYCLE_18, nlgeom=YES, inc=1000
*Static
1., 1000.0, 0.0999, 1.
**
** BOUNDARY CONDITIONS
**
** Name: CYLINDER Type: Displacement/Rotation
*Boundary, amplitude=STROKE
DISP, 1, 1, 0.0
DISP, 2, 2
DISP, 6, 6
**
*adaptive mesh,elset=ADAPTE,freq=1,mesh=1
*adaptive mesh,elset=ADAPTME,freq=1,mesh=1
*adaptive mesh constraint, 
type=velocity,user
ADAPTN,1, ,2e-09
ADAPTMN,1, ,0.0
**
** OUTPUT REQUESTS
**
**
** FIELD OUTPUT: F-Output-1
**
*Output, field, number interval=1
*Node Output
CF, RF, U
*Element Output, directions=YES
LE, EE, E, S, COORD
*Contact Output
CDISP, CDSTRESS, CFORCE, CNAREA, CSTATUS, CSTRESS
**
** FIELD OUTPUT: F-Output-2
**
*Node Output, nset=ADAPTN
U, COORD
*Contact Output, nset=ADAPTN
CDISP, CSTRESS
**
** FIELD OUTPUT: F-Output-3
**
*Node Output, nset=QPOINT
RF,
**
** FIELD OUTPUT: F-Output-3
**
**
*Node Output, nset=ADAPTMN
U, COORD
*Contact Output, nset=ADAPTMN
CDISP, CSTRESS
** HISTORY OUTPUT: H-Output-1
**
*Output, history, variable=PRESELECT
*End Step
**
** WEAR BLOCK 19 (cycles 18 to 19)
**
*Step, name=CYCLE_19, nlgeom=YES, inc=1000
*Static
1., 1000.0, 0.0999, 1.
**
** BOUNDARY CONDITIONS
**
** Name: CYLINDER Type: Displacement/Rotation
*Boundary, amplitude=STROKE
DISP, 1, 1, 0.0
DISP, 2, 2
DISP, 6, 6
**
*adaptive mesh,elset=ADAPTE,freq=1,mesh=1
*adaptive mesh,elset=ADAPTME,freq=1,mesh=1
*adaptive mesh constraint, 
type=velocity,user
ADAPTN,1, ,2e-09
ADAPTMN,1, ,0.0
**
** OUTPUT REQUESTS
**
**
** FIELD OUTPUT: F-Output-1
**
*Output, field, number interval=1
*Node Output
CF, RF, U
*Element Output, directions=YES
LE, EE, E, S, COORD
*Contact Output
CDISP, CDSTRESS, CFORCE, CNAREA, CSTATUS, CSTRESS
**
** FIELD OUTPUT: F-Output-2
**
*Node Output, nset=ADAPTN
U, COORD
*Contact Output, nset=ADAPTN
CDISP, CSTRESS
**
** FIELD OUTPUT: F-Output-3
**
*Node Output, nset=QPOINT
RF,
**
** FIELD OUTPUT: F-Output-3
**
**
*Node Output, nset=ADAPTMN
U, COORD
*Contact Output, nset=ADAPTMN
CDISP, CSTRESS
** HISTORY OUTPUT: H-Output-1
**
*Output, history, variable=PRESELECT
*End Step
**
** WEAR BLOCK 20 (cycles 19 to 20)
**
*Step, name=CYCLE_20, nlgeom=YES, inc=1000
*Static
1., 1000.0, 0.0999, 1.
**
** BOUNDARY CONDITIONS
**
** Name: CYLINDER Type: Displacement/Rotation
*Boundary, amplitude=STROKE
DISP, 1, 1, 0.0
DISP, 2, 2
DISP, 6, 6
**
*adaptive mesh,elset=ADAPTE,freq=1,mesh=1
*adaptive mesh,elset=ADAPTME,freq=1,mesh=1
*adaptive mesh constraint, 
type=velocity,user
ADAPTN,1, ,2e-09
ADAPTMN,1, ,0.0
**
** OUTPUT REQUESTS
**
**
** FIELD OUTPUT: F-Output-1
**
*Output, field, number interval=1
*Node Output
CF, RF, U
*Element Output, directions=YES
LE, EE, E, S, COORD
*Contact Output
CDISP, CDSTRESS, CFORCE, CNAREA, CSTATUS, CSTRESS
**
** FIELD OUTPUT: F-Output-2
**
*Node Output, nset=ADAPTN
U, COORD
*Contact Output, nset=ADAPTN
CDISP, CSTRESS
**
** FIELD OUTPUT: F-Output-3
**
*Node Output, nset=QPOINT
RF,
**
** FIELD OUTPUT: F-Output-3
**
**
*Node Output, nset=ADAPTMN
U, COORD
*Contact Output, nset=ADAPTMN
CDISP, CSTRESS
** HISTORY OUTPUT: H-Output-1
**
*Output, history, variable=PRESELECT
*End Step
**
** WEAR BLOCK 21 (cycles 20 to 21)
**
*Step, name=CYCLE_21, nlgeom=YES, inc=1000
*Static
1., 1000.0, 0.0999, 1.
**
** BOUNDARY CONDITIONS
**
** Name: CYLINDER Type: Displacement/Rotation
*Boundary, amplitude=STROKE
DISP, 1, 1, 0.0
DISP, 2, 2
DISP, 6, 6
**
*adaptive mesh,elset=ADAPTE,freq=1,mesh=1
*adaptive mesh,elset=ADAPTME,freq=1,mesh=1
*adaptive mesh constraint, 
type=velocity,user
ADAPTN,1, ,2e-09
ADAPTMN,1, ,0.0
**
** OUTPUT REQUESTS
**
**
** FIELD OUTPUT: F-Output-1
**
*Output, field, number interval=1
*Node Output
CF, RF, U
*Element Output, directions=YES
LE, EE, E, S, COORD
*Contact Output
CDISP, CDSTRESS, CFORCE, CNAREA, CSTATUS, CSTRESS
**
** FIELD OUTPUT: F-Output-2
**
*Node Output, nset=ADAPTN
U, COORD
*Contact Output, nset=ADAPTN
CDISP, CSTRESS
**
** FIELD OUTPUT: F-Output-3
**
*Node Output, nset=QPOINT
RF,
**
** FIELD OUTPUT: F-Output-3
**
**
*Node Output, nset=ADAPTMN
U, COORD
*Contact Output, nset=ADAPTMN
CDISP, CSTRESS
** HISTORY OUTPUT: H-Output-1
**
*Output, history, variable=PRESELECT
*End Step
**
** WEAR BLOCK 22 (cycles 21 to 22)
**
*Step, name=CYCLE_22, nlgeom=YES, inc=1000
*Static
1., 1000.0, 0.0999, 1.
**
** BOUNDARY CONDITIONS
**
** Name: CYLINDER Type: Displacement/Rotation
*Boundary, amplitude=STROKE
DISP, 1, 1, 0.0
DISP, 2, 2
DISP, 6, 6
**
*adaptive mesh,elset=ADAPTE,freq=1,mesh=1
*adaptive mesh,elset=ADAPTME,freq=1,mesh=1
*adaptive mesh constraint, 
type=velocity,user
ADAPTN,1, ,2e-09
ADAPTMN,1, ,0.0
**
** OUTPUT REQUESTS
**
**
** FIELD OUTPUT: F-Output-1
**
*Output, field, number interval=1
*Node Output
CF, RF, U
*Element Output, directions=YES
LE, EE, E, S, COORD
*Contact Output
CDISP, CDSTRESS, CFORCE, CNAREA, CSTATUS, CSTRESS
**
** FIELD OUTPUT: F-Output-2
**
*Node Output, nset=ADAPTN
U, COORD
*Contact Output, nset=ADAPTN
CDISP, CSTRESS
**
** FIELD OUTPUT: F-Output-3
**
*Node Output, nset=QPOINT
RF,
**
** FIELD OUTPUT: F-Output-3
**
**
*Node Output, nset=ADAPTMN
U, COORD
*Contact Output, nset=ADAPTMN
CDISP, CSTRESS
** HISTORY OUTPUT: H-Output-1
**
*Output, history, variable=PRESELECT
*End Step
**
** WEAR BLOCK 23 (cycles 22 to 23)
**
*Step, name=CYCLE_23, nlgeom=YES, inc=1000
*Static
1., 1000.0, 0.0999, 1.
**
** BOUNDARY CONDITIONS
**
** Name: CYLINDER Type: Displacement/Rotation
*Boundary, amplitude=STROKE
DISP, 1, 1, 0.0
DISP, 2, 2
DISP, 6, 6
**
*adaptive mesh,elset=ADAPTE,freq=1,mesh=1
*adaptive mesh,elset=ADAPTME,freq=1,mesh=1
*adaptive mesh constraint, 
type=velocity,user
ADAPTN,1, ,2e-09
ADAPTMN,1, ,0.0
**
** OUTPUT REQUESTS
**
**
** FIELD OUTPUT: F-Output-1
**
*Output, field, number interval=1
*Node Output
CF, RF, U
*Element Output, directions=YES
LE, EE, E, S, COORD
*Contact Output
CDISP, CDSTRESS, CFORCE, CNAREA, CSTATUS, CSTRESS
**
** FIELD OUTPUT: F-Output-2
**
*Node Output, nset=ADAPTN
U, COORD
*Contact Output, nset=ADAPTN
CDISP, CSTRESS
**
** FIELD OUTPUT: F-Output-3
**
*Node Output, nset=QPOINT
RF,
**
** FIELD OUTPUT: F-Output-3
**
**
*Node Output, nset=ADAPTMN
U, COORD
*Contact Output, nset=ADAPTMN
CDISP, CSTRESS
** HISTORY OUTPUT: H-Output-1
**
*Output, history, variable=PRESELECT
*End Step
**
** WEAR BLOCK 24 (cycles 23 to 24)
**
*Step, name=CYCLE_24, nlgeom=YES, inc=1000
*Static
1., 1000.0, 0.0999, 1.
**
** BOUNDARY CONDITIONS
**
** Name: CYLINDER Type: Displacement/Rotation
*Boundary, amplitude=STROKE
DISP, 1, 1, 0.0
DISP, 2, 2
DISP, 6, 6
**
*adaptive mesh,elset=ADAPTE,freq=1,mesh=1
*adaptive mesh,elset=ADAPTME,freq=1,mesh=1
*adaptive mesh constraint, 
type=velocity,user
ADAPTN,1, ,2e-09
ADAPTMN,1, ,0.0
**
** OUTPUT REQUESTS
**
**
** FIELD OUTPUT: F-Output-1
**
*Output, field, number interval=1
*Node Output
CF, RF, U
*Element Output, directions=YES
LE, EE, E, S, COORD
*Contact Output
CDISP, CDSTRESS, CFORCE, CNAREA, CSTATUS, CSTRESS
**
** FIELD OUTPUT: F-Output-2
**
*Node Output, nset=ADAPTN
U, COORD
*Contact Output, nset=ADAPTN
CDISP, CSTRESS
**
** FIELD OUTPUT: F-Output-3
**
*Node Output, nset=QPOINT
RF,
**
** FIELD OUTPUT: F-Output-3
**
**
*Node Output, nset=ADAPTMN
U, COORD
*Contact Output, nset=ADAPTMN
CDISP, CSTRESS
** HISTORY OUTPUT: H-Output-1
**
*Output, history, variable=PRESELECT
*End Step
**
** WEAR BLOCK 25 (cycles 24 to 25)
**
*Step, name=CYCLE_25, nlgeom=YES, inc=1000
*Static
1., 1000.0, 0.0999, 1.
**
** BOUNDARY CONDITIONS
**
** Name: CYLINDER Type: Displacement/Rotation
*Boundary, amplitude=STROKE
DISP, 1, 1, 0.0
DISP, 2, 2
DISP, 6, 6
**
*adaptive mesh,elset=ADAPTE,freq=1,mesh=1
*adaptive mesh,elset=ADAPTME,freq=1,mesh=1
*adaptive mesh constraint, 
type=velocity,user
ADAPTN,1, ,2e-09
ADAPTMN,1, ,0.0
**
** OUTPUT REQUESTS
**
**
** FIELD OUTPUT: F-Output-1
**
*Output, field, number interval=1
*Node Output
CF, RF, U
*Element Output, directions=YES
LE, EE, E, S, COORD
*Contact Output
CDISP, CDSTRESS, CFORCE, CNAREA, CSTATUS, CSTRESS
**
** FIELD OUTPUT: F-Output-2
**
*Node Output, nset=ADAPTN
U, COORD
*Contact Output, nset=ADAPTN
CDISP, CSTRESS
**
** FIELD OUTPUT: F-Output-3
**
*Node Output, nset=QPOINT
RF,
**
** FIELD OUTPUT: F-Output-3
**
**
*Node Output, nset=ADAPTMN
U, COORD
*Contact Output, nset=ADAPTMN
CDISP, CSTRESS
** HISTORY OUTPUT: H-Output-1
**
*Output, history, variable=PRESELECT
*End Step
**
** WEAR BLOCK 26 (cycles 25 to 26)
**
*Step, name=CYCLE_26, nlgeom=YES, inc=1000
*Static
1., 1000.0, 0.0999, 1.
**
** BOUNDARY CONDITIONS
**
** Name: CYLINDER Type: Displacement/Rotation
*Boundary, amplitude=STROKE
DISP, 1, 1, 0.0
DISP, 2, 2
DISP, 6, 6
**
*adaptive mesh,elset=ADAPTE,freq=1,mesh=1
*adaptive mesh,elset=ADAPTME,freq=1,mesh=1
*adaptive mesh constraint, 
type=velocity,user
ADAPTN,1, ,2e-09
ADAPTMN,1, ,0.0
**
** OUTPUT REQUESTS
**
**
** FIELD OUTPUT: F-Output-1
**
*Output, field, number interval=1
*Node Output
CF, RF, U
*Element Output, directions=YES
LE, EE, E, S, COORD
*Contact Output
CDISP, CDSTRESS, CFORCE, CNAREA, CSTATUS, CSTRESS
**
** FIELD OUTPUT: F-Output-2
**
*Node Output, nset=ADAPTN
U, COORD
*Contact Output, nset=ADAPTN
CDISP, CSTRESS
**
** FIELD OUTPUT: F-Output-3
**
*Node Output, nset=QPOINT
RF,
**
** FIELD OUTPUT: F-Output-3
**
**
*Node Output, nset=ADAPTMN
U, COORD
*Contact Output, nset=ADAPTMN
CDISP, CSTRESS
** HISTORY OUTPUT: H-Output-1
**
*Output, history, variable=PRESELECT
*End Step
**
** WEAR BLOCK 27 (cycles 26 to 27)
**
*Step, name=CYCLE_27, nlgeom=YES, inc=1000
*Static
1., 1000.0, 0.0999, 1.
**
** BOUNDARY CONDITIONS
**
** Name: CYLINDER Type: Displacement/Rotation
*Boundary, amplitude=STROKE
DISP, 1, 1, 0.0
DISP, 2, 2
DISP, 6, 6
**
*adaptive mesh,elset=ADAPTE,freq=1,mesh=1
*adaptive mesh,elset=ADAPTME,freq=1,mesh=1
*adaptive mesh constraint, 
type=velocity,user
ADAPTN,1, ,2e-09
ADAPTMN,1, ,0.0
**
** OUTPUT REQUESTS
**
**
** FIELD OUTPUT: F-Output-1
**
*Output, field, number interval=1
*Node Output
CF, RF, U
*Element Output, directions=YES
LE, EE, E, S, COORD
*Contact Output
CDISP, CDSTRESS, CFORCE, CNAREA, CSTATUS, CSTRESS
**
** FIELD OUTPUT: F-Output-2
**
*Node Output, nset=ADAPTN
U, COORD
*Contact Output, nset=ADAPTN
CDISP, CSTRESS
**
** FIELD OUTPUT: F-Output-3
**
*Node Output, nset=QPOINT
RF,
**
** FIELD OUTPUT: F-Output-3
**
**
*Node Output, nset=ADAPTMN
U, COORD
*Contact Output, nset=ADAPTMN
CDISP, CSTRESS
** HISTORY OUTPUT: H-Output-1
**
*Output, history, variable=PRESELECT
*End Step
**
** WEAR BLOCK 28 (cycles 27 to 28)
**
*Step, name=CYCLE_28, nlgeom=YES, inc=1000
*Static
1., 1000.0, 0.0999, 1.
**
** BOUNDARY CONDITIONS
**
** Name: CYLINDER Type: Displacement/Rotation
*Boundary, amplitude=STROKE
DISP, 1, 1, 0.0
DISP, 2, 2
DISP, 6, 6
**
*adaptive mesh,elset=ADAPTE,freq=1,mesh=1
*adaptive mesh,elset=ADAPTME,freq=1,mesh=1
*adaptive mesh constraint, 
type=velocity,user
ADAPTN,1, ,2e-09
ADAPTMN,1, ,0.0
**
** OUTPUT REQUESTS
**
**
** FIELD OUTPUT: F-Output-1
**
*Output, field, number interval=1
*Node Output
CF, RF, U
*Element Output, directions=YES
LE, EE, E, S, COORD
*Contact Output
CDISP, CDSTRESS, CFORCE, CNAREA, CSTATUS, CSTRESS
**
** FIELD OUTPUT: F-Output-2
**
*Node Output, nset=ADAPTN
U, COORD
*Contact Output, nset=ADAPTN
CDISP, CSTRESS
**
** FIELD OUTPUT: F-Output-3
**
*Node Output, nset=QPOINT
RF,
**
** FIELD OUTPUT: F-Output-3
**
**
*Node Output, nset=ADAPTMN
U, COORD
*Contact Output, nset=ADAPTMN
CDISP, CSTRESS
** HISTORY OUTPUT: H-Output-1
**
*Output, history, variable=PRESELECT
*End Step
**
** WEAR BLOCK 29 (cycles 28 to 29)
**
*Step, name=CYCLE_29, nlgeom=YES, inc=1000
*Static
1., 1000.0, 0.0999, 1.
**
** BOUNDARY CONDITIONS
**
** Name: CYLINDER Type: Displacement/Rotation
*Boundary, amplitude=STROKE
DISP, 1, 1, 0.0
DISP, 2, 2
DISP, 6, 6
**
*adaptive mesh,elset=ADAPTE,freq=1,mesh=1
*adaptive mesh,elset=ADAPTME,freq=1,mesh=1
*adaptive mesh constraint, 
type=velocity,user
ADAPTN,1, ,2e-09
ADAPTMN,1, ,0.0
**
** OUTPUT REQUESTS
**
**
** FIELD OUTPUT: F-Output-1
**
*Output, field, number interval=1
*Node Output
CF, RF, U
*Element Output, directions=YES
LE, EE, E, S, COORD
*Contact Output
CDISP, CDSTRESS, CFORCE, CNAREA, CSTATUS, CSTRESS
**
** FIELD OUTPUT: F-Output-2
**
*Node Output, nset=ADAPTN
U, COORD
*Contact Output, nset=ADAPTN
CDISP, CSTRESS
**
** FIELD OUTPUT: F-Output-3
**
*Node Output, nset=QPOINT
RF,
**
** FIELD OUTPUT: F-Output-3
**
**
*Node Output, nset=ADAPTMN
U, COORD
*Contact Output, nset=ADAPTMN
CDISP, CSTRESS
** HISTORY OUTPUT: H-Output-1
**
*Output, history, variable=PRESELECT
*End Step
**
** WEAR BLOCK 30 (cycles 29 to 30)
**
*Step, name=CYCLE_30, nlgeom=YES, inc=1000
*Static
1., 1000.0, 0.0999, 1.
**
** BOUNDARY CONDITIONS
**
** Name: CYLINDER Type: Displacement/Rotation
*Boundary, amplitude=STROKE
DISP, 1, 1, 0.0
DISP, 2, 2
DISP, 6, 6
**
*adaptive mesh,elset=ADAPTE,freq=1,mesh=1
*adaptive mesh,elset=ADAPTME,freq=1,mesh=1
*adaptive mesh constraint, 
type=velocity,user
ADAPTN,1, ,2e-09
ADAPTMN,1, ,0.0
**
** OUTPUT REQUESTS
**
**
** FIELD OUTPUT: F-Output-1
**
*Output, field, number interval=1
*Node Output
CF, RF, U
*Element Output, directions=YES
LE, EE, E, S, COORD
*Contact Output
CDISP, CDSTRESS, CFORCE, CNAREA, CSTATUS, CSTRESS
**
** FIELD OUTPUT: F-Output-2
**
*Node Output, nset=ADAPTN
U, COORD
*Contact Output, nset=ADAPTN
CDISP, CSTRESS
**
** FIELD OUTPUT: F-Output-3
**
*Node Output, nset=QPOINT
RF,
**
** FIELD OUTPUT: F-Output-3
**
**
*Node Output, nset=ADAPTMN
U, COORD
*Contact Output, nset=ADAPTMN
CDISP, CSTRESS
** HISTORY OUTPUT: H-Output-1
**
*Output, history, variable=PRESELECT
*End Step
**
** WEAR BLOCK 31 (cycles 30 to 31)
**
*Step, name=CYCLE_31, nlgeom=YES, inc=1000
*Static
1., 1000.0, 0.0999, 1.
**
** BOUNDARY CONDITIONS
**
** Name: CYLINDER Type: Displacement/Rotation
*Boundary, amplitude=STROKE
DISP, 1, 1, 0.0
DISP, 2, 2
DISP, 6, 6
**
*adaptive mesh,elset=ADAPTE,freq=1,mesh=1
*adaptive mesh,elset=ADAPTME,freq=1,mesh=1
*adaptive mesh constraint, 
type=velocity,user
ADAPTN,1, ,2e-09
ADAPTMN,1, ,0.0
**
** OUTPUT REQUESTS
**
**
** FIELD OUTPUT: F-Output-1
**
*Output, field, number interval=1
*Node Output
CF, RF, U
*Element Output, directions=YES
LE, EE, E, S, COORD
*Contact Output
CDISP, CDSTRESS, CFORCE, CNAREA, CSTATUS, CSTRESS
**
** FIELD OUTPUT: F-Output-2
**
*Node Output, nset=ADAPTN
U, COORD
*Contact Output, nset=ADAPTN
CDISP, CSTRESS
**
** FIELD OUTPUT: F-Output-3
**
*Node Output, nset=QPOINT
RF,
**
** FIELD OUTPUT: F-Output-3
**
**
*Node Output, nset=ADAPTMN
U, COORD
*Contact Output, nset=ADAPTMN
CDISP, CSTRESS
** HISTORY OUTPUT: H-Output-1
**
*Output, history, variable=PRESELECT
*End Step
**
** WEAR BLOCK 32 (cycles 31 to 32)
**
*Step, name=CYCLE_32, nlgeom=YES, inc=1000
*Static
1., 1000.0, 0.0999, 1.
**
** BOUNDARY CONDITIONS
**
** Name: CYLINDER Type: Displacement/Rotation
*Boundary, amplitude=STROKE
DISP, 1, 1, 0.0
DISP, 2, 2
DISP, 6, 6
**
*adaptive mesh,elset=ADAPTE,freq=1,mesh=1
*adaptive mesh,elset=ADAPTME,freq=1,mesh=1
*adaptive mesh constraint, 
type=velocity,user
ADAPTN,1, ,2e-09
ADAPTMN,1, ,0.0
**
** OUTPUT REQUESTS
**
**
** FIELD OUTPUT: F-Output-1
**
*Output, field, number interval=1
*Node Output
CF, RF, U
*Element Output, directions=YES
LE, EE, E, S, COORD
*Contact Output
CDISP, CDSTRESS, CFORCE, CNAREA, CSTATUS, CSTRESS
**
** FIELD OUTPUT: F-Output-2
**
*Node Output, nset=ADAPTN
U, COORD
*Contact Output, nset=ADAPTN
CDISP, CSTRESS
**
** FIELD OUTPUT: F-Output-3
**
*Node Output, nset=QPOINT
RF,
**
** FIELD OUTPUT: F-Output-3
**
**
*Node Output, nset=ADAPTMN
U, COORD
*Contact Output, nset=ADAPTMN
CDISP, CSTRESS
** HISTORY OUTPUT: H-Output-1
**
*Output, history, variable=PRESELECT
*End Step
**
** WEAR BLOCK 33 (cycles 32 to 33)
**
*Step, name=CYCLE_33, nlgeom=YES, inc=1000
*Static
1., 1000.0, 0.0999, 1.
**
** BOUNDARY CONDITIONS
**
** Name: CYLINDER Type: Displacement/Rotation
*Boundary, amplitude=STROKE
DISP, 1, 1, 0.0
DISP, 2, 2
DISP, 6, 6
**
*adaptive mesh,elset=ADAPTE,freq=1,mesh=1
*adaptive mesh,elset=ADAPTME,freq=1,mesh=1
*adaptive mesh constraint, 
type=velocity,user
ADAPTN,1, ,2e-09
ADAPTMN,1, ,0.0
**
** OUTPUT REQUESTS
**
**
** FIELD OUTPUT: F-Output-1
**
*Output, field, number interval=1
*Node Output
CF, RF, U
*Element Output, directions=YES
LE, EE, E, S, COORD
*Contact Output
CDISP, CDSTRESS, CFORCE, CNAREA, CSTATUS, CSTRESS
**
** FIELD OUTPUT: F-Output-2
**
*Node Output, nset=ADAPTN
U, COORD
*Contact Output, nset=ADAPTN
CDISP, CSTRESS
**
** FIELD OUTPUT: F-Output-3
**
*Node Output, nset=QPOINT
RF,
**
** FIELD OUTPUT: F-Output-3
**
**
*Node Output, nset=ADAPTMN
U, COORD
*Contact Output, nset=ADAPTMN
CDISP, CSTRESS
** HISTORY OUTPUT: H-Output-1
**
*Output, history, variable=PRESELECT
*End Step
**
** WEAR BLOCK 34 (cycles 33 to 34)
**
*Step, name=CYCLE_34, nlgeom=YES, inc=1000
*Static
1., 1000.0, 0.0999, 1.
**
** BOUNDARY CONDITIONS
**
** Name: CYLINDER Type: Displacement/Rotation
*Boundary, amplitude=STROKE
DISP, 1, 1, 0.0
DISP, 2, 2
DISP, 6, 6
**
*adaptive mesh,elset=ADAPTE,freq=1,mesh=1
*adaptive mesh,elset=ADAPTME,freq=1,mesh=1
*adaptive mesh constraint, 
type=velocity,user
ADAPTN,1, ,2e-09
ADAPTMN,1, ,0.0
**
** OUTPUT REQUESTS
**
**
** FIELD OUTPUT: F-Output-1
**
*Output, field, number interval=1
*Node Output
CF, RF, U
*Element Output, directions=YES
LE, EE, E, S, COORD
*Contact Output
CDISP, CDSTRESS, CFORCE, CNAREA, CSTATUS, CSTRESS
**
** FIELD OUTPUT: F-Output-2
**
*Node Output, nset=ADAPTN
U, COORD
*Contact Output, nset=ADAPTN
CDISP, CSTRESS
**
** FIELD OUTPUT: F-Output-3
**
*Node Output, nset=QPOINT
RF,
**
** FIELD OUTPUT: F-Output-3
**
**
*Node Output, nset=ADAPTMN
U, COORD
*Contact Output, nset=ADAPTMN
CDISP, CSTRESS
** HISTORY OUTPUT: H-Output-1
**
*Output, history, variable=PRESELECT
*End Step
**
** WEAR BLOCK 35 (cycles 34 to 35)
**
*Step, name=CYCLE_35, nlgeom=YES, inc=1000
*Static
1., 1000.0, 0.0999, 1.
**
** BOUNDARY CONDITIONS
**
** Name: CYLINDER Type: Displacement/Rotation
*Boundary, amplitude=STROKE
DISP, 1, 1, 0.0
DISP, 2, 2
DISP, 6, 6
**
*adaptive mesh,elset=ADAPTE,freq=1,mesh=1
*adaptive mesh,elset=ADAPTME,freq=1,mesh=1
*adaptive mesh constraint, 
type=velocity,user
ADAPTN,1, ,2e-09
ADAPTMN,1, ,0.0
**
** OUTPUT REQUESTS
**
**
** FIELD OUTPUT: F-Output-1
**
*Output, field, number interval=1
*Node Output
CF, RF, U
*Element Output, directions=YES
LE, EE, E, S, COORD
*Contact Output
CDISP, CDSTRESS, CFORCE, CNAREA, CSTATUS, CSTRESS
**
** FIELD OUTPUT: F-Output-2
**
*Node Output, nset=ADAPTN
U, COORD
*Contact Output, nset=ADAPTN
CDISP, CSTRESS
**
** FIELD OUTPUT: F-Output-3
**
*Node Output, nset=QPOINT
RF,
**
** FIELD OUTPUT: F-Output-3
**
**
*Node Output, nset=ADAPTMN
U, COORD
*Contact Output, nset=ADAPTMN
CDISP, CSTRESS
** HISTORY OUTPUT: H-Output-1
**
*Output, history, variable=PRESELECT
*End Step
**
** WEAR BLOCK 36 (cycles 35 to 36)
**
*Step, name=CYCLE_36, nlgeom=YES, inc=1000
*Static
1., 1000.0, 0.0999, 1.
**
** BOUNDARY CONDITIONS
**
** Name: CYLINDER Type: Displacement/Rotation
*Boundary, amplitude=STROKE
DISP, 1, 1, 0.0
DISP, 2, 2
DISP, 6, 6
**
*adaptive mesh,elset=ADAPTE,freq=1,mesh=1
*adaptive mesh,elset=ADAPTME,freq=1,mesh=1
*adaptive mesh constraint, 
type=velocity,user
ADAPTN,1, ,2e-09
ADAPTMN,1, ,0.0
**
** OUTPUT REQUESTS
**
**
** FIELD OUTPUT: F-Output-1
**
*Output, field, number interval=1
*Node Output
CF, RF, U
*Element Output, directions=YES
LE, EE, E, S, COORD
*Contact Output
CDISP, CDSTRESS, CFORCE, CNAREA, CSTATUS, CSTRESS
**
** FIELD OUTPUT: F-Output-2
**
*Node Output, nset=ADAPTN
U, COORD
*Contact Output, nset=ADAPTN
CDISP, CSTRESS
**
** FIELD OUTPUT: F-Output-3
**
*Node Output, nset=QPOINT
RF,
**
** FIELD OUTPUT: F-Output-3
**
**
*Node Output, nset=ADAPTMN
U, COORD
*Contact Output, nset=ADAPTMN
CDISP, CSTRESS
** HISTORY OUTPUT: H-Output-1
**
*Output, history, variable=PRESELECT
*End Step
**
** WEAR BLOCK 37 (cycles 36 to 37)
**
*Step, name=CYCLE_37, nlgeom=YES, inc=1000
*Static
1., 1000.0, 0.0999, 1.
**
** BOUNDARY CONDITIONS
**
** Name: CYLINDER Type: Displacement/Rotation
*Boundary, amplitude=STROKE
DISP, 1, 1, 0.0
DISP, 2, 2
DISP, 6, 6
**
*adaptive mesh,elset=ADAPTE,freq=1,mesh=1
*adaptive mesh,elset=ADAPTME,freq=1,mesh=1
*adaptive mesh constraint, 
type=velocity,user
ADAPTN,1, ,2e-09
ADAPTMN,1, ,0.0
**
** OUTPUT REQUESTS
**
**
** FIELD OUTPUT: F-Output-1
**
*Output, field, number interval=1
*Node Output
CF, RF, U
*Element Output, directions=YES
LE, EE, E, S, COORD
*Contact Output
CDISP, CDSTRESS, CFORCE, CNAREA, CSTATUS, CSTRESS
**
** FIELD OUTPUT: F-Output-2
**
*Node Output, nset=ADAPTN
U, COORD
*Contact Output, nset=ADAPTN
CDISP, CSTRESS
**
** FIELD OUTPUT: F-Output-3
**
*Node Output, nset=QPOINT
RF,
**
** FIELD OUTPUT: F-Output-3
**
**
*Node Output, nset=ADAPTMN
U, COORD
*Contact Output, nset=ADAPTMN
CDISP, CSTRESS
** HISTORY OUTPUT: H-Output-1
**
*Output, history, variable=PRESELECT
*End Step
**
** WEAR BLOCK 38 (cycles 37 to 38)
**
*Step, name=CYCLE_38, nlgeom=YES, inc=1000
*Static
1., 1000.0, 0.0999, 1.
**
** BOUNDARY CONDITIONS
**
** Name: CYLINDER Type: Displacement/Rotation
*Boundary, amplitude=STROKE
DISP, 1, 1, 0.0
DISP, 2, 2
DISP, 6, 6
**
*adaptive mesh,elset=ADAPTE,freq=1,mesh=1
*adaptive mesh,elset=ADAPTME,freq=1,mesh=1
*adaptive mesh constraint, 
type=velocity,user
ADAPTN,1, ,2e-09
ADAPTMN,1, ,0.0
**
** OUTPUT REQUESTS
**
**
** FIELD OUTPUT: F-Output-1
**
*Output, field, number interval=1
*Node Output
CF, RF, U
*Element Output, directions=YES
LE, EE, E, S, COORD
*Contact Output
CDISP, CDSTRESS, CFORCE, CNAREA, CSTATUS, CSTRESS
**
** FIELD OUTPUT: F-Output-2
**
*Node Output, nset=ADAPTN
U, COORD
*Contact Output, nset=ADAPTN
CDISP, CSTRESS
**
** FIELD OUTPUT: F-Output-3
**
*Node Output, nset=QPOINT
RF,
**
** FIELD OUTPUT: F-Output-3
**
**
*Node Output, nset=ADAPTMN
U, COORD
*Contact Output, nset=ADAPTMN
CDISP, CSTRESS
** HISTORY OUTPUT: H-Output-1
**
*Output, history, variable=PRESELECT
*End Step
**
** WEAR BLOCK 39 (cycles 38 to 39)
**
*Step, name=CYCLE_39, nlgeom=YES, inc=1000
*Static
1., 1000.0, 0.0999, 1.
**
** BOUNDARY CONDITIONS
**
** Name: CYLINDER Type: Displacement/Rotation
*Boundary, amplitude=STROKE
DISP, 1, 1, 0.0
DISP, 2, 2
DISP, 6, 6
**
*adaptive mesh,elset=ADAPTE,freq=1,mesh=1
*adaptive mesh,elset=ADAPTME,freq=1,mesh=1
*adaptive mesh constraint, 
type=velocity,user
ADAPTN,1, ,2e-09
ADAPTMN,1, ,0.0
**
** OUTPUT REQUESTS
**
**
** FIELD OUTPUT: F-Output-1
**
*Output, field, number interval=1
*Node Output
CF, RF, U
*Element Output, directions=YES
LE, EE, E, S, COORD
*Contact Output
CDISP, CDSTRESS, CFORCE, CNAREA, CSTATUS, CSTRESS
**
** FIELD OUTPUT: F-Output-2
**
*Node Output, nset=ADAPTN
U, COORD
*Contact Output, nset=ADAPTN
CDISP, CSTRESS
**
** FIELD OUTPUT: F-Output-3
**
*Node Output, nset=QPOINT
RF,
**
** FIELD OUTPUT: F-Output-3
**
**
*Node Output, nset=ADAPTMN
U, COORD
*Contact Output, nset=ADAPTMN
CDISP, CSTRESS
** HISTORY OUTPUT: H-Output-1
**
*Output, history, variable=PRESELECT
*End Step
**
** WEAR BLOCK 40 (cycles 39 to 40)
**
*Step, name=CYCLE_40, nlgeom=YES, inc=1000
*Static
1., 1000.0, 0.0999, 1.
**
** BOUNDARY CONDITIONS
**
** Name: CYLINDER Type: Displacement/Rotation
*Boundary, amplitude=STROKE
DISP, 1, 1, 0.0
DISP, 2, 2
DISP, 6, 6
**
*adaptive mesh,elset=ADAPTE,freq=1,mesh=1
*adaptive mesh,elset=ADAPTME,freq=1,mesh=1
*adaptive mesh constraint, 
type=velocity,user
ADAPTN,1, ,2e-09
ADAPTMN,1, ,0.0
**
** OUTPUT REQUESTS
**
**
** FIELD OUTPUT: F-Output-1
**
*Output, field, number interval=1
*Node Output
CF, RF, U
*Element Output, directions=YES
LE, EE, E, S, COORD
*Contact Output
CDISP, CDSTRESS, CFORCE, CNAREA, CSTATUS, CSTRESS
**
** FIELD OUTPUT: F-Output-2
**
*Node Output, nset=ADAPTN
U, COORD
*Contact Output, nset=ADAPTN
CDISP, CSTRESS
**
** FIELD OUTPUT: F-Output-3
**
*Node Output, nset=QPOINT
RF,
**
** FIELD OUTPUT: F-Output-3
**
**
*Node Output, nset=ADAPTMN
U, COORD
*Contact Output, nset=ADAPTMN
CDISP, CSTRESS
** HISTORY OUTPUT: H-Output-1
**
*Output, history, variable=PRESELECT
*End Step
**
** WEAR BLOCK 41 (cycles 40 to 41)
**
*Step, name=CYCLE_41, nlgeom=YES, inc=1000
*Static
1., 1000.0, 0.0999, 1.
**
** BOUNDARY CONDITIONS
**
** Name: CYLINDER Type: Displacement/Rotation
*Boundary, amplitude=STROKE
DISP, 1, 1, 0.0
DISP, 2, 2
DISP, 6, 6
**
*adaptive mesh,elset=ADAPTE,freq=1,mesh=1
*adaptive mesh,elset=ADAPTME,freq=1,mesh=1
*adaptive mesh constraint, 
type=velocity,user
ADAPTN,1, ,2e-09
ADAPTMN,1, ,0.0
**
** OUTPUT REQUESTS
**
**
** FIELD OUTPUT: F-Output-1
**
*Output, field, number interval=1
*Node Output
CF, RF, U
*Element Output, directions=YES
LE, EE, E, S, COORD
*Contact Output
CDISP, CDSTRESS, CFORCE, CNAREA, CSTATUS, CSTRESS
**
** FIELD OUTPUT: F-Output-2
**
*Node Output, nset=ADAPTN
U, COORD
*Contact Output, nset=ADAPTN
CDISP, CSTRESS
**
** FIELD OUTPUT: F-Output-3
**
*Node Output, nset=QPOINT
RF,
**
** FIELD OUTPUT: F-Output-3
**
**
*Node Output, nset=ADAPTMN
U, COORD
*Contact Output, nset=ADAPTMN
CDISP, CSTRESS
** HISTORY OUTPUT: H-Output-1
**
*Output, history, variable=PRESELECT
*End Step
**
** WEAR BLOCK 42 (cycles 41 to 42)
**
*Step, name=CYCLE_42, nlgeom=YES, inc=1000
*Static
1., 1000.0, 0.0999, 1.
**
** BOUNDARY CONDITIONS
**
** Name: CYLINDER Type: Displacement/Rotation
*Boundary, amplitude=STROKE
DISP, 1, 1, 0.0
DISP, 2, 2
DISP, 6, 6
**
*adaptive mesh,elset=ADAPTE,freq=1,mesh=1
*adaptive mesh,elset=ADAPTME,freq=1,mesh=1
*adaptive mesh constraint, 
type=velocity,user
ADAPTN,1, ,2e-09
ADAPTMN,1, ,0.0
**
** OUTPUT REQUESTS
**
**
** FIELD OUTPUT: F-Output-1
**
*Output, field, number interval=1
*Node Output
CF, RF, U
*Element Output, directions=YES
LE, EE, E, S, COORD
*Contact Output
CDISP, CDSTRESS, CFORCE, CNAREA, CSTATUS, CSTRESS
**
** FIELD OUTPUT: F-Output-2
**
*Node Output, nset=ADAPTN
U, COORD
*Contact Output, nset=ADAPTN
CDISP, CSTRESS
**
** FIELD OUTPUT: F-Output-3
**
*Node Output, nset=QPOINT
RF,
**
** FIELD OUTPUT: F-Output-3
**
**
*Node Output, nset=ADAPTMN
U, COORD
*Contact Output, nset=ADAPTMN
CDISP, CSTRESS
** HISTORY OUTPUT: H-Output-1
**
*Output, history, variable=PRESELECT
*End Step
**
** WEAR BLOCK 43 (cycles 42 to 43)
**
*Step, name=CYCLE_43, nlgeom=YES, inc=1000
*Static
1., 1000.0, 0.0999, 1.
**
** BOUNDARY CONDITIONS
**
** Name: CYLINDER Type: Displacement/Rotation
*Boundary, amplitude=STROKE
DISP, 1, 1, 0.0
DISP, 2, 2
DISP, 6, 6
**
*adaptive mesh,elset=ADAPTE,freq=1,mesh=1
*adaptive mesh,elset=ADAPTME,freq=1,mesh=1
*adaptive mesh constraint, 
type=velocity,user
ADAPTN,1, ,2e-09
ADAPTMN,1, ,0.0
**
** OUTPUT REQUESTS
**
**
** FIELD OUTPUT: F-Output-1
**
*Output, field, number interval=1
*Node Output
CF, RF, U
*Element Output, directions=YES
LE, EE, E, S, COORD
*Contact Output
CDISP, CDSTRESS, CFORCE, CNAREA, CSTATUS, CSTRESS
**
** FIELD OUTPUT: F-Output-2
**
*Node Output, nset=ADAPTN
U, COORD
*Contact Output, nset=ADAPTN
CDISP, CSTRESS
**
** FIELD OUTPUT: F-Output-3
**
*Node Output, nset=QPOINT
RF,
**
** FIELD OUTPUT: F-Output-3
**
**
*Node Output, nset=ADAPTMN
U, COORD
*Contact Output, nset=ADAPTMN
CDISP, CSTRESS
** HISTORY OUTPUT: H-Output-1
**
*Output, history, variable=PRESELECT
*End Step
**
** WEAR BLOCK 44 (cycles 43 to 44)
**
*Step, name=CYCLE_44, nlgeom=YES, inc=1000
*Static
1., 1000.0, 0.0999, 1.
**
** BOUNDARY CONDITIONS
**
** Name: CYLINDER Type: Displacement/Rotation
*Boundary, amplitude=STROKE
DISP, 1, 1, 0.0
DISP, 2, 2
DISP, 6, 6
**
*adaptive mesh,elset=ADAPTE,freq=1,mesh=1
*adaptive mesh,elset=ADAPTME,freq=1,mesh=1
*adaptive mesh constraint, 
type=velocity,user
ADAPTN,1, ,2e-09
ADAPTMN,1, ,0.0
**
** OUTPUT REQUESTS
**
**
** FIELD OUTPUT: F-Output-1
**
*Output, field, number interval=1
*Node Output
CF, RF, U
*Element Output, directions=YES
LE, EE, E, S, COORD
*Contact Output
CDISP, CDSTRESS, CFORCE, CNAREA, CSTATUS, CSTRESS
**
** FIELD OUTPUT: F-Output-2
**
*Node Output, nset=ADAPTN
U, COORD
*Contact Output, nset=ADAPTN
CDISP, CSTRESS
**
** FIELD OUTPUT: F-Output-3
**
*Node Output, nset=QPOINT
RF,
**
** FIELD OUTPUT: F-Output-3
**
**
*Node Output, nset=ADAPTMN
U, COORD
*Contact Output, nset=ADAPTMN
CDISP, CSTRESS
** HISTORY OUTPUT: H-Output-1
**
*Output, history, variable=PRESELECT
*End Step
**
** WEAR BLOCK 45 (cycles 44 to 45)
**
*Step, name=CYCLE_45, nlgeom=YES, inc=1000
*Static
1., 1000.0, 0.0999, 1.
**
** BOUNDARY CONDITIONS
**
** Name: CYLINDER Type: Displacement/Rotation
*Boundary, amplitude=STROKE
DISP, 1, 1, 0.0
DISP, 2, 2
DISP, 6, 6
**
*adaptive mesh,elset=ADAPTE,freq=1,mesh=1
*adaptive mesh,elset=ADAPTME,freq=1,mesh=1
*adaptive mesh constraint, 
type=velocity,user
ADAPTN,1, ,2e-09
ADAPTMN,1, ,0.0
**
** OUTPUT REQUESTS
**
**
** FIELD OUTPUT: F-Output-1
**
*Output, field, number interval=1
*Node Output
CF, RF, U
*Element Output, directions=YES
LE, EE, E, S, COORD
*Contact Output
CDISP, CDSTRESS, CFORCE, CNAREA, CSTATUS, CSTRESS
**
** FIELD OUTPUT: F-Output-2
**
*Node Output, nset=ADAPTN
U, COORD
*Contact Output, nset=ADAPTN
CDISP, CSTRESS
**
** FIELD OUTPUT: F-Output-3
**
*Node Output, nset=QPOINT
RF,
**
** FIELD OUTPUT: F-Output-3
**
**
*Node Output, nset=ADAPTMN
U, COORD
*Contact Output, nset=ADAPTMN
CDISP, CSTRESS
** HISTORY OUTPUT: H-Output-1
**
*Output, history, variable=PRESELECT
*End Step
